    1C
    1U meshsolid_t.inp                                                  
    1UUSER                                                              
    1UDATE              14.august.2016                                  
    1UTIME              15:45:19                                        
    1UHOST                                                              
    1UPGM               CalculiX                                        
    1UVERSION           Version 2.10                             
    1UCOMPILETIME       Sa 5. MÃ¤r 12:23:33 CET 2016                    
    1UDIR                                                               
    1UDBN                                                               
    1UMAT    1PDMS                                                      
    1UMAT    2GLASS                                                     
    2C                          3927                                     1
 -1         1 1.50000E+01 0.00000E+00 5.00000E-01
 -1         2-1.50000E+01 0.00000E+00-5.00000E-01
 -1         3 2.92635E+00 1.47118E+01 5.00000E-01
 -1         4 0.00000E+00 1.50000E+01 5.00000E-01
 -1         5 1.06066E+01 1.06066E+01 5.00000E-01
 -1         6 1.06066E+01 1.06066E+01-5.00000E-01
 -1         7 1.24720E+01 8.33355E+00 5.00000E-01
 -1         8-8.33355E+00 1.24720E+01-5.00000E-01
 -1         9-5.74025E+00 1.38582E+01-5.00000E-01
 -1        10 1.38582E+01-5.74025E+00-5.00000E-01
 -1        11 1.24720E+01 8.33355E+00-5.00000E-01
 -1        12 1.06066E+01-1.06066E+01-5.00000E-01
 -1        13 5.74025E+00-1.38582E+01-5.00000E-01
 -1        14 2.92635E+00-1.47118E+01-5.00000E-01
 -1        15 2.92635E+00 1.47118E+01-5.00000E-01
 -1        16 0.00000E+00-1.50000E+01-5.00000E-01
 -1        17-2.92635E+00-1.47118E+01-5.00000E-01
 -1        18-5.74025E+00-1.38582E+01-5.00000E-01
 -1        19-1.24720E+01-8.33355E+00-5.00000E-01
 -1        20-1.06066E+01 1.06066E+01-5.00000E-01
 -1        21-1.24720E+01 8.33355E+00-5.00000E-01
 -1        22-1.38582E+01 5.74025E+00-5.00000E-01
 -1        23-1.47118E+01 2.92635E+00-5.00000E-01
 -1        24 1.38582E+01 5.74025E+00-5.00000E-01
 -1        25 1.47118E+01 2.92635E+00 5.00000E-01
 -1        26 1.47118E+01 2.92635E+00-5.00000E-01
 -1        27 8.33355E+00 1.24720E+01-5.00000E-01
 -1        28 5.74025E+00 1.38582E+01-5.00000E-01
 -1        29 8.33355E+00 1.24720E+01 5.00000E-01
 -1        30-1.47118E+01 2.92635E+00 5.00000E-01
 -1        31-2.78255E+00 1.63964E+00 5.00000E-01
 -1        32-1.06066E+01 1.06066E+01 5.00000E-01
 -1        33-9.26818E+00 4.32608E+00 5.00000E-01
 -1        34-1.38582E+01 5.74025E+00 5.00000E-01
 -1        35-1.24720E+01 8.33355E+00 5.00000E-01
 -1        36-8.08153E-01 3.12696E+00 5.00000E-01
 -1        37-1.94327E+00 2.57967E+00 5.00000E-01
 -1        38-1.63964E+00-2.78255E+00 5.00000E-01
 -1        39-8.33355E+00-1.24720E+01 5.00000E-01
 -1        40-2.78255E+00-1.63964E+00 5.00000E-01
 -1        41-1.24720E+01-8.33355E+00 5.00000E-01
 -1        42-1.38582E+01-5.74025E+00 5.00000E-01
 -1        43-9.61260E+00-3.49459E+00 5.00000E-01
 -1        44-1.02182E+01 4.50000E-01 5.00000E-01
 -1        45-1.50000E+01 0.00000E+00 5.00000E-01
 -1        46-1.47118E+01-2.92635E+00 5.00000E-01
 -1        47-3.19820E+00-4.50000E-01 5.00000E-01
 -1        48 5.74025E+00 1.38582E+01 5.00000E-01
 -1        49-4.50000E-01-3.19820E+00 5.00000E-01
 -1        50-2.92635E+00 1.47118E+01 5.00000E-01
 -1        51-5.74025E+00 1.38582E+01 5.00000E-01
 -1        52-4.32608E+00 9.26818E+00 5.00000E-01
 -1        53 4.32608E+00 9.26818E+00 5.00000E-01
 -1        54 3.19820E+00-4.50000E-01 5.00000E-01
 -1        55 2.78255E+00 1.63964E+00 5.00000E-01
 -1        56 2.78255E+00-1.63964E+00 5.00000E-01
 -1        57 1.02182E+01 4.50000E-01 5.00000E-01
 -1        58 1.38582E+01 5.74025E+00 5.00000E-01
 -1        59 7.54356E+00 6.90716E+00 5.00000E-01
 -1        60 1.38582E+01-5.74025E+00 5.00000E-01
 -1        61 1.24720E+01-8.33355E+00 5.00000E-01
 -1        62 1.06066E+01-1.06066E+01 5.00000E-01
 -1        63 7.54356E+00-6.90716E+00 5.00000E-01
 -1        64 9.26818E+00-4.32608E+00 5.00000E-01
 -1        65 2.57967E+00-1.94327E+00 5.00000E-01
 -1        66 3.12696E+00 8.08153E-01 5.00000E-01
 -1        67 4.32608E+00-9.26818E+00 5.00000E-01
 -1        68 5.74025E+00-1.38582E+01 5.00000E-01
 -1        69 8.08153E-01-3.12696E+00 5.00000E-01
 -1        70 4.50000E-01 3.19820E+00 5.00000E-01
 -1        71 4.50000E-01-1.02182E+01 5.00000E-01
 -1        72-8.08153E-01-3.12696E+00 5.00000E-01
 -1        73-5.74025E+00-1.38582E+01 5.00000E-01
 -1        74-8.33355E+00 1.24720E+01 5.00000E-01
 -1        75 0.00000E+00 1.50000E+01-5.00000E-01
 -1        76-2.92635E+00 1.47118E+01-5.00000E-01
 -1        77 1.50000E+01 0.00000E+00-5.00000E-01
 -1        78 1.47118E+01-2.92635E+00 5.00000E-01
 -1        79 0.00000E+00-1.50000E+01 5.00000E-01
 -1        80 8.33355E+00-1.24720E+01 5.00000E-01
 -1        81 8.33355E+00-1.24720E+01-5.00000E-01
 -1        82-2.92635E+00-1.47118E+01 5.00000E-01
 -1        83-1.47118E+01-2.92635E+00-5.00000E-01
 -1        84 2.92635E+00-1.47118E+01 5.00000E-01
 -1        85-8.33355E+00-1.24720E+01-5.00000E-01
 -1        86-1.06066E+01-1.06066E+01-5.00000E-01
 -1        87-1.06066E+01-1.06066E+01 5.00000E-01
 -1        88-1.38582E+01-5.74025E+00-5.00000E-01
 -1        89 1.24720E+01-8.33355E+00-5.00000E-01
 -1        90 1.47118E+01-2.92635E+00-5.00000E-01
 -1        91 3.19820E+00-4.50000E-01 6.95000E-01
 -1        92 1.02182E+01-4.50000E-01 6.95000E-01
 -1        93 1.02182E+01 4.50000E-01 6.95000E-01
 -1        94 3.19820E+00 4.50000E-01 6.95000E-01
 -1        95 9.26818E+00 4.32608E+00 6.95000E-01
 -1        96 3.12696E+00 8.08153E-01 6.95000E-01
 -1        97 2.78255E+00 1.63964E+00 6.95000E-01
 -1        98 9.61260E+00 3.49459E+00 6.95000E-01
 -1        99 9.61260E+00 3.49459E+00 5.00000E-01
 -1       100 6.90716E+00 7.54356E+00 6.95000E-01
 -1       101 2.57967E+00 1.94327E+00 6.95000E-01
 -1       102 7.54356E+00 6.90716E+00 6.95000E-01
 -1       103 1.94327E+00 2.57967E+00 5.00000E-01
 -1       104 1.94327E+00 2.57967E+00 6.95000E-01
 -1       105 2.57967E+00 1.94327E+00 5.00000E-01
 -1       106 3.49459E+00 9.61260E+00 5.00000E-01
 -1       107 3.49459E+00 9.61260E+00 6.95000E-01
 -1       108 8.08153E-01 3.12696E+00 6.95000E-01
 -1       109 1.63964E+00 2.78255E+00 5.00000E-01
 -1       110 4.32608E+00 9.26818E+00 6.95000E-01
 -1       111 1.63964E+00 2.78255E+00 6.95000E-01
 -1       112 4.50000E-01 1.02182E+01 5.00000E-01
 -1       113-4.50000E-01 1.02182E+01 6.95000E-01
 -1       114-4.50000E-01 3.19820E+00 5.00000E-01
 -1       115-4.50000E-01 3.19820E+00 6.95000E-01
 -1       116 4.50000E-01 1.02182E+01 6.95000E-01
 -1       117 4.50000E-01 3.19820E+00 6.95000E-01
 -1       118-3.49459E+00 9.61260E+00 5.00000E-01
 -1       119-4.32608E+00 9.26818E+00 6.95000E-01
 -1       120-3.49459E+00 9.61260E+00 6.95000E-01
 -1       121-1.63964E+00 2.78255E+00 5.00000E-01
 -1       122-8.08153E-01 3.12696E+00 6.95000E-01
 -1       123-1.63964E+00 2.78255E+00 6.95000E-01
 -1       124-6.90716E+00 7.54356E+00 6.95000E-01
 -1       125-1.94327E+00 2.57967E+00 6.95000E-01
 -1       126-7.54356E+00 6.90716E+00 5.00000E-01
 -1       127-6.90716E+00 7.54356E+00 5.00000E-01
 -1       128-7.54356E+00 6.90716E+00 6.95000E-01
 -1       129-2.57967E+00 1.94327E+00 6.95000E-01
 -1       130-2.57967E+00 1.94327E+00 5.00000E-01
 -1       131-2.78255E+00 1.63964E+00 6.95000E-01
 -1       132-9.61260E+00 3.49459E+00 5.00000E-01
 -1       133-3.12696E+00 8.08153E-01 6.95000E-01
 -1       134-9.26818E+00 4.32608E+00 6.95000E-01
 -1       135-9.61260E+00 3.49459E+00 6.95000E-01
 -1       136-1.02182E+01-4.50000E-01 5.00000E-01
 -1       137-1.02182E+01-4.50000E-01 6.95000E-01
 -1       138-1.02182E+01 4.50000E-01 6.95000E-01
 -1       139-3.19820E+00 4.50000E-01 6.95000E-01
 -1       140-3.19820E+00 4.50000E-01 5.00000E-01
 -1       141-3.19820E+00-4.50000E-01 6.95000E-01
 -1       142-3.12696E+00-8.08153E-01 5.00000E-01
 -1       143-9.61260E+00-3.49459E+00 6.95000E-01
 -1       144-9.26818E+00-4.32608E+00 6.95000E-01
 -1       145-3.12696E+00-8.08153E-01 6.95000E-01
 -1       146-2.78255E+00-1.63964E+00 6.95000E-01
 -1       147-2.57967E+00-1.94327E+00 6.95000E-01
 -1       148-1.94327E+00-2.57967E+00 6.95000E-01
 -1       149-6.90716E+00-7.54356E+00 5.00000E-01
 -1       150-7.54356E+00-6.90716E+00 6.95000E-01
 -1       151-2.57967E+00-1.94327E+00 5.00000E-01
 -1       152-7.54356E+00-6.90716E+00 5.00000E-01
 -1       153-1.94327E+00-2.57967E+00 5.00000E-01
 -1       154-6.90716E+00-7.54356E+00 6.95000E-01
 -1       155-1.63964E+00-2.78255E+00 6.95000E-01
 -1       156-4.32608E+00-9.26818E+00 5.00000E-01
 -1       157-4.32608E+00-9.26818E+00 6.95000E-01
 -1       158-3.49459E+00-9.61260E+00 6.95000E-01
 -1       159-8.08153E-01-3.12696E+00 6.95000E-01
 -1       160 4.50000E-01-1.02182E+01 6.95000E-01
 -1       161 4.50000E-01-3.19820E+00 5.00000E-01
 -1       162 4.50000E-01-3.19820E+00 6.95000E-01
 -1       163-4.50000E-01-1.02182E+01 5.00000E-01
 -1       164-4.50000E-01-3.19820E+00 6.95000E-01
 -1       165-4.50000E-01-1.02182E+01 6.95000E-01
 -1       166 8.08153E-01-3.12696E+00 6.95000E-01
 -1       167 1.63964E+00-2.78255E+00 6.95000E-01
 -1       168 1.63964E+00-2.78255E+00 5.00000E-01
 -1       169 3.49459E+00-9.61260E+00 6.95000E-01
 -1       170 3.49459E+00-9.61260E+00 5.00000E-01
 -1       171 4.32608E+00-9.26818E+00 6.95000E-01
 -1       172 2.57967E+00-1.94327E+00 6.95000E-01
 -1       173 7.54356E+00-6.90716E+00 6.95000E-01
 -1       174 1.94327E+00-2.57967E+00 6.95000E-01
 -1       175 6.90716E+00-7.54356E+00 6.95000E-01
 -1       176 3.12696E+00-8.08153E-01 6.95000E-01
 -1       177 3.12696E+00-8.08153E-01 5.00000E-01
 -1       178 9.26818E+00-4.32608E+00 6.95000E-01
 -1       179 9.61260E+00-3.49459E+00 6.95000E-01
 -1       180 9.61260E+00-3.49459E+00 5.00000E-01
 -1       181 2.78255E+00-1.63964E+00 6.95000E-01
 -1       182 1.02182E+01-4.50000E-01 5.00000E-01
 -1       183 3.19820E+00 4.50000E-01 5.00000E-01
 -1       184 9.26818E+00 4.32608E+00 5.00000E-01
 -1       185 6.90716E+00 7.54356E+00 5.00000E-01
 -1       186 8.08153E-01 3.12696E+00 5.00000E-01
 -1       187-4.50000E-01 1.02182E+01 5.00000E-01
 -1       188-3.12696E+00 8.08153E-01 5.00000E-01
 -1       189-9.26818E+00-4.32608E+00 5.00000E-01
 -1       190-3.49459E+00-9.61260E+00 5.00000E-01
 -1       191 6.90716E+00-7.54356E+00 5.00000E-01
 -1       192 1.94327E+00-2.57967E+00 5.00000E-01
 -1       193 1.48559E+01 1.46318E+00 5.00000E-01
 -1       194 1.48559E+01 1.46318E+00-5.00000E-01
 -1       195-1.48559E+01 1.46318E+00-5.00000E-01
 -1       196-1.48559E+01 1.46318E+00 5.00000E-01
 -1       197 1.46318E+00 1.48559E+01 5.00000E-01
 -1       198 1.46318E+00 1.48559E+01-5.00000E-01
 -1       199-1.46318E+00-1.48559E+01 5.00000E-01
 -1       200-1.46318E+00-1.48559E+01-5.00000E-01
 -1       201 1.15393E+01 9.47007E+00 5.00000E-01
 -1       202 1.15393E+01 9.47007E+00-5.00000E-01
 -1       203-9.47007E+00 1.15393E+01 5.00000E-01
 -1       204-9.47007E+00 1.15393E+01-5.00000E-01
 -1       205-4.33330E+00 1.42850E+01 5.00000E-01
 -1       206-4.33330E+00 1.42850E+01-5.00000E-01
 -1       207 9.47007E+00-1.15393E+01 5.00000E-01
 -1       208 9.47007E+00-1.15393E+01-5.00000E-01
 -1       209 1.48559E+01-1.46318E+00-5.00000E-01
 -1       210 1.42850E+01-4.33330E+00-5.00000E-01
 -1       211 1.42850E+01 4.33330E+00-5.00000E-01
 -1       212 1.31651E+01-7.03690E+00-5.00000E-01
 -1       213 1.31651E+01 7.03690E+00-5.00000E-01
 -1       214 1.15393E+01-9.47007E+00-5.00000E-01
 -1       215 9.47007E+00 1.15393E+01-5.00000E-01
 -1       216 7.03690E+00-1.31651E+01-5.00000E-01
 -1       217 7.03690E+00 1.31651E+01-5.00000E-01
 -1       218 4.33330E+00-1.42850E+01-5.00000E-01
 -1       219 4.33330E+00 1.42850E+01-5.00000E-01
 -1       220 1.46318E+00-1.48559E+01-5.00000E-01
 -1       221-1.46318E+00 1.48559E+01-5.00000E-01
 -1       222-4.33330E+00-1.42850E+01-5.00000E-01
 -1       223-7.03690E+00-1.31651E+01-5.00000E-01
 -1       224-7.03690E+00 1.31651E+01-5.00000E-01
 -1       225-9.47007E+00-1.15393E+01-5.00000E-01
 -1       226-1.15393E+01-9.47007E+00-5.00000E-01
 -1       227-1.15393E+01 9.47007E+00-5.00000E-01
 -1       228-1.31651E+01-7.03690E+00-5.00000E-01
 -1       229-1.31651E+01 7.03690E+00-5.00000E-01
 -1       230-1.42850E+01-4.33330E+00-5.00000E-01
 -1       231-1.42850E+01 4.33330E+00-5.00000E-01
 -1       232-1.48559E+01-1.46318E+00-5.00000E-01
 -1       233 1.31651E+01 7.03690E+00 5.00000E-01
 -1       234 1.42850E+01 4.33330E+00 5.00000E-01
 -1       235 7.03690E+00 1.31651E+01 5.00000E-01
 -1       236 4.33330E+00 1.42850E+01 5.00000E-01
 -1       237 9.47007E+00 1.15393E+01 5.00000E-01
 -1       238-1.31651E+01 7.03690E+00 5.00000E-01
 -1       239-1.15393E+01 9.47007E+00 5.00000E-01
 -1       240-1.42850E+01 4.33330E+00 5.00000E-01
 -1       241-6.36978E+00 2.15137E+00 5.00000E-01
 -1       242-6.70820E+00 4.50000E-01 5.00000E-01
 -1       243-5.06161E+00 4.42521E+00 5.00000E-01
 -1       244-6.02536E+00 2.98286E+00 5.00000E-01
 -1       245-2.98286E+00 6.02536E+00 5.00000E-01
 -1       246-4.42521E+00 5.06161E+00 5.00000E-01
 -1       247-7.03690E+00 1.31651E+01 5.00000E-01
 -1       248-2.98286E+00-6.02536E+00 5.00000E-01
 -1       249-4.42521E+00-5.06161E+00 5.00000E-01
 -1       250-7.03690E+00-1.31651E+01 5.00000E-01
 -1       251-5.06161E+00-4.42521E+00 5.00000E-01
 -1       252-6.02536E+00-2.98286E+00 5.00000E-01
 -1       253-9.47007E+00-1.15393E+01 5.00000E-01
 -1       254-1.15393E+01-9.47007E+00 5.00000E-01
 -1       255-1.31651E+01-7.03690E+00 5.00000E-01
 -1       256-1.42850E+01-4.33330E+00 5.00000E-01
 -1       257-1.48559E+01-1.46318E+00 5.00000E-01
 -1       258-6.36978E+00-2.15137E+00 5.00000E-01
 -1       259-6.70820E+00-4.50000E-01 5.00000E-01
 -1       260 4.50000E-01 6.70820E+00 5.00000E-01
 -1       261 2.15137E+00 6.36978E+00 5.00000E-01
 -1       262-4.50000E-01 6.70820E+00 5.00000E-01
 -1       263-1.46318E+00 1.48559E+01 5.00000E-01
 -1       264-2.15137E+00 6.36978E+00 5.00000E-01
 -1       265 4.42521E+00 5.06161E+00 5.00000E-01
 -1       266 2.98286E+00 6.02536E+00 5.00000E-01
 -1       267 6.70820E+00-4.50000E-01 5.00000E-01
 -1       268 6.36978E+00-2.15137E+00 5.00000E-01
 -1       269 1.48559E+01-1.46318E+00 5.00000E-01
 -1       270 1.42850E+01-4.33330E+00 5.00000E-01
 -1       271 6.02536E+00 2.98286E+00 5.00000E-01
 -1       272 5.06161E+00 4.42521E+00 5.00000E-01
 -1       273 1.31651E+01-7.03690E+00 5.00000E-01
 -1       274 1.15393E+01-9.47007E+00 5.00000E-01
 -1       275 6.02536E+00-2.98286E+00 5.00000E-01
 -1       276 5.06161E+00-4.42521E+00 5.00000E-01
 -1       277 6.70820E+00 4.50000E-01 5.00000E-01
 -1       278 6.36978E+00 2.15137E+00 5.00000E-01
 -1       279 7.03690E+00-1.31651E+01 5.00000E-01
 -1       280 4.42521E+00-5.06161E+00 5.00000E-01
 -1       281 2.98286E+00-6.02536E+00 5.00000E-01
 -1       282 4.33330E+00-1.42850E+01 5.00000E-01
 -1       283 2.15137E+00-6.36978E+00 5.00000E-01
 -1       284 4.50000E-01-6.70820E+00 5.00000E-01
 -1       285 1.46318E+00-1.48559E+01 5.00000E-01
 -1       286-4.50000E-01-6.70820E+00 5.00000E-01
 -1       287-2.15137E+00-6.36978E+00 5.00000E-01
 -1       288-4.33330E+00-1.42850E+01 5.00000E-01
 -1       289 6.70820E+00 4.50000E-01 6.95000E-01
 -1       290 6.70820E+00-4.50000E-01 6.95000E-01
 -1       291 6.36978E+00 2.15137E+00 6.95000E-01
 -1       292 6.02536E+00 2.98286E+00 6.95000E-01
 -1       293 5.06161E+00 4.42521E+00 6.95000E-01
 -1       294 4.42521E+00 5.06161E+00 6.95000E-01
 -1       295 2.98286E+00 6.02536E+00 6.95000E-01
 -1       296 2.15137E+00 6.36978E+00 6.95000E-01
 -1       297 4.50000E-01 6.70820E+00 6.95000E-01
 -1       298-4.50000E-01 6.70820E+00 6.95000E-01
 -1       299-2.15137E+00 6.36978E+00 6.95000E-01
 -1       300-2.98286E+00 6.02536E+00 6.95000E-01
 -1       301-4.42521E+00 5.06161E+00 6.95000E-01
 -1       302-5.06161E+00 4.42521E+00 6.95000E-01
 -1       303-6.02536E+00 2.98286E+00 6.95000E-01
 -1       304-6.36978E+00 2.15137E+00 6.95000E-01
 -1       305-6.70820E+00 4.50000E-01 6.95000E-01
 -1       306-6.70820E+00-4.50000E-01 6.95000E-01
 -1       307-6.02536E+00-2.98286E+00 6.95000E-01
 -1       308-6.36978E+00-2.15137E+00 6.95000E-01
 -1       309-4.42521E+00-5.06161E+00 6.95000E-01
 -1       310-5.06161E+00-4.42521E+00 6.95000E-01
 -1       311-2.15137E+00-6.36978E+00 6.95000E-01
 -1       312-2.98286E+00-6.02536E+00 6.95000E-01
 -1       313 4.50000E-01-6.70820E+00 6.95000E-01
 -1       314-4.50000E-01-6.70820E+00 6.95000E-01
 -1       315 2.98286E+00-6.02536E+00 6.95000E-01
 -1       316 2.15137E+00-6.36978E+00 6.95000E-01
 -1       317 5.06161E+00-4.42521E+00 6.95000E-01
 -1       318 4.42521E+00-5.06161E+00 6.95000E-01
 -1       319 6.36978E+00-2.15137E+00 6.95000E-01
 -1       320 6.02536E+00-2.98286E+00 6.95000E-01
 -1       321 1.47838E+01 2.19476E+00 5.00000E-01
 -1       322 1.49279E+01 7.31588E-01 5.00000E-01
 -1       323-1.49279E+01 7.31588E-01-5.00000E-01
 -1       324 2.19476E+00 1.47838E+01 5.00000E-01
 -1       325-8.90181E+00 1.20056E+01 5.00000E-01
 -1       326 1.40716E+01-5.03678E+00-5.00000E-01
 -1       327 1.44984E+01 3.62983E+00-5.00000E-01
 -1       328 1.28186E+01-7.68523E+00-5.00000E-01
 -1       329 1.35117E+01 6.38858E+00-5.00000E-01
 -1       330 1.20056E+01-8.90181E+00-5.00000E-01
 -1       331 1.10730E+01-1.00383E+01-5.00000E-01
 -1       332 1.00383E+01 1.10730E+01-5.00000E-01
 -1       333 6.38858E+00-1.35117E+01-5.00000E-01
 -1       334 7.68523E+00 1.28186E+01-5.00000E-01
 -1       335 3.62983E+00-1.44984E+01-5.00000E-01
 -1       336 5.03678E+00 1.40716E+01-5.00000E-01
 -1       337 2.19476E+00-1.47838E+01-5.00000E-01
 -1       338 7.31588E-01-1.49279E+01-5.00000E-01
 -1       339-2.19476E+00 1.47838E+01-5.00000E-01
 -1       340-7.31588E-01 1.49279E+01-5.00000E-01
 -1       341-3.62983E+00-1.44984E+01-5.00000E-01
 -1       342-5.03678E+00-1.40716E+01-5.00000E-01
 -1       343-7.68523E+00-1.28186E+01-5.00000E-01
 -1       344-7.68523E+00 1.28186E+01-5.00000E-01
 -1       345-6.38858E+00 1.35117E+01-5.00000E-01
 -1       346-1.00383E+01-1.10730E+01-5.00000E-01
 -1       347-1.20056E+01-8.90181E+00-5.00000E-01
 -1       348-1.20056E+01 8.90181E+00-5.00000E-01
 -1       349-1.10730E+01 1.00383E+01-5.00000E-01
 -1       350-1.35117E+01-6.38858E+00-5.00000E-01
 -1       351-1.28186E+01 7.68523E+00-5.00000E-01
 -1       352-1.44984E+01-3.62983E+00-5.00000E-01
 -1       353-1.40716E+01 5.03678E+00-5.00000E-01
 -1       354-1.49279E+01-7.31588E-01-5.00000E-01
 -1       355 1.35117E+01 6.38858E+00 5.00000E-01
 -1       356 7.68523E+00 1.28186E+01 5.00000E-01
 -1       357 1.00383E+01 1.10730E+01 5.00000E-01
 -1       358-1.10730E+01 1.00383E+01 5.00000E-01
 -1       359-1.40716E+01 5.03678E+00 5.00000E-01
 -1       360-4.95320E+00 4.50000E-01 5.00000E-01
 -1       361-4.40396E+00 2.31125E+00 5.00000E-01
 -1       362-7.68523E+00 1.28186E+01 5.00000E-01
 -1       363-3.18424E+00-3.82064E+00 5.00000E-01
 -1       364-5.66619E+00-6.30259E+00 5.00000E-01
 -1       365-3.82064E+00-3.18424E+00 5.00000E-01
 -1       366-4.40396E+00-2.31125E+00 5.00000E-01
 -1       367-7.64677E+00-3.65447E+00 5.00000E-01
 -1       368-1.10730E+01-1.00383E+01 5.00000E-01
 -1       369-1.28186E+01-7.68523E+00 5.00000E-01
 -1       370-1.47838E+01-2.19476E+00 5.00000E-01
 -1       371-4.74837E+00-1.47976E+00 5.00000E-01
 -1       372-8.46320E+00-4.50000E-01 5.00000E-01
 -1       373 4.50000E-01 4.95320E+00 5.00000E-01
 -1       374 1.47976E+00 4.74837E+00 5.00000E-01
 -1       375 2.82298E+00 7.99119E+00 5.00000E-01
 -1       376-2.19476E+00 1.47838E+01 5.00000E-01
 -1       377-1.47976E+00 4.74837E+00 5.00000E-01
 -1       378 2.31125E+00 4.40396E+00 5.00000E-01
 -1       379 4.95320E+00-4.50000E-01 5.00000E-01
 -1       380 7.99119E+00-2.82298E+00 5.00000E-01
 -1       381 7.64677E+00 3.65447E+00 5.00000E-01
 -1       382 3.82064E+00 3.18424E+00 5.00000E-01
 -1       383 1.20056E+01-8.90181E+00 5.00000E-01
 -1       384 3.82064E+00-3.18424E+00 5.00000E-01
 -1       385 6.30259E+00-5.66619E+00 5.00000E-01
 -1       386 3.18424E+00-3.82064E+00 5.00000E-01
 -1       387 3.65447E+00-7.64677E+00 5.00000E-01
 -1       388 1.47976E+00-4.74837E+00 5.00000E-01
 -1       389 4.50000E-01-4.95320E+00 5.00000E-01
 -1       390 4.50000E-01-8.46320E+00 5.00000E-01
 -1       391 2.19476E+00-1.47838E+01 5.00000E-01
 -1       392-2.82298E+00-7.99119E+00 5.00000E-01
 -1       393-5.83070E+00 4.50000E-01 5.00000E-01
 -1       394-4.07570E+00 4.50000E-01 5.00000E-01
 -1       395-5.21466E+00 2.64705E+00 5.00000E-01
 -1       396-3.59325E+00 1.97545E+00 5.00000E-01
 -1       397-2.56376E+00-3.20016E+00 5.00000E-01
 -1       398-3.80473E+00-4.44113E+00 5.00000E-01
 -1       399-5.04570E+00-5.68210E+00 5.00000E-01
 -1       400-6.28667E+00-6.92307E+00 5.00000E-01
 -1       401-3.20016E+00-2.56376E+00 5.00000E-01
 -1       402-3.59325E+00-1.97545E+00 5.00000E-01
 -1       403-5.21466E+00-2.64705E+00 5.00000E-01
 -1       404-6.83607E+00-3.31867E+00 5.00000E-01
 -1       405-8.45748E+00-3.99027E+00 5.00000E-01
 -1       406-3.93766E+00-1.14396E+00 5.00000E-01
 -1       407-7.58570E+00-4.50000E-01 5.00000E-01
 -1       408-9.34070E+00-4.50000E-01 5.00000E-01
 -1       409 4.50000E-01 5.83070E+00 5.00000E-01
 -1       410 4.50000E-01 4.07570E+00 5.00000E-01
 -1       411 1.14396E+00 3.93766E+00 5.00000E-01
 -1       412 1.81557E+00 5.55907E+00 5.00000E-01
 -1       413 3.15879E+00 8.80190E+00 5.00000E-01
 -1       414-1.81557E+00 5.55907E+00 5.00000E-01
 -1       415-1.14396E+00 3.93766E+00 5.00000E-01
 -1       416 1.97545E+00 3.59325E+00 5.00000E-01
 -1       417 5.83070E+00-4.50000E-01 5.00000E-01
 -1       418 4.07570E+00-4.50000E-01 5.00000E-01
 -1       419 7.18048E+00-2.48718E+00 5.00000E-01
 -1       420 8.80190E+00-3.15879E+00 5.00000E-01
 -1       421 6.83607E+00 3.31867E+00 5.00000E-01
 -1       422 8.45748E+00 3.99027E+00 5.00000E-01
 -1       423 4.44113E+00 3.80473E+00 5.00000E-01
 -1       424 3.20016E+00 2.56376E+00 5.00000E-01
 -1       425 3.20016E+00-2.56376E+00 5.00000E-01
 -1       426 4.44113E+00-3.80473E+00 5.00000E-01
 -1       427 5.68210E+00-5.04570E+00 5.00000E-01
 -1       428 6.92307E+00-6.28667E+00 5.00000E-01
 -1       429 2.56376E+00-3.20016E+00 5.00000E-01
 -1       430 3.31867E+00-6.83607E+00 5.00000E-01
 -1       431 3.99027E+00-8.45748E+00 5.00000E-01
 -1       432 1.81557E+00-5.55907E+00 5.00000E-01
 -1       433 1.14396E+00-3.93766E+00 5.00000E-01
 -1       434 4.50000E-01-4.07570E+00 5.00000E-01
 -1       435 4.50000E-01-5.83070E+00 5.00000E-01
 -1       436 4.50000E-01-7.58570E+00 5.00000E-01
 -1       437 4.50000E-01-9.34070E+00 5.00000E-01
 -1       438-2.48718E+00-7.18048E+00 5.00000E-01
 -1       439-3.15879E+00-8.80190E+00 5.00000E-01
 -1       440 1.47838E+01 2.19476E+00-5.00000E-01
 -1       441 1.49279E+01 7.31588E-01-5.00000E-01
 -1       442-1.47838E+01 2.19476E+00-5.00000E-01
 -1       443-1.47838E+01 2.19476E+00 5.00000E-01
 -1       444-1.49279E+01 7.31588E-01 5.00000E-01
 -1       445 7.31588E-01 1.49279E+01 5.00000E-01
 -1       446 7.31588E-01 1.49279E+01-5.00000E-01
 -1       447 2.19476E+00 1.47838E+01-5.00000E-01
 -1       448-2.19476E+00-1.47838E+01 5.00000E-01
 -1       449-7.31588E-01-1.49279E+01 5.00000E-01
 -1       450-7.31588E-01-1.49279E+01-5.00000E-01
 -1       451-2.19476E+00-1.47838E+01-5.00000E-01
 -1       452 1.20056E+01 8.90181E+00 5.00000E-01
 -1       453 1.10730E+01 1.00383E+01 5.00000E-01
 -1       454 1.10730E+01 1.00383E+01-5.00000E-01
 -1       455 1.20056E+01 8.90181E+00-5.00000E-01
 -1       456-1.00383E+01 1.10730E+01 5.00000E-01
 -1       457-1.00383E+01 1.10730E+01-5.00000E-01
 -1       458-8.90181E+00 1.20056E+01-5.00000E-01
 -1       459-3.62983E+00 1.44984E+01 5.00000E-01
 -1       460-5.03678E+00 1.40716E+01 5.00000E-01
 -1       461-5.03678E+00 1.40716E+01-5.00000E-01
 -1       462-3.62983E+00 1.44984E+01-5.00000E-01
 -1       463 8.90181E+00-1.20056E+01 5.00000E-01
 -1       464 1.00383E+01-1.10730E+01 5.00000E-01
 -1       465 1.00383E+01-1.10730E+01-5.00000E-01
 -1       466 8.90181E+00-1.20056E+01-5.00000E-01
 -1       467 1.47838E+01-2.19476E+00-5.00000E-01
 -1       468 1.49279E+01-7.31588E-01-5.00000E-01
 -1       469 1.44984E+01-3.62983E+00-5.00000E-01
 -1       470 1.40716E+01 5.03678E+00-5.00000E-01
 -1       471 1.35117E+01-6.38858E+00-5.00000E-01
 -1       472 1.28186E+01 7.68523E+00-5.00000E-01
 -1       473 8.90181E+00 1.20056E+01-5.00000E-01
 -1       474 7.68523E+00-1.28186E+01-5.00000E-01
 -1       475 6.38858E+00 1.35117E+01-5.00000E-01
 -1       476 5.03678E+00-1.40716E+01-5.00000E-01
 -1       477 3.62983E+00 1.44984E+01-5.00000E-01
 -1       478-6.38858E+00-1.35117E+01-5.00000E-01
 -1       479-8.90181E+00-1.20056E+01-5.00000E-01
 -1       480-1.10730E+01-1.00383E+01-5.00000E-01
 -1       481-1.28186E+01-7.68523E+00-5.00000E-01
 -1       482-1.35117E+01 6.38858E+00-5.00000E-01
 -1       483-1.40716E+01-5.03678E+00-5.00000E-01
 -1       484-1.44984E+01 3.62983E+00-5.00000E-01
 -1       485-1.47838E+01-2.19476E+00-5.00000E-01
 -1       486 1.28186E+01 7.68523E+00 5.00000E-01
 -1       487 1.44984E+01 3.62983E+00 5.00000E-01
 -1       488 1.40716E+01 5.03678E+00 5.00000E-01
 -1       489 6.38858E+00 1.35117E+01 5.00000E-01
 -1       490 5.03678E+00 1.40716E+01 5.00000E-01
 -1       491 3.62983E+00 1.44984E+01 5.00000E-01
 -1       492 8.90181E+00 1.20056E+01 5.00000E-01
 -1       493-1.28186E+01 7.68523E+00 5.00000E-01
 -1       494-1.35117E+01 6.38858E+00 5.00000E-01
 -1       495-1.20056E+01 8.90181E+00 5.00000E-01
 -1       496-1.44984E+01 3.62983E+00 5.00000E-01
 -1       497-7.99119E+00 2.82298E+00 5.00000E-01
 -1       498-4.74837E+00 1.47976E+00 5.00000E-01
 -1       499-8.46320E+00 4.50000E-01 5.00000E-01
 -1       500-6.30259E+00 5.66619E+00 5.00000E-01
 -1       501-3.82064E+00 3.18424E+00 5.00000E-01
 -1       502-7.64677E+00 3.65447E+00 5.00000E-01
 -1       503-3.18424E+00 3.82064E+00 5.00000E-01
 -1       504-3.65447E+00 7.64677E+00 5.00000E-01
 -1       505-2.31125E+00 4.40396E+00 5.00000E-01
 -1       506-5.66619E+00 6.30259E+00 5.00000E-01
 -1       507-6.38858E+00 1.35117E+01 5.00000E-01
 -1       508-2.31125E+00-4.40396E+00 5.00000E-01
 -1       509-3.65447E+00-7.64677E+00 5.00000E-01
 -1       510-6.38858E+00-1.35117E+01 5.00000E-01
 -1       511-7.68523E+00-1.28186E+01 5.00000E-01
 -1       512-6.30259E+00-5.66619E+00 5.00000E-01
 -1       513-8.90181E+00-1.20056E+01 5.00000E-01
 -1       514-1.00383E+01-1.10730E+01 5.00000E-01
 -1       515-1.20056E+01-8.90181E+00 5.00000E-01
 -1       516-1.35117E+01-6.38858E+00 5.00000E-01
 -1       517-1.40716E+01-5.03678E+00 5.00000E-01
 -1       518-1.44984E+01-3.62983E+00 5.00000E-01
 -1       519-1.49279E+01-7.31588E-01 5.00000E-01
 -1       520-7.99119E+00-2.82298E+00 5.00000E-01
 -1       521-4.95320E+00-4.50000E-01 5.00000E-01
 -1       522 4.50000E-01 8.46320E+00 5.00000E-01
 -1       523-4.50000E-01 8.46320E+00 5.00000E-01
 -1       524-4.50000E-01 4.95320E+00 5.00000E-01
 -1       525-7.31588E-01 1.49279E+01 5.00000E-01
 -1       526-2.82298E+00 7.99119E+00 5.00000E-01
 -1       527 5.66619E+00 6.30259E+00 5.00000E-01
 -1       528 3.18424E+00 3.82064E+00 5.00000E-01
 -1       529 3.65447E+00 7.64677E+00 5.00000E-01
 -1       530 8.46320E+00-4.50000E-01 5.00000E-01
 -1       531 4.74837E+00-1.47976E+00 5.00000E-01
 -1       532 4.40396E+00 2.31125E+00 5.00000E-01
 -1       533 1.44984E+01-3.62983E+00 5.00000E-01
 -1       534 1.49279E+01-7.31588E-01 5.00000E-01
 -1       535 1.47838E+01-2.19476E+00 5.00000E-01
 -1       536 1.40716E+01-5.03678E+00 5.00000E-01
 -1       537 6.30259E+00 5.66619E+00 5.00000E-01
 -1       538 1.35117E+01-6.38858E+00 5.00000E-01
 -1       539 1.28186E+01-7.68523E+00 5.00000E-01
 -1       540 1.10730E+01-1.00383E+01 5.00000E-01
 -1       541 4.40396E+00-2.31125E+00 5.00000E-01
 -1       542 7.64677E+00-3.65447E+00 5.00000E-01
 -1       543 7.68523E+00-1.28186E+01 5.00000E-01
 -1       544 8.46320E+00 4.50000E-01 5.00000E-01
 -1       545 4.95320E+00 4.50000E-01 5.00000E-01
 -1       546 4.74837E+00 1.47976E+00 5.00000E-01
 -1       547 7.99119E+00 2.82298E+00 5.00000E-01
 -1       548 6.38858E+00-1.35117E+01 5.00000E-01
 -1       549 5.66619E+00-6.30259E+00 5.00000E-01
 -1       550 2.31125E+00-4.40396E+00 5.00000E-01
 -1       551 2.82298E+00-7.99119E+00 5.00000E-01
 -1       552 5.03678E+00-1.40716E+01 5.00000E-01
 -1       553 3.62983E+00-1.44984E+01 5.00000E-01
 -1       554 7.31588E-01-1.49279E+01 5.00000E-01
 -1       555-4.50000E-01-4.95320E+00 5.00000E-01
 -1       556-4.50000E-01-8.46320E+00 5.00000E-01
 -1       557-1.47976E+00-4.74837E+00 5.00000E-01
 -1       558-3.62983E+00-1.44984E+01 5.00000E-01
 -1       559-5.03678E+00-1.40716E+01 5.00000E-01
 -1       560 8.46320E+00-4.50000E-01 6.95000E-01
 -1       561 4.95320E+00 4.50000E-01 6.95000E-01
 -1       562 8.46320E+00 4.50000E-01 6.95000E-01
 -1       563 4.95320E+00-4.50000E-01 6.95000E-01
 -1       564 4.40396E+00 2.31125E+00 6.95000E-01
 -1       565 7.99119E+00 2.82298E+00 6.95000E-01
 -1       566 4.74837E+00 1.47976E+00 6.95000E-01
 -1       567 7.64677E+00 3.65447E+00 6.95000E-01
 -1       568 3.18424E+00 3.82064E+00 6.95000E-01
 -1       569 6.30259E+00 5.66619E+00 6.95000E-01
 -1       570 3.82064E+00 3.18424E+00 6.95000E-01
 -1       571 5.66619E+00 6.30259E+00 6.95000E-01
 -1       572 1.47976E+00 4.74837E+00 6.95000E-01
 -1       573 3.65447E+00 7.64677E+00 6.95000E-01
 -1       574 2.31125E+00 4.40396E+00 6.95000E-01
 -1       575 2.82298E+00 7.99119E+00 6.95000E-01
 -1       576-4.50000E-01 4.95320E+00 6.95000E-01
 -1       577 4.50000E-01 8.46320E+00 6.95000E-01
 -1       578 4.50000E-01 4.95320E+00 6.95000E-01
 -1       579-4.50000E-01 8.46320E+00 6.95000E-01
 -1       580-2.82298E+00 7.99119E+00 6.95000E-01
 -1       581-1.47976E+00 4.74837E+00 6.95000E-01
 -1       582-2.31125E+00 4.40396E+00 6.95000E-01
 -1       583-3.65447E+00 7.64677E+00 6.95000E-01
 -1       584-5.66619E+00 6.30259E+00 6.95000E-01
 -1       585-3.18424E+00 3.82064E+00 6.95000E-01
 -1       586-3.82064E+00 3.18424E+00 6.95000E-01
 -1       587-6.30259E+00 5.66619E+00 6.95000E-01
 -1       588-4.74837E+00 1.47976E+00 6.95000E-01
 -1       589-7.64677E+00 3.65447E+00 6.95000E-01
 -1       590-4.40396E+00 2.31125E+00 6.95000E-01
 -1       591-7.99119E+00 2.82298E+00 6.95000E-01
 -1       592-8.46320E+00 4.50000E-01 6.95000E-01
 -1       593-4.95320E+00 4.50000E-01 6.95000E-01
 -1       594-4.95320E+00-4.50000E-01 6.95000E-01
 -1       595-8.46320E+00-4.50000E-01 6.95000E-01
 -1       596-7.99119E+00-2.82298E+00 6.95000E-01
 -1       597-4.40396E+00-2.31125E+00 6.95000E-01
 -1       598-7.64677E+00-3.65447E+00 6.95000E-01
 -1       599-4.74837E+00-1.47976E+00 6.95000E-01
 -1       600-3.18424E+00-3.82064E+00 6.95000E-01
 -1       601-5.66619E+00-6.30259E+00 6.95000E-01
 -1       602-6.30259E+00-5.66619E+00 6.95000E-01
 -1       603-3.82064E+00-3.18424E+00 6.95000E-01
 -1       604-1.47976E+00-4.74837E+00 6.95000E-01
 -1       605-2.82298E+00-7.99119E+00 6.95000E-01
 -1       606-3.65447E+00-7.64677E+00 6.95000E-01
 -1       607-2.31125E+00-4.40396E+00 6.95000E-01
 -1       608 4.50000E-01-4.95320E+00 6.95000E-01
 -1       609 4.50000E-01-8.46320E+00 6.95000E-01
 -1       610-4.50000E-01-8.46320E+00 6.95000E-01
 -1       611-4.50000E-01-4.95320E+00 6.95000E-01
 -1       612 2.82298E+00-7.99119E+00 6.95000E-01
 -1       613 2.31125E+00-4.40396E+00 6.95000E-01
 -1       614 3.65447E+00-7.64677E+00 6.95000E-01
 -1       615 1.47976E+00-4.74837E+00 6.95000E-01
 -1       616 5.66619E+00-6.30259E+00 6.95000E-01
 -1       617 3.82064E+00-3.18424E+00 6.95000E-01
 -1       618 6.30259E+00-5.66619E+00 6.95000E-01
 -1       619 3.18424E+00-3.82064E+00 6.95000E-01
 -1       620 7.64677E+00-3.65447E+00 6.95000E-01
 -1       621 4.74837E+00-1.47976E+00 6.95000E-01
 -1       622 7.99119E+00-2.82298E+00 6.95000E-01
 -1       623 4.40396E+00-2.31125E+00 6.95000E-01
 -1       624-4.44113E+00-3.80473E+00 5.00000E-01
 -1       625-5.55907E+00-1.81557E+00 5.00000E-01
 -1       626 2.48718E+00 7.18048E+00 5.00000E-01
 -1       627 2.64705E+00 5.21466E+00 5.00000E-01
 -1       628 3.80473E+00-4.44113E+00 5.00000E-01
 -1       629-7.18048E+00 2.48718E+00 5.00000E-01
 -1       630-8.80190E+00 3.15879E+00 5.00000E-01
 -1       631-5.55907E+00 1.81557E+00 5.00000E-01
 -1       632-5.68210E+00 5.04570E+00 5.00000E-01
 -1       633-6.92307E+00 6.28667E+00 5.00000E-01
 -1       634-3.20016E+00 2.56376E+00 5.00000E-01
 -1       635-4.44113E+00 3.80473E+00 5.00000E-01
 -1       636-3.31867E+00 6.83607E+00 5.00000E-01
 -1       637-3.99027E+00 8.45748E+00 5.00000E-01
 -1       638-2.64705E+00 5.21466E+00 5.00000E-01
 -1       639-2.64705E+00-5.21466E+00 5.00000E-01
 -1       640-1.97545E+00-3.59325E+00 5.00000E-01
 -1       641-3.31867E+00-6.83607E+00 5.00000E-01
 -1       642-6.92307E+00-6.28667E+00 5.00000E-01
 -1       643-5.68210E+00-5.04570E+00 5.00000E-01
 -1       644-7.18048E+00-2.48718E+00 5.00000E-01
 -1       645 4.50000E-01 9.34070E+00 5.00000E-01
 -1       646 4.50000E-01 7.58570E+00 5.00000E-01
 -1       647-2.48718E+00 7.18048E+00 5.00000E-01
 -1       648 5.04570E+00 5.68210E+00 5.00000E-01
 -1       649 6.28667E+00 6.92307E+00 5.00000E-01
 -1       650 3.80473E+00 4.44113E+00 5.00000E-01
 -1       651 9.34070E+00-4.50000E-01 5.00000E-01
 -1       652 7.58570E+00-4.50000E-01 5.00000E-01
 -1       653 3.93766E+00-1.14396E+00 5.00000E-01
 -1       654 5.55907E+00-1.81557E+00 5.00000E-01
 -1       655 3.59325E+00 1.97545E+00 5.00000E-01
 -1       656 5.21466E+00 2.64705E+00 5.00000E-01
 -1       657 3.59325E+00-1.97545E+00 5.00000E-01
 -1       658 6.83607E+00-3.31867E+00 5.00000E-01
 -1       659 9.34070E+00 4.50000E-01 5.00000E-01
 -1       660 5.83070E+00 4.50000E-01 5.00000E-01
 -1       661 5.55907E+00 1.81557E+00 5.00000E-01
 -1       662 3.93766E+00 1.14396E+00 5.00000E-01
 -1       663 7.18048E+00 2.48718E+00 5.00000E-01
 -1       664 5.04570E+00-5.68210E+00 5.00000E-01
 -1       665 2.64705E+00-5.21466E+00 5.00000E-01
 -1       666 2.48718E+00-7.18048E+00 5.00000E-01
 -1       667-4.50000E-01-4.07570E+00 5.00000E-01
 -1       668-4.50000E-01-9.34070E+00 5.00000E-01
 -1       669-4.50000E-01-7.58570E+00 5.00000E-01
 -1       670-1.14396E+00-3.93766E+00 5.00000E-01
 -1       671-1.81557E+00-5.55907E+00 5.00000E-01
 -1       672-5.21466E+00 2.64705E+00 6.95000E-01
 -1       673-6.83607E+00-3.31867E+00 6.95000E-01
 -1       674-5.55907E+00-1.81557E+00 6.95000E-01
 -1       675 7.18048E+00-2.48718E+00 6.95000E-01
 -1       676-3.93766E+00 1.14396E+00 5.00000E-01
 -1       677-7.58570E+00 4.50000E-01 5.00000E-01
 -1       678-9.34070E+00 4.50000E-01 5.00000E-01
 -1       679-6.83607E+00 3.31867E+00 5.00000E-01
 -1       680-8.45748E+00 3.99027E+00 5.00000E-01
 -1       681-2.56376E+00 3.20016E+00 5.00000E-01
 -1       682-3.80473E+00 4.44113E+00 5.00000E-01
 -1       683-1.97545E+00 3.59325E+00 5.00000E-01
 -1       684-5.04570E+00 5.68210E+00 5.00000E-01
 -1       685-6.28667E+00 6.92307E+00 5.00000E-01
 -1       686-3.99027E+00-8.45748E+00 5.00000E-01
 -1       687-8.80190E+00-3.15879E+00 5.00000E-01
 -1       688-5.83070E+00-4.50000E-01 5.00000E-01
 -1       689-4.07570E+00-4.50000E-01 5.00000E-01
 -1       690-4.50000E-01 5.83070E+00 5.00000E-01
 -1       691-4.50000E-01 9.34070E+00 5.00000E-01
 -1       692-4.50000E-01 7.58570E+00 5.00000E-01
 -1       693-4.50000E-01 4.07570E+00 5.00000E-01
 -1       694-3.15879E+00 8.80190E+00 5.00000E-01
 -1       695 2.56376E+00 3.20016E+00 5.00000E-01
 -1       696 3.31867E+00 6.83607E+00 5.00000E-01
 -1       697 3.99027E+00 8.45748E+00 5.00000E-01
 -1       698 5.68210E+00 5.04570E+00 5.00000E-01
 -1       699 6.92307E+00 6.28667E+00 5.00000E-01
 -1       700 5.21466E+00-2.64705E+00 5.00000E-01
 -1       701 8.45748E+00-3.99027E+00 5.00000E-01
 -1       702 7.58570E+00 4.50000E-01 5.00000E-01
 -1       703 4.07570E+00 4.50000E-01 5.00000E-01
 -1       704 8.80190E+00 3.15879E+00 5.00000E-01
 -1       705 6.28667E+00-6.92307E+00 5.00000E-01
 -1       706 1.97545E+00-3.59325E+00 5.00000E-01
 -1       707 3.15879E+00-8.80190E+00 5.00000E-01
 -1       708-4.50000E-01-5.83070E+00 5.00000E-01
 -1       709-5.68210E+00 5.04570E+00 6.95000E-01
 -1       710-3.31867E+00 6.83607E+00 6.95000E-01
 -1       711-1.81557E+00 5.55907E+00 6.95000E-01
 -1       712 4.50000E-01 5.83070E+00 6.95000E-01
 -1       713 2.48718E+00 7.18048E+00 6.95000E-01
 -1       714 2.64705E+00 5.21466E+00 6.95000E-01
 -1       715 7.58570E+00 4.50000E-01 6.95000E-01
 -1       716 4.07570E+00 4.50000E-01 6.95000E-01
 -1       717 9.34070E+00-4.50000E-01 6.95000E-01
 -1       718 7.58570E+00-4.50000E-01 6.95000E-01
 -1       719 5.83070E+00 4.50000E-01 6.95000E-01
 -1       720 9.34070E+00 4.50000E-01 6.95000E-01
 -1       721 4.44113E+00 3.80473E+00 6.95000E-01
 -1       722 5.55907E+00 1.81557E+00 6.95000E-01
 -1       723 5.83070E+00-4.50000E-01 6.95000E-01
 -1       724 4.07570E+00-4.50000E-01 6.95000E-01
 -1       725 8.80190E+00 3.15879E+00 6.95000E-01
 -1       726 3.59325E+00 1.97545E+00 6.95000E-01
 -1       727 5.21466E+00 2.64705E+00 6.95000E-01
 -1       728 7.18048E+00 2.48718E+00 6.95000E-01
 -1       729 3.93766E+00 1.14396E+00 6.95000E-01
 -1       730 6.83607E+00 3.31867E+00 6.95000E-01
 -1       731 8.45748E+00 3.99027E+00 6.95000E-01
 -1       732 2.56376E+00 3.20016E+00 6.95000E-01
 -1       733 3.80473E+00 4.44113E+00 6.95000E-01
 -1       734 6.92307E+00 6.28667E+00 6.95000E-01
 -1       735 5.68210E+00 5.04570E+00 6.95000E-01
 -1       736 3.20016E+00 2.56376E+00 6.95000E-01
 -1       737 5.04570E+00 5.68210E+00 6.95000E-01
 -1       738 6.28667E+00 6.92307E+00 6.95000E-01
 -1       739 1.14396E+00 3.93766E+00 6.95000E-01
 -1       740 1.81557E+00 5.55907E+00 6.95000E-01
 -1       741 3.99027E+00 8.45748E+00 6.95000E-01
 -1       742 3.31867E+00 6.83607E+00 6.95000E-01
 -1       743 1.97545E+00 3.59325E+00 6.95000E-01
 -1       744 3.15879E+00 8.80190E+00 6.95000E-01
 -1       745-4.50000E-01 4.07570E+00 6.95000E-01
 -1       746-4.50000E-01 5.83070E+00 6.95000E-01
 -1       747 4.50000E-01 9.34070E+00 6.95000E-01
 -1       748 4.50000E-01 7.58570E+00 6.95000E-01
 -1       749 4.50000E-01 4.07570E+00 6.95000E-01
 -1       750-4.50000E-01 7.58570E+00 6.95000E-01
 -1       751-4.50000E-01 9.34070E+00 6.95000E-01
 -1       752-3.15879E+00 8.80190E+00 6.95000E-01
 -1       753-2.48718E+00 7.18048E+00 6.95000E-01
 -1       754-1.14396E+00 3.93766E+00 6.95000E-01
 -1       755-1.97545E+00 3.59325E+00 6.95000E-01
 -1       756-2.64705E+00 5.21466E+00 6.95000E-01
 -1       757-3.99027E+00 8.45748E+00 6.95000E-01
 -1       758-3.80473E+00 4.44113E+00 6.95000E-01
 -1       759-6.28667E+00 6.92307E+00 6.95000E-01
 -1       760-5.04570E+00 5.68210E+00 6.95000E-01
 -1       761-2.56376E+00 3.20016E+00 6.95000E-01
 -1       762-3.20016E+00 2.56376E+00 6.95000E-01
 -1       763-4.44113E+00 3.80473E+00 6.95000E-01
 -1       764-6.92307E+00 6.28667E+00 6.95000E-01
 -1       765-8.45748E+00 3.99027E+00 6.95000E-01
 -1       766-3.93766E+00 1.14396E+00 6.95000E-01
 -1       767-5.55907E+00 1.81557E+00 6.95000E-01
 -1       768-6.83607E+00 3.31867E+00 6.95000E-01
 -1       769-3.59325E+00 1.97545E+00 6.95000E-01
 -1       770-7.18048E+00 2.48718E+00 6.95000E-01
 -1       771-8.80190E+00 3.15879E+00 6.95000E-01
 -1       772-7.58570E+00-4.50000E-01 6.95000E-01
 -1       773-5.83070E+00 4.50000E-01 6.95000E-01
 -1       774-9.34070E+00 4.50000E-01 6.95000E-01
 -1       775-7.58570E+00 4.50000E-01 6.95000E-01
 -1       776-4.07570E+00 4.50000E-01 6.95000E-01
 -1       777-4.07570E+00-4.50000E-01 6.95000E-01
 -1       778-5.83070E+00-4.50000E-01 6.95000E-01
 -1       779-9.34070E+00-4.50000E-01 6.95000E-01
 -1       780-3.59325E+00-1.97545E+00 6.95000E-01
 -1       781-8.80190E+00-3.15879E+00 6.95000E-01
 -1       782-7.18048E+00-2.48718E+00 6.95000E-01
 -1       783-5.21466E+00-2.64705E+00 6.95000E-01
 -1       784-8.45748E+00-3.99027E+00 6.95000E-01
 -1       785-3.93766E+00-1.14396E+00 6.95000E-01
 -1       786-4.50000E-01-5.83070E+00 6.95000E-01
 -1       787-4.44113E+00-3.80473E+00 6.95000E-01
 -1       788-6.92307E+00-6.28667E+00 6.95000E-01
 -1       789-5.04570E+00-5.68210E+00 6.95000E-01
 -1       790-2.56376E+00-3.20016E+00 6.95000E-01
 -1       791-3.80473E+00-4.44113E+00 6.95000E-01
 -1       792-6.28667E+00-6.92307E+00 6.95000E-01
 -1       793-5.68210E+00-5.04570E+00 6.95000E-01
 -1       794-3.20016E+00-2.56376E+00 6.95000E-01
 -1       795-2.64705E+00-5.21466E+00 6.95000E-01
 -1       796-3.99027E+00-8.45748E+00 6.95000E-01
 -1       797-2.48718E+00-7.18048E+00 6.95000E-01
 -1       798-1.14396E+00-3.93766E+00 6.95000E-01
 -1       799-1.81557E+00-5.55907E+00 6.95000E-01
 -1       800-3.15879E+00-8.80190E+00 6.95000E-01
 -1       801-3.31867E+00-6.83607E+00 6.95000E-01
 -1       802-1.97545E+00-3.59325E+00 6.95000E-01
 -1       803-4.50000E-01-9.34070E+00 6.95000E-01
 -1       804 4.50000E-01-7.58570E+00 6.95000E-01
 -1       805 4.50000E-01-4.07570E+00 6.95000E-01
 -1       806 4.50000E-01-5.83070E+00 6.95000E-01
 -1       807 4.50000E-01-9.34070E+00 6.95000E-01
 -1       808-4.50000E-01-7.58570E+00 6.95000E-01
 -1       809-4.50000E-01-4.07570E+00 6.95000E-01
 -1       810 3.93766E+00-1.14396E+00 6.95000E-01
 -1       811 5.68210E+00-5.04570E+00 6.95000E-01
 -1       812 3.31867E+00-6.83607E+00 6.95000E-01
 -1       813 1.97545E+00-3.59325E+00 6.95000E-01
 -1       814 3.15879E+00-8.80190E+00 6.95000E-01
 -1       815 2.48718E+00-7.18048E+00 6.95000E-01
 -1       816 2.64705E+00-5.21466E+00 6.95000E-01
 -1       817 3.99027E+00-8.45748E+00 6.95000E-01
 -1       818 1.81557E+00-5.55907E+00 6.95000E-01
 -1       819 1.14396E+00-3.93766E+00 6.95000E-01
 -1       820 6.28667E+00-6.92307E+00 6.95000E-01
 -1       821 5.04570E+00-5.68210E+00 6.95000E-01
 -1       822 3.20016E+00-2.56376E+00 6.95000E-01
 -1       823 4.44113E+00-3.80473E+00 6.95000E-01
 -1       824 6.92307E+00-6.28667E+00 6.95000E-01
 -1       825 3.80473E+00-4.44113E+00 6.95000E-01
 -1       826 2.56376E+00-3.20016E+00 6.95000E-01
 -1       827 8.45748E+00-3.99027E+00 6.95000E-01
 -1       828 6.83607E+00-3.31867E+00 6.95000E-01
 -1       829 5.55907E+00-1.81557E+00 6.95000E-01
 -1       830 8.80190E+00-3.15879E+00 6.95000E-01
 -1       831 5.21466E+00-2.64705E+00 6.95000E-01
 -1       832 3.59325E+00-1.97545E+00 6.95000E-01
 -1       833 3.91034E+00 9.44039E+00 5.00000E-01
 -1       834 3.91034E+00 9.44039E+00 6.95000E-01
 -1       835-3.19820E+00 0.00000E+00 5.00000E-01
 -1       836-3.19820E+00 0.00000E+00 6.95000E-01
 -1       837-1.22390E+00-2.95476E+00 5.00000E-01
 -1       838-1.22390E+00-2.95476E+00 6.95000E-01
 -1       839 1.22390E+00 2.95476E+00 6.95000E-01
 -1       840 1.22390E+00 2.95476E+00 5.00000E-01
 -1       841 6.26945E+00-4.50000E-01 5.00000E-01
 -1       842 6.26945E+00-4.50000E-01 6.95000E-01
 -1       843 3.19820E+00 0.00000E+00 6.95000E-01
 -1       844 3.19820E+00 0.00000E+00 5.00000E-01
 -1       845-4.80931E+00-2.47915E+00 5.00000E-01
 -1       846-4.80931E+00-2.47915E+00 6.95000E-01
 -1       847-2.26147E+00-2.26147E+00 5.00000E-01
 -1       848-2.26147E+00-2.26147E+00 6.95000E-01
 -1       849-7.22536E+00-7.22536E+00 5.00000E-01
 -1       850-7.22536E+00-7.22536E+00 6.95000E-01
 -1       851-9.44039E+00-3.91034E+00 6.95000E-01
 -1       852-9.44039E+00-3.91034E+00 5.00000E-01
 -1       853 1.02182E+01 0.00000E+00 5.00000E-01
 -1       854 1.02182E+01 0.00000E+00 6.95000E-01
 -1       855-6.61283E+00-5.97643E+00 5.00000E-01
 -1       856-6.61283E+00-5.97643E+00 6.95000E-01
 -1       857 7.22536E+00-7.22536E+00 5.00000E-01
 -1       858 7.22536E+00-7.22536E+00 6.95000E-01
 -1       859 6.26945E+00 4.50000E-01 5.00000E-01
 -1       860 6.26945E+00 4.50000E-01 6.95000E-01
 -1       861 1.22390E+00-2.95476E+00 5.00000E-01
 -1       862 1.22390E+00-2.95476E+00 6.95000E-01
 -1       863-4.73546E+00-5.37186E+00 6.95000E-01
 -1       864-4.73546E+00-5.37186E+00 5.00000E-01
 -1       865-1.80754E+00-3.18790E+00 5.00000E-01
 -1       866-1.80754E+00-3.18790E+00 6.95000E-01
 -1       867 6.61283E+00-5.97643E+00 5.00000E-01
 -1       868 6.61283E+00-5.97643E+00 6.95000E-01
 -1       869 0.00000E+00 1.02182E+01 5.00000E-01
 -1       870 0.00000E+00 1.02182E+01 6.95000E-01
 -1       871 2.95476E+00 1.22390E+00 6.95000E-01
 -1       872 2.95476E+00 1.22390E+00 5.00000E-01
 -1       873 4.73546E+00-5.37186E+00 5.00000E-01
 -1       874 4.73546E+00-5.37186E+00 6.95000E-01
 -1       875 4.75137E+00 4.11497E+00 5.00000E-01
 -1       876 4.75137E+00 4.11497E+00 6.95000E-01
 -1       877 9.44039E+00-3.91034E+00 6.95000E-01
 -1       878 9.44039E+00-3.91034E+00 5.00000E-01
 -1       879 2.95476E+00-1.22390E+00 6.95000E-01
 -1       880 2.95476E+00-1.22390E+00 5.00000E-01
 -1       881 0.00000E+00-1.02182E+01 5.00000E-01
 -1       882 0.00000E+00-1.02182E+01 6.95000E-01
 -1       883-4.50000E-01-9.77945E+00 5.00000E-01
 -1       884-4.50000E-01-9.77945E+00 6.95000E-01
 -1       885 4.50000E-01-9.77945E+00 5.00000E-01
 -1       886 4.50000E-01-9.77945E+00 6.95000E-01
 -1       887-2.25000E-01-1.02182E+01 5.00000E-01
 -1       888-2.25000E-01-1.02182E+01 6.95000E-01
 -1       889 4.50000E-01-9.56007E+00 6.95000E-01
 -1       890 4.50000E-01-9.56007E+00 5.00000E-01
 -1       891-4.50000E-01-8.90195E+00 5.00000E-01
 -1       892-4.50000E-01-8.90195E+00 6.95000E-01
 -1       893 2.25000E-01-1.02182E+01 5.00000E-01
 -1       894 2.25000E-01-1.02182E+01 6.95000E-01
 -1       895 4.50000E-01-8.90195E+00 6.95000E-01
 -1       896 4.50000E-01-8.90195E+00 5.00000E-01
 -1       897 9.77945E+00-4.50000E-01 6.95000E-01
 -1       898 9.77945E+00-4.50000E-01 5.00000E-01
 -1       899-2.14335E+00 3.99861E+00 5.00000E-01
 -1       900-2.14335E+00 3.99861E+00 6.95000E-01
 -1       901-9.76055E-01-3.53231E+00 5.00000E-01
 -1       902-9.76055E-01-3.53231E+00 6.95000E-01
 -1       903-6.59692E+00-7.23332E+00 6.95000E-01
 -1       904-6.59692E+00-7.23332E+00 5.00000E-01
 -1       905-3.15076E+00-6.43072E+00 5.00000E-01
 -1       906-3.15076E+00-6.43072E+00 6.95000E-01
 -1       907-4.13089E+00-3.49449E+00 5.00000E-01
 -1       908-4.13089E+00-3.49449E+00 6.95000E-01
 -1       909-7.24142E+00 3.48657E+00 6.95000E-01
 -1       910-7.24142E+00 3.48657E+00 5.00000E-01
 -1       911-2.31927E+00 6.77513E+00 5.00000E-01
 -1       912-2.31927E+00 6.77513E+00 6.95000E-01
 -1       913-1.02182E+01 0.00000E+00 5.00000E-01
 -1       914-1.02182E+01 0.00000E+00 6.95000E-01
 -1       915-4.11497E+00-4.75137E+00 5.00000E-01
 -1       916-4.11497E+00-4.75137E+00 6.95000E-01
 -1       917 6.59692E+00-7.23332E+00 5.00000E-01
 -1       918 6.59692E+00-7.23332E+00 6.95000E-01
 -1       919-8.02445E+00-4.50000E-01 5.00000E-01
 -1       920-8.02445E+00-4.50000E-01 6.95000E-01
 -1       921-4.34302E+00-1.31186E+00 5.00000E-01
 -1       922-4.34302E+00-1.31186E+00 6.95000E-01
 -1       923-2.26147E+00 2.26147E+00 6.95000E-01
 -1       924-2.26147E+00 2.26147E+00 5.00000E-01
 -1       925 5.96443E+00 1.98347E+00 5.00000E-01
 -1       926 5.96443E+00 1.98347E+00 6.95000E-01
 -1       927 9.44039E+00 3.91034E+00 6.95000E-01
 -1       928 9.44039E+00 3.91034E+00 5.00000E-01
 -1       929 2.47915E+00-4.80931E+00 5.00000E-01
 -1       930 2.47915E+00-4.80931E+00 6.95000E-01
 -1       931-3.91034E+00-9.44039E+00 6.95000E-01
 -1       932-3.91034E+00-9.44039E+00 5.00000E-01
 -1       933 0.00000E+00-3.19820E+00 5.00000E-01
 -1       934 0.00000E+00-3.19820E+00 6.95000E-01
 -1       935 9.20725E+00 3.32669E+00 6.95000E-01
 -1       936 9.20725E+00 3.32669E+00 5.00000E-01
 -1       937 4.50000E-01-7.14695E+00 5.00000E-01
 -1       938 4.50000E-01-7.14695E+00 6.95000E-01
 -1       939-5.97643E+00-6.61283E+00 5.00000E-01
 -1       940-5.97643E+00-6.61283E+00 6.95000E-01
 -1       941-5.96443E+00-1.98347E+00 5.00000E-01
 -1       942-5.96443E+00-1.98347E+00 6.95000E-01
 -1       943 3.53231E+00-9.76055E-01 6.95000E-01
 -1       944 3.53231E+00-9.76055E-01 5.00000E-01
 -1       945-2.95476E+00-1.22390E+00 5.00000E-01
 -1       946-2.95476E+00-1.22390E+00 6.95000E-01
 -1       947 2.26147E+00 2.26147E+00 6.95000E-01
 -1       948 2.26147E+00 2.26147E+00 5.00000E-01
 -1       949 0.00000E+00 3.19820E+00 5.00000E-01
 -1       950 0.00000E+00 3.19820E+00 6.95000E-01
 -1       951 1.98347E+00 5.96443E+00 5.00000E-01
 -1       952 1.98347E+00 5.96443E+00 6.95000E-01
 -1       953-6.43072E+00-3.15076E+00 5.00000E-01
 -1       954-6.43072E+00-3.15076E+00 6.95000E-01
 -1       955-1.22390E+00 2.95476E+00 5.00000E-01
 -1       956-1.22390E+00 2.95476E+00 6.95000E-01
 -1       957-3.82237E+00 8.05212E+00 5.00000E-01
 -1       958-3.82237E+00 8.05212E+00 6.95000E-01
 -1       959 2.26147E+00-2.26147E+00 5.00000E-01
 -1       960 2.26147E+00-2.26147E+00 6.95000E-01
 -1       961 9.20725E+00-3.32669E+00 6.95000E-01
 -1       962 9.20725E+00-3.32669E+00 5.00000E-01
 -1       963 4.50000E-01 8.02445E+00 5.00000E-01
 -1       964 4.50000E-01 8.02445E+00 6.95000E-01
 -1       965-2.88991E+00-2.25351E+00 6.95000E-01
 -1       966-2.88991E+00-2.25351E+00 5.00000E-01
 -1       967 9.76055E-01-3.53231E+00 5.00000E-01
 -1       968 9.76055E-01-3.53231E+00 6.95000E-01
 -1       969 8.86283E+00 4.15818E+00 6.95000E-01
 -1       970 8.86283E+00 4.15818E+00 5.00000E-01
 -1       971-4.15818E+00-8.86283E+00 6.95000E-01
 -1       972-4.15818E+00-8.86283E+00 5.00000E-01
 -1       973-3.32669E+00-9.20725E+00 6.95000E-01
 -1       974-3.32669E+00-9.20725E+00 5.00000E-01
 -1       975-3.41064E+00-9.40992E+00 6.95000E-01
 -1       976-3.41064E+00-9.40992E+00 5.00000E-01
 -1       977-2.99088E+00-8.39654E+00 6.95000E-01
 -1       978-2.99088E+00-8.39654E+00 5.00000E-01
 -1       979-4.11821E+00-9.35429E+00 6.95000E-01
 -1       980-4.11821E+00-9.35429E+00 5.00000E-01
 -1       981-3.82237E+00-8.05212E+00 5.00000E-01
 -1       982-3.82237E+00-8.05212E+00 6.95000E-01
 -1       983 3.53231E+00 9.76055E-01 5.00000E-01
 -1       984 3.53231E+00 9.76055E-01 6.95000E-01
 -1       985 3.63695E+00-4.50000E-01 5.00000E-01
 -1       986 3.63695E+00-4.50000E-01 6.95000E-01
 -1       987 3.63695E+00 4.50000E-01 5.00000E-01
 -1       988 3.63695E+00 4.50000E-01 6.95000E-01
 -1       989 3.19820E+00-2.25000E-01 5.00000E-01
 -1       990 3.19820E+00-2.25000E-01 6.95000E-01
 -1       991 3.19820E+00 2.25000E-01 5.00000E-01
 -1       992 3.19820E+00 2.25000E-01 6.95000E-01
 -1       993 4.51445E+00-4.50000E-01 5.00000E-01
 -1       994 4.51445E+00-4.50000E-01 6.95000E-01
 -1       995-3.99861E+00-2.14335E+00 5.00000E-01
 -1       996-3.99861E+00-2.14335E+00 6.95000E-01
 -1       997-3.53231E+00-9.76055E-01 6.95000E-01
 -1       998-3.53231E+00-9.76055E-01 5.00000E-01
 -1       999-3.18790E+00-1.80754E+00 5.00000E-01
 -1      1000-3.18790E+00-1.80754E+00 6.95000E-01
 -1      1001-3.04086E+00-1.01602E+00 5.00000E-01
 -1      1002-3.04086E+00-1.01602E+00 6.95000E-01
 -1      1003-2.98523E+00-1.72359E+00 5.00000E-01
 -1      1004-2.98523E+00-1.72359E+00 6.95000E-01
 -1      1005-2.86865E+00-1.43177E+00 5.00000E-01
 -1      1006-2.86865E+00-1.43177E+00 6.95000E-01
 -1      1007-4.14034E+00-1.22791E+00 5.00000E-01
 -1      1008-4.14034E+00-1.22791E+00 6.95000E-01
 -1      1009-4.50000E-01-5.39195E+00 5.00000E-01
 -1      1010-4.50000E-01-5.39195E+00 6.95000E-01
 -1      1011 5.37186E+00-4.73546E+00 5.00000E-01
 -1      1012 5.37186E+00-4.73546E+00 6.95000E-01
 -1      1013 1.64766E+00-5.15372E+00 5.00000E-01
 -1      1014 1.64766E+00-5.15372E+00 6.95000E-01
 -1      1015-7.23332E+00-6.59692E+00 5.00000E-01
 -1      1016-7.23332E+00-6.59692E+00 6.95000E-01
 -1      1017 9.35429E+00 4.11821E+00 5.00000E-01
 -1      1018 9.35429E+00 4.11821E+00 6.95000E-01
 -1      1019 9.00457E+00 3.24274E+00 6.95000E-01
 -1      1020 9.00457E+00 3.24274E+00 5.00000E-01
 -1      1021 9.52649E+00 3.70246E+00 5.00000E-01
 -1      1022 9.52649E+00 3.70246E+00 6.95000E-01
 -1      1023 8.39654E+00 2.99088E+00 5.00000E-01
 -1      1024 8.39654E+00 2.99088E+00 6.95000E-01
 -1      1025 9.06550E+00 4.24213E+00 6.95000E-01
 -1      1026 9.06550E+00 4.24213E+00 5.00000E-01
 -1      1027 8.19387E+00 2.90693E+00 5.00000E-01
 -1      1028 8.19387E+00 2.90693E+00 6.95000E-01
 -1      1029-3.49449E+00-4.13089E+00 5.00000E-01
 -1      1030-3.49449E+00-4.13089E+00 6.95000E-01
 -1      1031-3.33936E+00-3.97576E+00 6.95000E-01
 -1      1032-3.33936E+00-3.97576E+00 5.00000E-01
 -1      1033-4.28601E+00-3.64961E+00 5.00000E-01
 -1      1034-4.28601E+00-3.64961E+00 6.95000E-01
 -1      1035-3.51040E+00-2.87400E+00 5.00000E-01
 -1      1036-3.51040E+00-2.87400E+00 6.95000E-01
 -1      1037-2.87400E+00-3.51040E+00 5.00000E-01
 -1      1038-2.87400E+00-3.51040E+00 6.95000E-01
 -1      1039-3.35528E+00-2.71888E+00 5.00000E-01
 -1      1040-3.35528E+00-2.71888E+00 6.95000E-01
 -1      1041-2.25351E+00-2.88991E+00 5.00000E-01
 -1      1042-2.25351E+00-2.88991E+00 6.95000E-01
 -1      1043-3.04503E+00-2.40863E+00 6.95000E-01
 -1      1044-3.04503E+00-2.40863E+00 5.00000E-01
 -1      1045-2.10237E+00-2.42057E+00 6.95000E-01
 -1      1046-2.10237E+00-2.42057E+00 5.00000E-01
 -1      1047-3.02912E+00-3.66552E+00 5.00000E-01
 -1      1048-3.02912E+00-3.66552E+00 6.95000E-01
 -1      1049-2.09839E+00-2.73479E+00 6.95000E-01
 -1      1050-2.09839E+00-2.73479E+00 5.00000E-01
 -1      1051 7.14695E+00-4.50000E-01 5.00000E-01
 -1      1052 7.14695E+00-4.50000E-01 6.95000E-01
 -1      1053 5.15372E+00-1.64766E+00 5.00000E-01
 -1      1054 5.15372E+00-1.64766E+00 6.95000E-01
 -1      1055-7.58584E+00 2.65508E+00 5.00000E-01
 -1      1056-7.58584E+00 2.65508E+00 6.95000E-01
 -1      1057-4.73546E+00 5.37186E+00 5.00000E-01
 -1      1058-4.73546E+00 5.37186E+00 6.95000E-01
 -1      1059-8.02445E+00 4.50000E-01 5.00000E-01
 -1      1060-8.02445E+00 4.50000E-01 6.95000E-01
 -1      1061-3.49449E+00 4.13089E+00 5.00000E-01
 -1      1062-3.49449E+00 4.13089E+00 6.95000E-01
 -1      1063-7.22536E+00 7.22536E+00 6.95000E-01
 -1      1064-7.22536E+00 7.22536E+00 5.00000E-01
 -1      1065 5.15372E+00 1.64766E+00 5.00000E-01
 -1      1066 5.15372E+00 1.64766E+00 6.95000E-01
 -1      1067 4.50000E-01-5.39195E+00 5.00000E-01
 -1      1068 4.50000E-01-5.39195E+00 6.95000E-01
 -1      1069 4.50000E-01 8.90195E+00 5.00000E-01
 -1      1070 4.50000E-01 8.90195E+00 6.95000E-01
 -1      1071 4.80931E+00 2.47915E+00 5.00000E-01
 -1      1072 4.80931E+00 2.47915E+00 6.95000E-01
 -1      1073 8.05212E+00-3.82237E+00 5.00000E-01
 -1      1074 8.05212E+00-3.82237E+00 6.95000E-01
 -1      1075 5.37186E+00 4.73546E+00 5.00000E-01
 -1      1076 5.37186E+00 4.73546E+00 6.95000E-01
 -1      1077-9.76055E-01 3.53231E+00 6.95000E-01
 -1      1078-9.76055E-01 3.53231E+00 5.00000E-01
 -1      1079-1.80754E+00 3.18790E+00 5.00000E-01
 -1      1080-1.80754E+00 3.18790E+00 6.95000E-01
 -1      1081-2.05940E+00 3.79593E+00 6.95000E-01
 -1      1082-2.05940E+00 3.79593E+00 5.00000E-01
 -1      1083-1.01602E+00 3.04086E+00 5.00000E-01
 -1      1084-1.01602E+00 3.04086E+00 6.95000E-01
 -1      1085-1.43177E+00 2.86865E+00 5.00000E-01
 -1      1086-1.43177E+00 2.86865E+00 6.95000E-01
 -1      1087-2.22730E+00 4.20128E+00 5.00000E-01
 -1      1088-2.22730E+00 4.20128E+00 6.95000E-01
 -1      1089-2.47915E+00 4.80931E+00 5.00000E-01
 -1      1090-2.47915E+00 4.80931E+00 6.95000E-01
 -1      1091-1.31186E+00 4.34302E+00 5.00000E-01
 -1      1092-1.31186E+00 4.34302E+00 6.95000E-01
 -1      1093-1.39581E+00 4.54569E+00 6.95000E-01
 -1      1094-1.39581E+00 4.54569E+00 5.00000E-01
 -1      1095-2.56310E+00 5.01199E+00 5.00000E-01
 -1      1096-2.56310E+00 5.01199E+00 6.95000E-01
 -1      1097-1.22791E+00 4.14034E+00 5.00000E-01
 -1      1098-1.22791E+00 4.14034E+00 6.95000E-01
 -1      1099-2.81496E+00 5.62001E+00 5.00000E-01
 -1      1100-2.81496E+00 5.62001E+00 6.95000E-01
 -1      1101-1.64766E+00 5.15372E+00 5.00000E-01
 -1      1102-1.64766E+00 5.15372E+00 6.95000E-01
 -1      1103-2.89891E+00 5.82269E+00 5.00000E-01
 -1      1104-2.89891E+00 5.82269E+00 6.95000E-01
 -1      1105-3.15076E+00 6.43072E+00 5.00000E-01
 -1      1106-3.15076E+00 6.43072E+00 6.95000E-01
 -1      1107-2.65508E+00 7.58584E+00 6.95000E-01
 -1      1108-2.65508E+00 7.58584E+00 5.00000E-01
 -1      1109-2.57113E+00 7.38316E+00 6.95000E-01
 -1      1110-2.57113E+00 7.38316E+00 5.00000E-01
 -1      1111-6.61283E+00 5.97643E+00 5.00000E-01
 -1      1112-6.61283E+00 5.97643E+00 6.95000E-01
 -1      1113 7.22536E+00 7.22536E+00 5.00000E-01
 -1      1114 7.22536E+00 7.22536E+00 6.95000E-01
 -1      1115 2.87400E+00 3.51040E+00 5.00000E-01
 -1      1116 2.87400E+00 3.51040E+00 6.95000E-01
 -1      1117 4.50000E-01 3.63695E+00 5.00000E-01
 -1      1118 4.50000E-01 3.63695E+00 6.95000E-01
 -1      1119-4.50000E-01 7.14695E+00 5.00000E-01
 -1      1120-4.50000E-01 7.14695E+00 6.95000E-01
 -1      1121-4.50000E-01 4.51445E+00 5.00000E-01
 -1      1122-4.50000E-01 4.51445E+00 6.95000E-01
 -1      1123-2.95476E+00 1.22390E+00 6.95000E-01
 -1      1124-2.95476E+00 1.22390E+00 5.00000E-01
 -1      1125-4.50000E-01 3.63695E+00 5.00000E-01
 -1      1126-4.50000E-01 3.63695E+00 6.95000E-01
 -1      1127-4.50000E-01-7.14695E+00 5.00000E-01
 -1      1128-4.50000E-01-7.14695E+00 6.95000E-01
 -1      1129 5.97643E+00-6.61283E+00 5.00000E-01
 -1      1130 5.97643E+00-6.61283E+00 6.95000E-01
 -1      1131 8.39654E+00-2.99088E+00 6.95000E-01
 -1      1132 8.39654E+00-2.99088E+00 5.00000E-01
 -1      1133 5.96443E+00-1.98347E+00 5.00000E-01
 -1      1134 5.96443E+00-1.98347E+00 6.95000E-01
 -1      1135 4.15818E+00 8.86283E+00 5.00000E-01
 -1      1136 4.15818E+00 8.86283E+00 6.95000E-01
 -1      1137 3.32669E+00 9.20725E+00 5.00000E-01
 -1      1138 3.32669E+00 9.20725E+00 6.95000E-01
 -1      1139 3.70246E+00 9.52649E+00 5.00000E-01
 -1      1140 3.70246E+00 9.52649E+00 6.95000E-01
 -1      1141 3.82237E+00 8.05212E+00 5.00000E-01
 -1      1142 3.82237E+00 8.05212E+00 6.95000E-01
 -1      1143 2.99088E+00 8.39654E+00 6.95000E-01
 -1      1144 2.99088E+00 8.39654E+00 5.00000E-01
 -1      1145 3.07483E+00 8.59922E+00 5.00000E-01
 -1      1146 3.07483E+00 8.59922E+00 6.95000E-01
 -1      1147 2.90693E+00 8.19387E+00 6.95000E-01
 -1      1148 2.90693E+00 8.19387E+00 5.00000E-01
 -1      1149 2.65508E+00 7.58584E+00 6.95000E-01
 -1      1150 2.65508E+00 7.58584E+00 5.00000E-01
 -1      1151 3.48657E+00 7.24142E+00 5.00000E-01
 -1      1152 3.48657E+00 7.24142E+00 6.95000E-01
 -1      1153 3.57052E+00 7.44410E+00 5.00000E-01
 -1      1154 3.57052E+00 7.44410E+00 6.95000E-01
 -1      1155-9.44039E+00 3.91034E+00 5.00000E-01
 -1      1156-9.44039E+00 3.91034E+00 6.95000E-01
 -1      1157-3.63695E+00 4.50000E-01 6.95000E-01
 -1      1158-3.63695E+00 4.50000E-01 5.00000E-01
 -1      1159-5.35594E+00 5.99234E+00 5.00000E-01
 -1      1160-5.35594E+00 5.99234E+00 6.95000E-01
 -1      1161 5.99234E+00 5.35594E+00 5.00000E-01
 -1      1162 5.99234E+00 5.35594E+00 6.95000E-01
 -1      1163-6.59692E+00 7.23332E+00 5.00000E-01
 -1      1164-6.59692E+00 7.23332E+00 6.95000E-01
 -1      1165-7.23332E+00 6.59692E+00 5.00000E-01
 -1      1166-7.23332E+00 6.59692E+00 6.95000E-01
 -1      1167-5.97643E+00 6.61283E+00 5.00000E-01
 -1      1168-5.97643E+00 6.61283E+00 6.95000E-01
 -1      1169-7.38446E+00 7.06626E+00 5.00000E-01
 -1      1170-7.38446E+00 7.06626E+00 6.95000E-01
 -1      1171-6.75204E+00 7.38844E+00 5.00000E-01
 -1      1172-6.75204E+00 7.38844E+00 6.95000E-01
 -1      1173-7.06626E+00 7.38446E+00 5.00000E-01
 -1      1174-7.06626E+00 7.38446E+00 6.95000E-01
 -1      1175-6.13155E+00 6.76795E+00 6.95000E-01
 -1      1176-6.13155E+00 6.76795E+00 5.00000E-01
 -1      1177-9.20725E+00 3.32669E+00 5.00000E-01
 -1      1178-9.20725E+00 3.32669E+00 6.95000E-01
 -1      1179-4.50000E-01 8.90195E+00 5.00000E-01
 -1      1180-4.50000E-01 8.90195E+00 6.95000E-01
 -1      1181-4.50000E-01 5.39195E+00 5.00000E-01
 -1      1182-4.50000E-01 5.39195E+00 6.95000E-01
 -1      1183 8.90195E+00-4.50000E-01 5.00000E-01
 -1      1184 8.90195E+00-4.50000E-01 6.95000E-01
 -1      1185-8.39654E+00-2.99088E+00 5.00000E-01
 -1      1186-8.39654E+00-2.99088E+00 6.95000E-01
 -1      1187 3.99861E+00-2.14335E+00 5.00000E-01
 -1      1188 3.99861E+00-2.14335E+00 6.95000E-01
 -1      1189 5.62001E+00 2.81496E+00 5.00000E-01
 -1      1190 5.62001E+00 2.81496E+00 6.95000E-01
 -1      1191 3.15076E+00-6.43072E+00 5.00000E-01
 -1      1192 3.15076E+00-6.43072E+00 6.95000E-01
 -1      1193 2.99088E+00-8.39654E+00 5.00000E-01
 -1      1194 2.99088E+00-8.39654E+00 6.95000E-01
 -1      1195-2.25351E+00 2.88991E+00 5.00000E-01
 -1      1196-2.25351E+00 2.88991E+00 6.95000E-01
 -1      1197-2.88991E+00 2.25351E+00 5.00000E-01
 -1      1198-2.88991E+00 2.25351E+00 6.95000E-01
 -1      1199-2.09839E+00 2.73479E+00 5.00000E-01
 -1      1200-2.09839E+00 2.73479E+00 6.95000E-01
 -1      1201-3.51040E+00 2.87400E+00 5.00000E-01
 -1      1202-3.51040E+00 2.87400E+00 6.95000E-01
 -1      1203 3.49449E+00-4.13089E+00 5.00000E-01
 -1      1204 3.49449E+00-4.13089E+00 6.95000E-01
 -1      1205-4.50000E-01-3.63695E+00 5.00000E-01
 -1      1206-4.50000E-01-3.63695E+00 6.95000E-01
 -1      1207-9.77945E+00 4.50000E-01 6.95000E-01
 -1      1208-9.77945E+00 4.50000E-01 5.00000E-01
 -1      1209-8.90195E+00 4.50000E-01 6.95000E-01
 -1      1210-8.90195E+00 4.50000E-01 5.00000E-01
 -1      1211-8.90195E+00-4.50000E-01 5.00000E-01
 -1      1212-8.90195E+00-4.50000E-01 6.95000E-01
 -1      1213-9.77945E+00-4.50000E-01 5.00000E-01
 -1      1214-9.77945E+00-4.50000E-01 6.95000E-01
 -1      1215-9.56007E+00 4.50000E-01 5.00000E-01
 -1      1216-9.56007E+00 4.50000E-01 6.95000E-01
 -1      1217-9.12132E+00-4.50000E-01 6.95000E-01
 -1      1218-9.12132E+00-4.50000E-01 5.00000E-01
 -1      1219-9.56007E+00-4.50000E-01 6.95000E-01
 -1      1220-9.56007E+00-4.50000E-01 5.00000E-01
 -1      1221-9.99883E+00-4.50000E-01 6.95000E-01
 -1      1222-9.99883E+00-4.50000E-01 5.00000E-01
 -1      1223-3.99861E+00 2.14335E+00 5.00000E-01
 -1      1224-3.99861E+00 2.14335E+00 6.95000E-01
 -1      1225-6.77513E+00 2.31927E+00 6.95000E-01
 -1      1226-6.77513E+00 2.31927E+00 5.00000E-01
 -1      1227-5.99234E+00 5.35594E+00 6.95000E-01
 -1      1228-5.99234E+00 5.35594E+00 5.00000E-01
 -1      1229-2.31927E+00-6.77513E+00 5.00000E-01
 -1      1230-2.31927E+00-6.77513E+00 6.95000E-01
 -1      1231-1.31186E+00-4.34302E+00 6.95000E-01
 -1      1232-1.31186E+00-4.34302E+00 5.00000E-01
 -1      1233-6.26945E+00-4.50000E-01 5.00000E-01
 -1      1234-6.26945E+00-4.50000E-01 6.95000E-01
 -1      1235-4.51445E+00 4.50000E-01 5.00000E-01
 -1      1236-4.51445E+00 4.50000E-01 6.95000E-01
 -1      1237-3.91034E+00 9.44039E+00 5.00000E-01
 -1      1238-3.91034E+00 9.44039E+00 6.95000E-01
 -1      1239-4.50000E-01 9.77945E+00 5.00000E-01
 -1      1240-4.50000E-01 9.77945E+00 6.95000E-01
 -1      1241 4.50000E-01 9.77945E+00 5.00000E-01
 -1      1242 4.50000E-01 9.77945E+00 6.95000E-01
 -1      1243 4.50000E-01 9.99883E+00 5.00000E-01
 -1      1244 4.50000E-01 9.99883E+00 6.95000E-01
 -1      1245 4.50000E-01 9.12132E+00 6.95000E-01
 -1      1246 4.50000E-01 9.12132E+00 5.00000E-01
 -1      1247-4.50000E-01 9.12132E+00 5.00000E-01
 -1      1248-4.50000E-01 9.12132E+00 6.95000E-01
 -1      1249 4.50000E-01 6.26945E+00 5.00000E-01
 -1      1250 4.50000E-01 6.26945E+00 6.95000E-01
 -1      1251-4.50000E-01 3.41757E+00 5.00000E-01
 -1      1252-4.50000E-01 3.41757E+00 6.95000E-01
 -1      1253 4.50000E-01 3.85632E+00 6.95000E-01
 -1      1254 4.50000E-01 3.85632E+00 5.00000E-01
 -1      1255-4.50000E-01 4.29507E+00 6.95000E-01
 -1      1256-4.50000E-01 4.29507E+00 5.00000E-01
 -1      1257-4.50000E-01 4.73383E+00 5.00000E-01
 -1      1258-4.50000E-01 4.73383E+00 6.95000E-01
 -1      1259 5.35594E+00 5.99234E+00 5.00000E-01
 -1      1260 5.35594E+00 5.99234E+00 6.95000E-01
 -1      1261 4.73546E+00 5.37186E+00 5.00000E-01
 -1      1262 4.73546E+00 5.37186E+00 6.95000E-01
 -1      1263 7.24142E+00-3.48657E+00 5.00000E-01
 -1      1264 7.24142E+00-3.48657E+00 6.95000E-01
 -1      1265 8.86283E+00-4.15818E+00 5.00000E-01
 -1      1266 8.86283E+00-4.15818E+00 6.95000E-01
 -1      1267 2.14335E+00-3.99861E+00 5.00000E-01
 -1      1268 2.14335E+00-3.99861E+00 6.95000E-01
 -1      1269 4.50000E-01 5.39195E+00 5.00000E-01
 -1      1270 4.50000E-01 5.39195E+00 6.95000E-01
 -1      1271 8.02445E+00-4.50000E-01 5.00000E-01
 -1      1272 8.02445E+00-4.50000E-01 6.95000E-01
 -1      1273 8.02445E+00 4.50000E-01 5.00000E-01
 -1      1274 8.02445E+00 4.50000E-01 6.95000E-01
 -1      1275 5.39195E+00-4.50000E-01 5.00000E-01
 -1      1276 5.39195E+00-4.50000E-01 6.95000E-01
 -1      1277 5.39195E+00 4.50000E-01 5.00000E-01
 -1      1278 5.39195E+00 4.50000E-01 6.95000E-01
 -1      1279 3.51040E+00 2.87400E+00 5.00000E-01
 -1      1280 3.51040E+00 2.87400E+00 6.95000E-01
 -1      1281 6.59692E+00 7.23332E+00 6.95000E-01
 -1      1282 6.59692E+00 7.23332E+00 5.00000E-01
 -1      1283 7.23332E+00 6.59692E+00 5.00000E-01
 -1      1284 7.23332E+00 6.59692E+00 6.95000E-01
 -1      1285 1.80754E+00 3.18790E+00 6.95000E-01
 -1      1286 1.80754E+00 3.18790E+00 5.00000E-01
 -1      1287 9.76055E-01 3.53231E+00 6.95000E-01
 -1      1288 9.76055E-01 3.53231E+00 5.00000E-01
 -1      1289 8.92104E-01 3.32964E+00 6.95000E-01
 -1      1290 8.92104E-01 3.32964E+00 5.00000E-01
 -1      1291 1.89149E+00 3.39058E+00 5.00000E-01
 -1      1292 1.89149E+00 3.39058E+00 6.95000E-01
 -1      1293 2.14335E+00 3.99861E+00 6.95000E-01
 -1      1294 2.14335E+00 3.99861E+00 5.00000E-01
 -1      1295-4.15818E+00 8.86283E+00 5.00000E-01
 -1      1296-4.15818E+00 8.86283E+00 6.95000E-01
 -1      1297-3.32669E+00 9.20725E+00 5.00000E-01
 -1      1298-3.32669E+00 9.20725E+00 6.95000E-01
 -1      1299-4.11821E+00 9.35429E+00 5.00000E-01
 -1      1300-4.11821E+00 9.35429E+00 6.95000E-01
 -1      1301-2.99088E+00 8.39654E+00 5.00000E-01
 -1      1302-2.99088E+00 8.39654E+00 6.95000E-01
 -1      1303-3.41064E+00 9.40992E+00 5.00000E-01
 -1      1304-3.41064E+00 9.40992E+00 6.95000E-01
 -1      1305-3.70246E+00 9.52649E+00 5.00000E-01
 -1      1306-3.70246E+00 9.52649E+00 6.95000E-01
 -1      1307-1.98347E+00 5.96443E+00 5.00000E-01
 -1      1308-1.98347E+00 5.96443E+00 6.95000E-01
 -1      1309-4.13089E+00 3.49449E+00 5.00000E-01
 -1      1310-4.13089E+00 3.49449E+00 6.95000E-01
 -1      1311-4.11497E+00 4.75137E+00 6.95000E-01
 -1      1312-4.11497E+00 4.75137E+00 5.00000E-01
 -1      1313-5.96443E+00 1.98347E+00 5.00000E-01
 -1      1314-5.96443E+00 1.98347E+00 6.95000E-01
 -1      1315-5.15372E+00 1.64766E+00 5.00000E-01
 -1      1316-5.15372E+00 1.64766E+00 6.95000E-01
 -1      1317-3.63695E+00-4.50000E-01 5.00000E-01
 -1      1318-3.63695E+00-4.50000E-01 6.95000E-01
 -1      1319-3.85632E+00 4.50000E-01 6.95000E-01
 -1      1320-3.85632E+00 4.50000E-01 5.00000E-01
 -1      1321-4.51445E+00-4.50000E-01 5.00000E-01
 -1      1322-4.51445E+00-4.50000E-01 6.95000E-01
 -1      1323-3.19820E+00-2.25000E-01 5.00000E-01
 -1      1324-3.19820E+00-2.25000E-01 6.95000E-01
 -1      1325-3.19820E+00 2.25000E-01 5.00000E-01
 -1      1326-3.19820E+00 2.25000E-01 6.95000E-01
 -1      1327-4.29507E+00-4.50000E-01 6.95000E-01
 -1      1328-4.29507E+00-4.50000E-01 5.00000E-01
 -1      1329-3.41757E+00-4.50000E-01 6.95000E-01
 -1      1330-3.41757E+00-4.50000E-01 5.00000E-01
 -1      1331-4.50000E-01-6.26945E+00 5.00000E-01
 -1      1332-4.50000E-01-6.26945E+00 6.95000E-01
 -1      1333-5.37186E+00-4.73546E+00 5.00000E-01
 -1      1334-5.37186E+00-4.73546E+00 6.95000E-01
 -1      1335-3.48657E+00-7.24142E+00 5.00000E-01
 -1      1336-3.48657E+00-7.24142E+00 6.95000E-01
 -1      1337 4.50000E-01-8.02445E+00 5.00000E-01
 -1      1338 4.50000E-01-8.02445E+00 6.95000E-01
 -1      1339 4.13089E+00-3.49449E+00 5.00000E-01
 -1      1340 4.13089E+00-3.49449E+00 6.95000E-01
 -1      1341 3.48657E+00-7.24142E+00 5.00000E-01
 -1      1342 3.48657E+00-7.24142E+00 6.95000E-01
 -1      1343 4.75137E+00-4.11497E+00 6.95000E-01
 -1      1344 4.75137E+00-4.11497E+00 5.00000E-01
 -1      1345 7.23332E+00-6.59692E+00 6.95000E-01
 -1      1346 7.23332E+00-6.59692E+00 5.00000E-01
 -1      1347 2.25351E+00-2.88991E+00 5.00000E-01
 -1      1348 2.25351E+00-2.88991E+00 6.95000E-01
 -1      1349 2.88991E+00-2.25351E+00 5.00000E-01
 -1      1350 2.88991E+00-2.25351E+00 6.95000E-01
 -1      1351 2.73479E+00-2.09839E+00 5.00000E-01
 -1      1352 2.73479E+00-2.09839E+00 6.95000E-01
 -1      1353 3.51040E+00-2.87400E+00 5.00000E-01
 -1      1354 3.51040E+00-2.87400E+00 6.95000E-01
 -1      1355 2.10237E+00-2.42057E+00 5.00000E-01
 -1      1356 2.10237E+00-2.42057E+00 6.95000E-01
 -1      1357 2.42057E+00-2.10237E+00 5.00000E-01
 -1      1358 2.42057E+00-2.10237E+00 6.95000E-01
 -1      1359 2.87400E+00-3.51040E+00 6.95000E-01
 -1      1360 2.87400E+00-3.51040E+00 5.00000E-01
 -1      1361 3.18790E+00-1.80754E+00 6.95000E-01
 -1      1362 3.18790E+00-1.80754E+00 5.00000E-01
 -1      1363 2.86865E+00-1.43177E+00 6.95000E-01
 -1      1364 2.86865E+00-1.43177E+00 5.00000E-01
 -1      1365 3.39058E+00-1.89149E+00 5.00000E-01
 -1      1366 3.39058E+00-1.89149E+00 6.95000E-01
 -1      1367 4.34302E+00-1.31186E+00 5.00000E-01
 -1      1368 4.34302E+00-1.31186E+00 6.95000E-01
 -1      1369 3.79593E+00-2.05940E+00 6.95000E-01
 -1      1370 3.79593E+00-2.05940E+00 5.00000E-01
 -1      1371-3.53231E+00 9.76055E-01 6.95000E-01
 -1      1372-3.53231E+00 9.76055E-01 5.00000E-01
 -1      1373 4.50000E-01-3.63695E+00 5.00000E-01
 -1      1374 4.50000E-01-3.63695E+00 6.95000E-01
 -1      1375 7.06626E+00 7.38446E+00 5.00000E-01
 -1      1376 7.06626E+00 7.38446E+00 6.95000E-01
 -1      1377 7.07820E+00 6.44180E+00 6.95000E-01
 -1      1378 7.07820E+00 6.44180E+00 5.00000E-01
 -1      1379 5.97643E+00 6.61283E+00 5.00000E-01
 -1      1380 5.97643E+00 6.61283E+00 6.95000E-01
 -1      1381 6.75204E+00 7.38844E+00 6.95000E-01
 -1      1382 6.75204E+00 7.38844E+00 5.00000E-01
 -1      1383 6.13155E+00 6.76795E+00 6.95000E-01
 -1      1384 6.13155E+00 6.76795E+00 5.00000E-01
 -1      1385 6.61283E+00 5.97643E+00 5.00000E-01
 -1      1386 6.61283E+00 5.97643E+00 6.95000E-01
 -1      1387 1.98347E+00-5.96443E+00 5.00000E-01
 -1      1388 1.98347E+00-5.96443E+00 6.95000E-01
 -1      1389-4.50000E-01 6.26945E+00 5.00000E-01
 -1      1390-4.50000E-01 6.26945E+00 6.95000E-01
 -1      1391-5.39195E+00-4.50000E-01 5.00000E-01
 -1      1392-5.39195E+00-4.50000E-01 6.95000E-01
 -1      1393-8.86283E+00 4.15818E+00 6.95000E-01
 -1      1394-8.86283E+00 4.15818E+00 5.00000E-01
 -1      1395-5.37186E+00 4.73546E+00 5.00000E-01
 -1      1396-5.37186E+00 4.73546E+00 6.95000E-01
 -1      1397-6.26945E+00 4.50000E-01 5.00000E-01
 -1      1398-6.26945E+00 4.50000E-01 6.95000E-01
 -1      1399 4.58034E+00 5.21674E+00 6.95000E-01
 -1      1400 4.58034E+00 5.21674E+00 5.00000E-01
 -1      1401 5.52698E+00 4.89058E+00 5.00000E-01
 -1      1402 5.52698E+00 4.89058E+00 6.95000E-01
 -1      1403 4.11497E+00 4.75137E+00 6.95000E-01
 -1      1404 4.11497E+00 4.75137E+00 5.00000E-01
 -1      1405 4.89058E+00 5.52698E+00 6.95000E-01
 -1      1406 4.89058E+00 5.52698E+00 5.00000E-01
 -1      1407 3.95985E+00 4.59625E+00 6.95000E-01
 -1      1408 3.95985E+00 4.59625E+00 5.00000E-01
 -1      1409 9.77945E+00 4.50000E-01 6.95000E-01
 -1      1410 9.77945E+00 4.50000E-01 5.00000E-01
 -1      1411 9.56007E+00-4.50000E-01 5.00000E-01
 -1      1412 9.56007E+00-4.50000E-01 6.95000E-01
 -1      1413 8.90195E+00 4.50000E-01 6.95000E-01
 -1      1414 8.90195E+00 4.50000E-01 5.00000E-01
 -1      1415 1.02182E+01-2.25000E-01 6.95000E-01
 -1      1416 1.02182E+01-2.25000E-01 5.00000E-01
 -1      1417 1.02182E+01 2.25000E-01 6.95000E-01
 -1      1418 1.02182E+01 2.25000E-01 5.00000E-01
 -1      1419 9.99883E+00-4.50000E-01 5.00000E-01
 -1      1420 9.99883E+00-4.50000E-01 6.95000E-01
 -1      1421 9.12132E+00 4.50000E-01 5.00000E-01
 -1      1422 9.12132E+00 4.50000E-01 6.95000E-01
 -1      1423 9.99883E+00 4.50000E-01 6.95000E-01
 -1      1424 9.99883E+00 4.50000E-01 5.00000E-01
 -1      1425 9.56007E+00 4.50000E-01 5.00000E-01
 -1      1426 9.56007E+00 4.50000E-01 6.95000E-01
 -1      1427 8.68258E+00 4.50000E-01 6.95000E-01
 -1      1428 8.68258E+00 4.50000E-01 5.00000E-01
 -1      1429-4.50000E-01-8.02445E+00 5.00000E-01
 -1      1430-4.50000E-01-8.02445E+00 6.95000E-01
 -1      1431 4.50000E-01-3.85632E+00 6.95000E-01
 -1      1432 4.50000E-01-3.85632E+00 5.00000E-01
 -1      1433-2.25000E-01-3.19820E+00 6.95000E-01
 -1      1434-2.25000E-01-3.19820E+00 5.00000E-01
 -1      1435-4.50000E-01-3.85632E+00 6.95000E-01
 -1      1436-4.50000E-01-3.85632E+00 5.00000E-01
 -1      1437 4.50000E-01-4.51445E+00 5.00000E-01
 -1      1438 4.50000E-01-4.51445E+00 6.95000E-01
 -1      1439 2.25000E-01-3.19820E+00 5.00000E-01
 -1      1440 2.25000E-01-3.19820E+00 6.95000E-01
 -1      1441 4.50000E-01-4.29507E+00 6.95000E-01
 -1      1442 4.50000E-01-4.29507E+00 5.00000E-01
 -1      1443-4.50000E-01-4.51445E+00 5.00000E-01
 -1      1444-4.50000E-01-4.51445E+00 6.95000E-01
 -1      1445 4.50000E-01-4.73383E+00 5.00000E-01
 -1      1446 4.50000E-01-4.73383E+00 6.95000E-01
 -1      1447 4.13089E+00 3.49449E+00 5.00000E-01
 -1      1448 4.13089E+00 3.49449E+00 6.95000E-01
 -1      1449-4.75137E+00-4.11497E+00 5.00000E-01
 -1      1450-4.75137E+00-4.11497E+00 6.95000E-01
 -1      1451 3.99861E+00 2.14335E+00 5.00000E-01
 -1      1452 3.99861E+00 2.14335E+00 6.95000E-01
 -1      1453 2.88991E+00 2.25351E+00 5.00000E-01
 -1      1454 2.88991E+00 2.25351E+00 6.95000E-01
 -1      1455 2.25351E+00 2.88991E+00 5.00000E-01
 -1      1456 2.25351E+00 2.88991E+00 6.95000E-01
 -1      1457 2.10237E+00 2.42057E+00 5.00000E-01
 -1      1458 2.10237E+00 2.42057E+00 6.95000E-01
 -1      1459 2.73479E+00 2.09839E+00 5.00000E-01
 -1      1460 2.73479E+00 2.09839E+00 6.95000E-01
 -1      1461 2.71888E+00 3.35528E+00 6.95000E-01
 -1      1462 2.71888E+00 3.35528E+00 5.00000E-01
 -1      1463 3.35528E+00 2.71888E+00 5.00000E-01
 -1      1464 3.35528E+00 2.71888E+00 6.95000E-01
 -1      1465 3.02912E+00 3.66552E+00 5.00000E-01
 -1      1466 3.02912E+00 3.66552E+00 6.95000E-01
 -1      1467-2.87400E+00 3.51040E+00 5.00000E-01
 -1      1468-2.87400E+00 3.51040E+00 6.95000E-01
 -1      1469-8.39654E+00 2.99088E+00 6.95000E-01
 -1      1470-8.39654E+00 2.99088E+00 5.00000E-01
 -1      1471-9.52649E+00 3.70246E+00 5.00000E-01
 -1      1472-9.52649E+00 3.70246E+00 6.95000E-01
 -1      1473-8.05212E+00 3.82237E+00 5.00000E-01
 -1      1474-8.05212E+00 3.82237E+00 6.95000E-01
 -1      1475-9.40992E+00 3.41064E+00 6.95000E-01
 -1      1476-9.40992E+00 3.41064E+00 5.00000E-01
 -1      1477-9.20725E+00-3.32669E+00 5.00000E-01
 -1      1478-9.20725E+00-3.32669E+00 6.95000E-01
 -1      1479-8.86283E+00-4.15818E+00 5.00000E-01
 -1      1480-8.86283E+00-4.15818E+00 6.95000E-01
 -1      1481-9.52649E+00-3.70246E+00 5.00000E-01
 -1      1482-9.52649E+00-3.70246E+00 6.95000E-01
 -1      1483-9.35429E+00-4.11821E+00 5.00000E-01
 -1      1484-9.35429E+00-4.11821E+00 6.95000E-01
 -1      1485-9.00457E+00-3.24274E+00 6.95000E-01
 -1      1486-9.00457E+00-3.24274E+00 5.00000E-01
 -1      1487-8.59922E+00-3.07483E+00 6.95000E-01
 -1      1488-8.59922E+00-3.07483E+00 5.00000E-01
 -1      1489-8.05212E+00-3.82237E+00 6.95000E-01
 -1      1490-8.05212E+00-3.82237E+00 5.00000E-01
 -1      1491 1.80754E+00-3.18790E+00 6.95000E-01
 -1      1492 1.80754E+00-3.18790E+00 5.00000E-01
 -1      1493-4.34302E+00 1.31186E+00 5.00000E-01
 -1      1494-4.34302E+00 1.31186E+00 6.95000E-01
 -1      1495 5.35594E+00-5.99234E+00 6.95000E-01
 -1      1496 5.35594E+00-5.99234E+00 5.00000E-01
 -1      1497-7.14695E+00 4.50000E-01 5.00000E-01
 -1      1498-7.14695E+00 4.50000E-01 6.95000E-01
 -1      1499-7.14695E+00-4.50000E-01 5.00000E-01
 -1      1500-7.14695E+00-4.50000E-01 6.95000E-01
 -1      1501 3.18790E+00 1.80754E+00 5.00000E-01
 -1      1502 3.18790E+00 1.80754E+00 6.95000E-01
 -1      1503-5.39195E+00 4.50000E-01 5.00000E-01
 -1      1504-5.39195E+00 4.50000E-01 6.95000E-01
 -1      1505-6.77513E+00-2.31927E+00 6.95000E-01
 -1      1506-6.77513E+00-2.31927E+00 5.00000E-01
 -1      1507 5.99234E+00-5.35594E+00 5.00000E-01
 -1      1508 5.99234E+00-5.35594E+00 6.95000E-01
 -1      1509-7.06626E+00-7.38446E+00 5.00000E-01
 -1      1510-7.06626E+00-7.38446E+00 6.95000E-01
 -1      1511-3.18790E+00 1.80754E+00 6.95000E-01
 -1      1512-3.18790E+00 1.80754E+00 5.00000E-01
 -1      1513 4.51445E+00 4.50000E-01 5.00000E-01
 -1      1514 4.51445E+00 4.50000E-01 6.95000E-01
 -1      1515 1.64766E+00 5.15372E+00 5.00000E-01
 -1      1516 1.64766E+00 5.15372E+00 6.95000E-01
 -1      1517 7.14695E+00 4.50000E-01 5.00000E-01
 -1      1518 7.14695E+00 4.50000E-01 6.95000E-01
 -1      1519 1.89149E+00-3.39058E+00 6.95000E-01
 -1      1520 1.89149E+00-3.39058E+00 5.00000E-01
 -1      1521 1.31186E+00-4.34302E+00 6.95000E-01
 -1      1522 1.31186E+00-4.34302E+00 5.00000E-01
 -1      1523 1.01602E+00-3.04086E+00 5.00000E-01
 -1      1524 1.01602E+00-3.04086E+00 6.95000E-01
 -1      1525 1.43177E+00-2.86865E+00 5.00000E-01
 -1      1526 1.43177E+00-2.86865E+00 6.95000E-01
 -1      1527 2.05940E+00-3.79593E+00 6.95000E-01
 -1      1528 2.05940E+00-3.79593E+00 5.00000E-01
 -1      1529 8.92104E-01-3.32964E+00 6.95000E-01
 -1      1530 8.92104E-01-3.32964E+00 5.00000E-01
 -1      1531 2.22730E+00-4.20128E+00 5.00000E-01
 -1      1532 2.22730E+00-4.20128E+00 6.95000E-01
 -1      1533 2.81496E+00 5.62001E+00 6.95000E-01
 -1      1534 2.81496E+00 5.62001E+00 5.00000E-01
 -1      1535-7.24142E+00-3.48657E+00 5.00000E-01
 -1      1536-7.24142E+00-3.48657E+00 6.95000E-01
 -1      1537-5.15372E+00-1.64766E+00 5.00000E-01
 -1      1538-5.15372E+00-1.64766E+00 6.95000E-01
 -1      1539 4.50000E-01-6.26945E+00 5.00000E-01
 -1      1540 4.50000E-01-6.26945E+00 6.95000E-01
 -1      1541-5.35594E+00-5.99234E+00 5.00000E-01
 -1      1542-5.35594E+00-5.99234E+00 6.95000E-01
 -1      1543 9.52649E+00-3.70246E+00 5.00000E-01
 -1      1544 9.52649E+00-3.70246E+00 6.95000E-01
 -1      1545 8.25480E+00-3.90632E+00 6.95000E-01
 -1      1546 8.25480E+00-3.90632E+00 5.00000E-01
 -1      1547 9.40992E+00-3.41064E+00 6.95000E-01
 -1      1548 9.40992E+00-3.41064E+00 5.00000E-01
 -1      1549 9.06550E+00-4.24213E+00 5.00000E-01
 -1      1550 9.06550E+00-4.24213E+00 6.95000E-01
 -1      1551 9.35429E+00-4.11821E+00 5.00000E-01
 -1      1552 9.35429E+00-4.11821E+00 6.95000E-01
 -1      1553 7.84945E+00-3.73842E+00 5.00000E-01
 -1      1554 7.84945E+00-3.73842E+00 6.95000E-01
 -1      1555 7.58584E+00-2.65508E+00 6.95000E-01
 -1      1556 7.58584E+00-2.65508E+00 5.00000E-01
 -1      1557-2.65508E+00-7.58584E+00 6.95000E-01
 -1      1558-2.65508E+00-7.58584E+00 5.00000E-01
 -1      1559 3.49449E+00 4.13089E+00 5.00000E-01
 -1      1560 3.49449E+00 4.13089E+00 6.95000E-01
 -1      1561 4.11497E+00-4.75137E+00 5.00000E-01
 -1      1562 4.11497E+00-4.75137E+00 6.95000E-01
 -1      1563 2.65508E+00-7.58584E+00 6.95000E-01
 -1      1564 2.65508E+00-7.58584E+00 5.00000E-01
 -1      1565 6.43072E+00-3.15076E+00 5.00000E-01
 -1      1566 6.43072E+00-3.15076E+00 6.95000E-01
 -1      1567 5.62001E+00-2.81496E+00 6.95000E-01
 -1      1568 5.62001E+00-2.81496E+00 5.00000E-01
 -1      1569 4.50000E-01 4.51445E+00 5.00000E-01
 -1      1570 4.50000E-01 4.51445E+00 6.95000E-01
 -1      1571 4.80931E+00-2.47915E+00 6.95000E-01
 -1      1572 4.80931E+00-2.47915E+00 5.00000E-01
 -1      1573-5.99234E+00-5.35594E+00 5.00000E-01
 -1      1574-5.99234E+00-5.35594E+00 6.95000E-01
 -1      1575-4.75137E+00 4.11497E+00 5.00000E-01
 -1      1576-4.75137E+00 4.11497E+00 6.95000E-01
 -1      1577 8.05212E+00 3.82237E+00 6.95000E-01
 -1      1578 8.05212E+00 3.82237E+00 5.00000E-01
 -1      1579 6.43072E+00 3.15076E+00 5.00000E-01
 -1      1580 6.43072E+00 3.15076E+00 6.95000E-01
 -1      1581 2.81496E+00-5.62001E+00 6.95000E-01
 -1      1582 2.81496E+00-5.62001E+00 5.00000E-01
 -1      1583 6.77513E+00 2.31927E+00 6.95000E-01
 -1      1584 6.77513E+00 2.31927E+00 5.00000E-01
 -1      1585 7.58584E+00 2.65508E+00 5.00000E-01
 -1      1586 7.58584E+00 2.65508E+00 6.95000E-01
 -1      1587 4.34302E+00 1.31186E+00 6.95000E-01
 -1      1588 4.34302E+00 1.31186E+00 5.00000E-01
 -1      1589 3.04086E+00 1.01602E+00 5.00000E-01
 -1      1590 3.04086E+00 1.01602E+00 6.95000E-01
 -1      1591 3.79593E+00 2.05940E+00 6.95000E-01
 -1      1592 3.79593E+00 2.05940E+00 5.00000E-01
 -1      1593 3.32964E+00 8.92104E-01 6.95000E-01
 -1      1594 3.32964E+00 8.92104E-01 5.00000E-01
 -1      1595-1.98347E+00-5.96443E+00 5.00000E-01
 -1      1596-1.98347E+00-5.96443E+00 6.95000E-01
 -1      1597 4.50000E-01 7.14695E+00 5.00000E-01
 -1      1598 4.50000E-01 7.14695E+00 6.95000E-01
 -1      1599-4.50000E-01 8.02445E+00 5.00000E-01
 -1      1600-4.50000E-01 8.02445E+00 6.95000E-01
 -1      1601-1.64766E+00-5.15372E+00 5.00000E-01
 -1      1602-1.64766E+00-5.15372E+00 6.95000E-01
 -1      1603-2.81496E+00-5.62001E+00 6.95000E-01
 -1      1604-2.81496E+00-5.62001E+00 5.00000E-01
 -1      1605-2.47915E+00-4.80931E+00 6.95000E-01
 -1      1606-2.47915E+00-4.80931E+00 5.00000E-01
 -1      1607 2.31927E+00-6.77513E+00 6.95000E-01
 -1      1608 2.31927E+00-6.77513E+00 5.00000E-01
 -1      1609-2.14335E+00-3.99861E+00 5.00000E-01
 -1      1610-2.14335E+00-3.99861E+00 6.95000E-01
 -1      1611 2.47915E+00 4.80931E+00 6.95000E-01
 -1      1612 2.47915E+00 4.80931E+00 5.00000E-01
 -1      1613-6.43072E+00 3.15076E+00 5.00000E-01
 -1      1614-6.43072E+00 3.15076E+00 6.95000E-01
 -1      1615-2.98523E+00 1.72359E+00 6.95000E-01
 -1      1616-2.98523E+00 1.72359E+00 5.00000E-01
 -1      1617-2.86865E+00 1.43177E+00 6.95000E-01
 -1      1618-2.86865E+00 1.43177E+00 5.00000E-01
 -1      1619-3.73499E+00 1.06001E+00 6.95000E-01
 -1      1620-3.73499E+00 1.06001E+00 5.00000E-01
 -1      1621-4.14034E+00 1.22791E+00 6.95000E-01
 -1      1622-4.14034E+00 1.22791E+00 5.00000E-01
 -1      1623-5.62001E+00-2.81496E+00 6.95000E-01
 -1      1624-5.62001E+00-2.81496E+00 5.00000E-01
 -1      1625 3.15076E+00 6.43072E+00 5.00000E-01
 -1      1626 3.15076E+00 6.43072E+00 6.95000E-01
 -1      1627-7.58584E+00-2.65508E+00 6.95000E-01
 -1      1628-7.58584E+00-2.65508E+00 5.00000E-01
 -1      1629 1.31186E+00 4.34302E+00 5.00000E-01
 -1      1630 1.31186E+00 4.34302E+00 6.95000E-01
 -1      1631 4.15818E+00-8.86283E+00 5.00000E-01
 -1      1632 4.15818E+00-8.86283E+00 6.95000E-01
 -1      1633 3.82237E+00-8.05212E+00 5.00000E-01
 -1      1634 3.82237E+00-8.05212E+00 6.95000E-01
 -1      1635-3.48657E+00 7.24142E+00 6.95000E-01
 -1      1636-3.48657E+00 7.24142E+00 5.00000E-01
 -1      1637 7.24142E+00 3.48657E+00 6.95000E-01
 -1      1638 7.24142E+00 3.48657E+00 5.00000E-01
 -1      1639 3.32669E+00-9.20725E+00 5.00000E-01
 -1      1640 3.32669E+00-9.20725E+00 6.95000E-01
 -1      1641-5.62001E+00 2.81496E+00 6.95000E-01
 -1      1642-5.62001E+00 2.81496E+00 5.00000E-01
 -1      1643 6.77513E+00-2.31927E+00 6.95000E-01
 -1      1644 6.77513E+00-2.31927E+00 5.00000E-01
 -1      1645 2.31927E+00 6.77513E+00 6.95000E-01
 -1      1646 2.31927E+00 6.77513E+00 5.00000E-01
 -1      1647-4.80931E+00 2.47915E+00 6.95000E-01
 -1      1648-4.80931E+00 2.47915E+00 5.00000E-01
 -1      1649 3.91034E+00-9.44039E+00 6.95000E-01
 -1      1650 3.91034E+00-9.44039E+00 5.00000E-01
 -1      1651 4.11821E+00-9.35429E+00 5.00000E-01
 -1      1652 4.11821E+00-9.35429E+00 6.95000E-01
 -1      1653 4.24213E+00-9.06550E+00 5.00000E-01
 -1      1654 4.24213E+00-9.06550E+00 6.95000E-01
 -1      1655 3.24274E+00-9.00457E+00 5.00000E-01
 -1      1656 3.24274E+00-9.00457E+00 6.95000E-01
 -1      1657 3.07483E+00-8.59922E+00 6.95000E-01
 -1      1658 3.07483E+00-8.59922E+00 5.00000E-01
 -1      1659 3.73842E+00-7.84945E+00 6.95000E-01
 -1      1660 3.73842E+00-7.84945E+00 5.00000E-01
 -1      1661-3.46519E+00 1.43520E+00-5.00000E-01
 -1      1662 7.95528E+00-7.95528E+00-5.00000E-01
 -1      1663 1.59051E+00-1.23986E+01 5.00000E-01
 -1      1664 0.00000E+00-1.12497E+01-5.00000E-01
 -1      1665-4.69909E+00 1.16922E+01 5.00000E-01
 -1      1666 8.81583E+00-9.00388E+00 5.00000E-01
 -1      1667 9.46739E+00-3.25598E+00-5.00000E-01
 -1      1668-9.35357E+00 6.24987E+00-5.00000E-01
 -1      1669-8.67382E-01-1.25565E+01 5.00000E-01
 -1      1670-9.15948E+00 4.79136E-01-5.00000E-01
 -1      1671 7.83009E+00-1.01203E+01-5.00000E-01
 -1      1672-4.30523E+00 1.03939E+01-5.00000E-01
 -1      1673-3.27744E+00-1.20631E+01 5.00000E-01
 -1      1674 7.95528E+00 7.95528E+00-5.00000E-01
 -1      1675-7.64249E+00 9.89172E+00 5.00000E-01
 -1      1676-6.12846E+00-5.50510E+00-5.00000E-01
 -1      1677 4.46448E+00-1.06918E+01-5.00000E-01
 -1      1678 1.02027E+01 6.94675E+00 5.00000E-01
 -1      1679 1.20395E+01-2.29383E+00-5.00000E-01
 -1      1680 9.34379E+00-9.64722E+00-5.00000E-01
 -1      1681-7.57258E+00-8.64774E+00-5.00000E-01
 -1      1682-1.02341E+01 6.83823E+00 5.00000E-01
 -1      1683-1.16297E+01 4.81720E+00 5.00000E-01
 -1      1684 9.58719E+00-9.94382E+00 5.00000E-01
 -1      1685 0.00000E+00-0.00000E+00 5.00000E-01
 -1      1686-6.83823E+00-1.02341E+01 5.00000E-01
 -1      1687-8.90101E+00-8.90101E+00 5.00000E-01
 -1      1688-1.16297E+01-4.81720E+00 5.00000E-01
 -1      1689-1.25879E+01 0.00000E+00 5.00000E-01
 -1      1690 4.81720E+00 1.16297E+01 5.00000E-01
 -1      1691-1.12920E+01-2.27305E+00-5.00000E-01
 -1      1692 0.00000E+00 1.25879E+01 5.00000E-01
 -1      1693-5.05039E+00-1.11341E+01 5.00000E-01
 -1      1694 1.01327E+01-6.77046E+00 5.00000E-01
 -1      1695 8.84460E+00 8.84460E+00 5.00000E-01
 -1      1696 2.44582E+00 1.22959E+01 5.00000E-01
 -1      1697-1.00089E+01-6.68773E+00 5.00000E-01
 -1      1698 6.67488E+00 1.00115E+01 5.00000E-01
 -1      1699-5.19336E+00 1.20554E+01-5.00000E-01
 -1      1700 1.25879E+01 0.00000E+00 5.00000E-01
 -1      1701 1.16297E+01 4.81720E+00 5.00000E-01
 -1      1702 1.09609E+01 1.44892E+00-5.00000E-01
 -1      1703 1.16297E+01-4.81720E+00 5.00000E-01
 -1      1704 1.03150E+01-7.98982E+00-5.00000E-01
 -1      1705 3.39479E+00 1.11202E+01 5.00000E-01
 -1      1706-1.18063E+01-2.34841E+00 5.00000E-01
 -1      1707 4.94483E+00-1.15904E+01 5.00000E-01
 -1      1708-2.55253E+00 1.22133E+01-5.00000E-01
 -1      1709-1.61946E+00-1.26926E+01-5.00000E-01
 -1      1710 3.12538E+00-1.14039E+01 5.00000E-01
 -1      1711 2.20272E+00 8.85371E+00-5.00000E-01
 -1      1712 3.82708E+00 1.13500E+01-5.00000E-01
 -1      1713 3.07074E+00-1.30012E+01 5.00000E-01
 -1      1714 8.53616E+00 9.82190E+00-5.00000E-01
 -1      1715 1.29077E+01 1.64065E+00-5.00000E-01
 -1      1716 1.84144E+00-3.75090E+00-5.00000E-01
 -1      1717 8.87483E+00-7.53372E+00 5.00000E-01
 -1      1718-7.02051E+00 1.00106E+01-5.00000E-01
 -1      1719-1.12981E+01 6.45571E+00-5.00000E-01
 -1      1720 5.79339E+00 1.16185E+01-5.00000E-01
 -1      1721-4.45687E+00-1.04654E+01-5.00000E-01
 -1      1722 7.39210E+00 1.10672E+01-5.00000E-01
 -1      1723-5.50486E+00 1.26381E+01 5.00000E-01
 -1      1724 1.73237E+00-1.09359E+01 5.00000E-01
 -1      1725 7.91227E+00-1.05319E+01 5.00000E-01
 -1      1726 2.74959E+00 1.28629E+01-5.00000E-01
 -1      1727 1.22959E+01 2.44582E+00 5.00000E-01
 -1      1728 1.17017E+01 6.40830E+00 5.00000E-01
 -1      1729-6.07582E+00 9.09311E+00 5.00000E-01
 -1      1730-5.10006E+00 6.21512E+00-5.00000E-01
 -1      1731-8.68790E+00-5.80506E+00 5.00000E-01
 -1      1732 1.31218E+01-1.66174E+00 5.00000E-01
 -1      1733-1.22417E+01-4.09756E+00-5.00000E-01
 -1      1734 2.57010E+00-1.22712E+01-5.00000E-01
 -1      1735 1.33361E+01 1.32965E+00 5.00000E-01
 -1      1736 8.33044E+00-9.06312E+00-5.00000E-01
 -1      1737-4.68925E+00-1.26012E+01 5.00000E-01
 -1      1738-1.67305E+00-6.76544E+00-5.00000E-01
 -1      1739 1.03479E+01 8.48550E+00 5.00000E-01
 -1      1740 6.77024E+00 9.34775E+00-5.00000E-01
 -1      1741-2.15807E+00-1.04578E+01-5.00000E-01
 -1      1742-2.41765E+00-1.32967E+01 5.00000E-01
 -1      1743-6.99642E+00-1.07502E+01-5.00000E-01
 -1      1744 1.88905E+00-9.49689E+00 5.00000E-01
 -1      1745-1.17171E+01 6.67968E+00 5.00000E-01
 -1      1746 1.86507E+00 1.08564E+01 5.00000E-01
 -1      1747 1.02899E+01-8.58064E+00 5.00000E-01
 -1      1748 5.29181E+00 1.02992E+01 5.00000E-01
 -1      1749 5.38622E+00 6.28981E-01-5.00000E-01
 -1      1750-9.89723E+00-6.54047E+00-5.00000E-01
 -1      1751 1.00318E+01-8.45640E-01-5.00000E-01
 -1      1752 1.01203E+01 7.83009E+00-5.00000E-01
 -1      1753-8.67585E+00-9.99212E+00-5.00000E-01
 -1      1754 4.48141E+00 9.14762E+00-5.00000E-01
 -1      1755 9.16762E+00-5.75245E+00-5.00000E-01
 -1      1756 5.69110E+00-4.06876E+00-5.00000E-01
 -1      1757 8.29062E+00-5.53961E+00 5.00000E-01
 -1      1758-5.05044E+00-7.90360E+00-5.00000E-01
 -1      1759 1.14951E+01-2.82303E+00 5.00000E-01
 -1      1760 8.86574E+00 7.42485E+00 5.00000E-01
 -1      1761-1.18063E+01 2.34841E+00 5.00000E-01
 -1      1762-1.19090E+01 1.54230E+00-5.00000E-01
 -1      1763-5.73297E+00 1.06988E+01-5.00000E-01
 -1      1764 1.16918E+01-6.41510E+00 5.00000E-01
 -1      1765-1.10292E+01 3.53355E+00 5.00000E-01
 -1      1766 4.62008E+00-7.29549E+00-5.00000E-01
 -1      1767 7.90688E-01-1.30043E+01-5.00000E-01
 -1      1768 4.32756E+00-1.24533E+01-5.00000E-01
 -1      1769 3.87506E+00 1.28298E+01 5.00000E-01
 -1      1770 7.89276E+00-7.89276E+00 5.00000E-01
 -1      1771 9.20296E-01 1.30938E+01-5.00000E-01
 -1      1772-8.91150E+00-1.02793E+01 5.00000E-01
 -1      1773-1.15419E+01 9.56130E-01 5.00000E-01
 -1      1774-3.32498E-01-8.81954E+00-5.00000E-01
 -1      1775-1.17536E+01-5.86562E+00-5.00000E-01
 -1      1776 4.11936E+00-1.06751E+01 5.00000E-01
 -1      1777 9.77946E+00-1.94525E+00 5.00000E-01
 -1      1778-1.94525E+00-9.77946E+00 5.00000E-01
 -1      1779 3.53757E+00-1.15058E+01-5.00000E-01
 -1      1780-1.16319E+01-6.45657E+00 5.00000E-01
 -1      1781-3.78378E+00-1.08731E+01 5.00000E-01
 -1      1782-5.53561E+00-9.87221E+00 5.00000E-01
 -1      1783-2.32323E+00 1.16797E+01 5.00000E-01
 -1      1784 6.62502E+00 1.16148E+01 5.00000E-01
 -1      1785-1.32173E+01-1.51376E+00 5.00000E-01
 -1      1786-9.90166E+00-8.60162E+00-5.00000E-01
 -1      1787 4.26269E+00 1.27860E+01-5.00000E-01
 -1      1788-1.23727E+01 5.36301E+00-5.00000E-01
 -1      1789 1.02891E+01-5.34005E+00 5.00000E-01
 -1      1790 1.28298E+01 3.87506E+00 5.00000E-01
 -1      1791-1.30415E+01-2.39251E+00-5.00000E-01
 -1      1792-7.94398E+00-2.66494E+00-5.00000E-01
 -1      1793-1.28399E+01 5.04723E+00 5.00000E-01
 -1      1794 3.66090E+00-5.18600E+00-5.00000E-01
 -1      1795 7.24327E-01 1.14979E+01 5.00000E-01
 -1      1796-7.21623E+00 7.52795E+00-5.00000E-01
 -1      1797-9.28689E+00 8.56453E+00-5.00000E-01
 -1      1798 9.34185E+00-5.96020E+00 5.00000E-01
 -1      1799-1.31638E+01 1.88504E-01-5.00000E-01
 -1      1800 1.14056E+01-6.51319E+00-5.00000E-01
 -1      1801 6.92453E+00-5.95298E+00-5.00000E-01
 -1      1802 6.29883E+00 1.04904E+01-5.00000E-01
 -1      1803 5.41833E-01-1.15586E+01 5.00000E-01
 -1      1804 5.04255E+00-7.54671E+00 5.00000E-01
 -1      1805 7.92504E+00 8.12088E+00 5.00000E-01
 -1      1806-5.53961E+00-8.29062E+00 5.00000E-01
 -1      1807 1.77071E+00 8.90195E+00 5.00000E-01
 -1      1808-3.31280E+00-8.85063E+00-5.00000E-01
 -1      1809 6.05889E+00-4.04842E+00 5.00000E-01
 -1      1810 6.87542E+00 8.78550E+00 5.00000E-01
 -1      1811-6.65749E+00 3.01289E+00-5.00000E-01
 -1      1812-3.83921E+00-5.91770E+00-5.00000E-01
 -1      1813-6.63629E+00-7.17486E+00-5.00000E-01
 -1      1814 6.60533E+00-1.15567E+01 5.00000E-01
 -1      1815 7.36973E+00-1.14486E+01-5.00000E-01
 -1      1816 5.91817E+00-9.05667E+00-5.00000E-01
 -1      1817 8.83670E+00 4.41506E+00-5.00000E-01
 -1      1818 6.38994E+00-7.49464E+00-5.00000E-01
 -1      1819 4.18230E+00-8.97714E+00-5.00000E-01
 -1      1820-9.39318E+00 9.13531E+00 5.00000E-01
 -1      1821 5.72806E+00 1.24662E+01 5.00000E-01
 -1      1822 4.21634E-01-1.34122E+01 5.00000E-01
 -1      1823-8.83745E+00-7.48527E+00 5.00000E-01
 -1      1824-1.01378E+01-8.13618E+00 5.00000E-01
 -1      1825-5.12519E+00-6.49569E+00-5.00000E-01
 -1      1826 3.07155E+00-1.00405E+01-5.00000E-01
 -1      1827 6.86787E+00-9.21997E+00 5.00000E-01
 -1      1828-4.35132E+00 1.05050E+01 5.00000E-01
 -1      1829-6.70753E+00 1.13691E+01 5.00000E-01
 -1      1830 8.72722E+00 5.83134E+00 5.00000E-01
 -1      1831 1.31629E+01-1.88412E-01-5.00000E-01
 -1      1832 1.12946E+01-7.69450E+00 5.00000E-01
 -1      1833-7.89412E+00-8.23692E+00 5.00000E-01
 -1      1834 1.24051E+01-4.14715E+00-5.00000E-01
 -1      1835-8.86452E+00 5.92308E+00 5.00000E-01
 -1      1836 8.11354E+00-6.60736E+00-5.00000E-01
 -1      1837 1.32372E+01-3.02025E+00-5.00000E-01
 -1      1838-1.05107E+01 4.60649E+00-5.00000E-01
 -1      1839-3.30266E+00-1.19159E+01-5.00000E-01
 -1      1840 8.08604E+00 1.63383E+00-5.00000E-01
 -1      1841-3.51300E+00 1.28471E+01 5.00000E-01
 -1      1842 7.69117E+00-1.15957E+01 5.00000E-01
 -1      1843-5.85761E+00-9.44027E+00-5.00000E-01
 -1      1844 1.32965E+00 1.33361E+01 5.00000E-01
 -1      1845 4.33411E+00-1.30215E+01 5.00000E-01
 -1      1846 5.79464E+00 7.31698E+00-5.00000E-01
 -1      1847-1.02812E+01 5.37835E+00 5.00000E-01
 -1      1848-6.98928E+00 1.15006E+01-5.00000E-01
 -1      1849 1.37940E+01 1.96713E-01 5.00000E-01
 -1      1850-7.85572E+00-1.11366E+01 5.00000E-01
 -1      1851-1.02481E+01 2.03847E+00 5.00000E-01
 -1      1852 1.30006E+01-3.21196E+00 5.00000E-01
 -1      1853 5.26331E+00-5.69461E+00-5.00000E-01
 -1      1854-2.44651E+00-1.35898E+01-5.00000E-01
 -1      1855-9.81315E+00-9.75915E+00-5.00000E-01
 -1      1856 7.57306E+00 5.06015E+00 5.00000E-01
 -1      1857-1.36775E+01-9.77783E-01-5.00000E-01
 -1      1858-8.29800E+00 1.06905E+01-5.00000E-01
 -1      1859-1.29091E+00-1.14311E+01-5.00000E-01
 -1      1860-2.03178E+00-1.21114E+01 5.00000E-01
 -1      1861 1.15931E+01-1.24026E+00 5.00000E-01
 -1      1862 5.75865E+00-1.16785E+01-5.00000E-01
 -1      1863 5.51428E+00 3.97763E+00-5.00000E-01
 -1      1864 3.58488E+00 7.11814E+00-5.00000E-01
 -1      1865 1.35303E+01 2.55335E+00 5.00000E-01
 -1      1866-9.92523E+00-9.58238E+00 5.00000E-01
 -1      1867 8.89065E+00 1.02539E+01 5.00000E-01
 -1      1868 6.83737E+00 1.20523E+01-5.00000E-01
 -1      1869 7.27621E+00-1.47170E+00-5.00000E-01
 -1      1870-5.09527E-01-1.23081E+01-5.00000E-01
 -1      1871 9.14334E+00-7.41152E+00-5.00000E-01
 -1      1872 5.58824E+00-8.78366E+00 5.00000E-01
 -1      1873-8.71630E+00-7.57359E+00-5.00000E-01
 -1      1874-4.29511E+00-1.28929E+01-5.00000E-01
 -1      1875 5.55575E+00 1.27333E+01-5.00000E-01
 -1      1876 6.39843E+00-1.04016E+01-5.00000E-01
 -1      1877-7.93223E+00-1.14036E+01-5.00000E-01
 -1      1878-1.20602E+01 3.46245E+00-5.00000E-01
 -1      1879-7.96694E+00-5.85806E+00-5.00000E-01
 -1      1880 1.33683E+01 2.90291E+00-5.00000E-01
 -1      1881-1.02548E+01 2.63856E+00-5.00000E-01
 -1      1882-1.03253E+01 4.32217E+00 5.00000E-01
 -1      1883 1.11323E+01 5.50095E+00-5.00000E-01
 -1      1884 7.84291E+00 9.58271E+00 5.00000E-01
 -1      1885 7.12486E+00-8.85394E+00-5.00000E-01
 -1      1886-1.10292E+01-3.53355E+00 5.00000E-01
 -1      1887-8.90891E+00 7.65554E+00 5.00000E-01
 -1      1888 4.83735E+00-1.76540E+00-5.00000E-01
 -1      1889-2.51195E-01 1.04255E+01-5.00000E-01
 -1      1890 7.52388E+00-3.40513E+00-5.00000E-01
 -1      1891 1.01441E+01 5.49069E+00 5.00000E-01
 -1      1892-8.43183E+00 1.08536E+01 5.00000E-01
 -1      1893-4.58068E+00-9.16497E+00-5.00000E-01
 -1      1894-7.75324E+00-6.97284E+00-5.00000E-01
 -1      1895-8.56368E+00 3.85903E+00-5.00000E-01
 -1      1896-1.13861E+01 2.54949E+00-5.00000E-01
 -1      1897-1.03558E+01-2.24470E+00 5.00000E-01
 -1      1898 1.22521E+01 6.13209E+00-5.00000E-01
 -1      1899-1.95504E+00-2.32758E+00-5.00000E-01
 -1      1900-1.02974E+01-5.30025E+00 5.00000E-01
 -1      1901-7.05216E-01 1.22162E+01-5.00000E-01
 -1      1902 8.57890E+00-4.41552E+00-5.00000E-01
 -1      1903-1.03896E+01 5.75029E+00-5.00000E-01
 -1      1904 1.28192E+01 5.09699E+00 5.00000E-01
 -1      1905 1.03686E+01-9.13448E+00-5.00000E-01
 -1      1906-8.74086E+00-8.81387E+00-5.00000E-01
 -1      1907 1.05529E+01-2.23891E+00-5.00000E-01
 -1      1908-1.06252E+01 8.28386E+00 5.00000E-01
 -1      1909 1.17569E+00-6.46589E+00-5.00000E-01
 -1      1910-5.20938E+00 8.40087E+00-5.00000E-01
 -1      1911-3.89335E-01 1.35753E+01-5.00000E-01
 -1      1912-3.30657E+00-1.07345E+01-5.00000E-01
 -1      1913-1.29071E+01-4.29942E+00 5.00000E-01
 -1      1914 7.87911E+00 1.11362E+01 5.00000E-01
 -1      1915-9.62137E+00-4.24952E+00-5.00000E-01
 -1      1916-1.35699E+01 9.67184E-01 5.00000E-01
 -1      1917 7.37845E+00 5.93183E+00-5.00000E-01
 -1      1918-1.37452E+01-4.06565E-01 5.00000E-01
 -1      1919 1.28381E+01 5.04671E+00-5.00000E-01
 -1      1920-1.10307E+01-2.73223E-01-5.00000E-01
 -1      1921 9.42395E+00 6.14309E+00-5.00000E-01
 -1      1922-1.15419E+01-9.56130E-01 5.00000E-01
 -1      1923-1.24809E+01 3.63737E+00 5.00000E-01
 -1      1924-5.91083E+00 7.27018E+00-5.00000E-01
 -1      1925-2.50566E-01 1.37940E+01 5.00000E-01
 -1      1926-8.02336E+00-4.26101E+00-5.00000E-01
 -1      1927-1.06061E+00 6.46040E+00-5.00000E-01
 -1      1928 4.82479E+00 5.71696E+00-5.00000E-01
 -1      1929 1.22072E+00-9.84488E+00-5.00000E-01
 -1      1930-1.33301E+01-2.89131E+00 5.00000E-01
 -1      1931 2.03656E+00-1.09796E+01-5.00000E-01
 -1      1932 1.05891E+01 6.64935E+00-5.00000E-01
 -1      1933 1.14270E+01-7.95144E+00-5.00000E-01
 -1      1934-9.62881E+00-2.56154E+00-5.00000E-01
 -1      1935-8.19257E+00 9.34848E+00-5.00000E-01
 -1      1936-5.29318E+00 7.92180E+00 5.00000E-01
 -1      1937-1.33065E+01-3.55691E+00-5.00000E-01
 -1      1938 7.29845E+00-4.69652E+00-5.00000E-01
 -1      1939-1.16353E+01 4.50831E+00-5.00000E-01
 -1      1940 4.76016E+00 1.18511E+01-5.00000E-01
 -1      1941 1.13374E+01-1.15135E+00-5.00000E-01
 -1      1942-2.05973E+00-4.56212E+00-5.00000E-01
 -1      1943-9.73933E+00 3.70618E+00-5.00000E-01
 -1      1944-9.65101E+00-1.00155E+00-5.00000E-01
 -1      1945 2.02497E+00-1.34741E+01-5.00000E-01
 -1      1946 1.54372E+00 3.40998E+00-5.00000E-01
 -1      1947 1.12539E+01-3.41156E+00-5.00000E-01
 -1      1948 6.19328E+00-2.59300E+00-5.00000E-01
 -1      1949-3.84737E+00 1.17067E+01-5.00000E-01
 -1      1950-3.59525E+00 1.31182E+01-5.00000E-01
 -1      1951 4.63117E+00 7.86870E+00-5.00000E-01
 -1      1952 9.59909E+00 2.71737E+00-5.00000E-01
 -1      1953 9.50477E+00 1.25091E+00-5.00000E-01
 -1      1954 1.11202E+01 3.39479E+00 5.00000E-01
 -1      1955 1.03932E+01 4.09402E+00-5.00000E-01
 -1      1956 1.97638E+00-1.35700E+01 5.00000E-01
 -1      1957 1.02737E+01 2.04356E+00 5.00000E-01
 -1      1958-1.08962E+01 3.55577E+00-5.00000E-01
 -1      1959-4.40240E+00-3.33264E+00-5.00000E-01
 -1      1960 8.41718E+00-2.30812E+00-5.00000E-01
 -1      1961 5.02013E+00 1.05947E+01-5.00000E-01
 -1      1962-1.02115E+01 7.43287E+00-5.00000E-01
 -1      1963-8.58211E+00 7.38594E+00-5.00000E-01
 -1      1964 1.05464E+01 4.40280E+00 5.00000E-01
 -1      1965 1.14919E+01 1.20342E+00 5.00000E-01
 -1      1966 7.06750E+00 2.41081E-01-5.00000E-01
 -1      1967 6.70614E-01 1.16121E+01-5.00000E-01
 -1      1968 6.15109E+00 5.23640E+00-5.00000E-01
 -1      1969 8.18037E+00 3.10029E+00-5.00000E-01
 -1      1970-3.51130E+00 1.16588E+01 5.00000E-01
 -1      1971 5.57753E+00-6.75053E+00-5.00000E-01
 -1      1972-9.28135E-01 1.15366E+01 5.00000E-01
 -1      1973 2.91815E+00-6.79654E+00-5.00000E-01
 -1      1974 1.22118E+00-8.15508E+00-5.00000E-01
 -1      1975 1.32236E+01 4.00458E+00-5.00000E-01
 -1      1976-8.10795E-01-1.01228E+01-5.00000E-01
 -1      1977 3.35548E+00-1.32632E+01-5.00000E-01
 -1      1978-1.39910E+00 3.53447E+00-5.00000E-01
 -1      1979 2.23870E+00 1.13589E+01-5.00000E-01
 -1      1980 1.17239E+01 4.29254E+00-5.00000E-01
 -1      1981 3.21699E+00 9.97038E+00-5.00000E-01
 -1      1982 3.41900E+00 8.40418E+00-5.00000E-01
 -1      1983 8.02445E+00 1.59616E+00 5.00000E-01
 -1      1984-6.73137E+00-8.89993E+00 5.00000E-01
 -1      1985-1.82096E+00-8.99713E+00-5.00000E-01
 -1      1986-1.81307E-01-7.25638E+00-5.00000E-01
 -1      1987 2.12684E+00-5.26000E+00-5.00000E-01
 -1      1988 1.65250E+00-8.30767E+00 5.00000E-01
 -1      1989-3.64892E+00-1.32608E+01 5.00000E-01
 -1      1990 5.04255E+00 7.54671E+00 5.00000E-01
 -1      1991 1.13566E+01 7.66312E+00 5.00000E-01
 -1      1992 5.95384E+00-7.63732E-01-5.00000E-01
 -1      1993-3.97219E-01 4.82068E-01-5.00000E-01
 -1      1994-6.12561E+00-1.54961E-01-5.00000E-01
 -1      1995 8.48071E+00 2.76392E-01-5.00000E-01
 -1      1996-1.22501E+00-7.91588E+00-5.00000E-01
 -1      1997 1.09821E+01 2.83694E+00-5.00000E-01
 -1      1998 1.13395E+01 7.87960E+00-5.00000E-01
 -1      1999-7.55310E+00-5.02712E+00 5.00000E-01
 -1      2000 1.20287E+01 5.85703E-01-5.00000E-01
 -1      2001 1.28331E+00 1.01198E+01-5.00000E-01
 -1      2002 1.08079E+01-3.87105E+00 5.00000E-01
 -1      2003-1.59616E+00-8.02445E+00 5.00000E-01
 -1      2004 7.79405E+00-5.39491E-01-5.00000E-01
 -1      2005 7.24823E+00-4.84311E+00 5.00000E-01
 -1      2006 3.46092E+00 4.16998E+00-5.00000E-01
 -1      2007 1.04068E+01 9.01613E+00-5.00000E-01
 -1      2008 9.08037E+00 8.62885E+00-5.00000E-01
 -1      2009 1.02490E+01-4.61607E+00-5.00000E-01
 -1      2010 1.25408E-01 8.31203E+00-5.00000E-01
 -1      2011 4.32577E+00 2.34631E+00-5.00000E-01
 -1      2012-5.71468E+00-1.07145E+01-5.00000E-01
 -1      2013-4.54549E+00-6.80280E+00 5.00000E-01
 -1      2014 6.21044E+00-5.07461E+00-5.00000E-01
 -1      2015 4.70399E+00-4.67824E+00-5.00000E-01
 -1      2016 6.49633E+00 2.47235E+00-5.00000E-01
 -1      2017-2.27652E+00 1.01935E+01-5.00000E-01
 -1      2018 7.02555E+00 7.12638E+00-5.00000E-01
 -1      2019 3.50647E-01 9.44246E+00-5.00000E-01
 -1      2020 1.92154E+00 1.36643E+01-5.00000E-01
 -1      2021 2.81883E+00 1.34775E+01 5.00000E-01
 -1      2022 8.32705E+00 6.75535E+00-5.00000E-01
 -1      2023-1.33874E+01 1.68790E+00-5.00000E-01
 -1      2024-7.83964E+00-7.80926E-01-5.00000E-01
 -1      2025-3.01146E+00 5.20354E+00-5.00000E-01
 -1      2026-2.46044E-01-1.37480E+01-5.00000E-01
 -1      2027-9.29280E+00 4.86934E+00-5.00000E-01
 -1      2028-9.01021E+00 2.69588E+00-5.00000E-01
 -1      2029-1.13556E+01-7.32001E+00-5.00000E-01
 -1      2030-1.27697E+01-5.19471E+00-5.00000E-01
 -1      2031 8.54987E+00-1.70067E+00 5.00000E-01
 -1      2032-6.54316E+00 8.72391E+00-5.00000E-01
 -1      2033-8.81637E+00-3.42156E+00-5.00000E-01
 -1      2034-4.90397E+00-5.26829E+00-5.00000E-01
 -1      2035-4.06042E+00-7.14510E+00-5.00000E-01
 -1      2036 8.84867E+00-1.16201E+00-5.00000E-01
 -1      2037-1.25433E+01-5.63569E+00 5.00000E-01
 -1      2038-2.01713E+00 1.01408E+01 5.00000E-01
 -1      2039 3.51696E+00-7.90612E+00-5.00000E-01
 -1      2040-1.09618E+01-4.69564E+00-5.00000E-01
 -1      2041 2.89990E+00 2.78702E+00-5.00000E-01
 -1      2042-1.84603E+00 8.26914E+00-5.00000E-01
 -1      2043-6.95471E+00-6.16591E+00-5.00000E-01
 -1      2044-1.05572E+01 8.65887E+00-5.00000E-01
 -1      2045 2.43948E+00 7.62412E+00-5.00000E-01
 -1      2046-3.51784E+00-4.49380E+00-5.00000E-01
 -1      2047-5.36947E+00 1.60057E+00-5.00000E-01
 -1      2048-7.41363E+00 1.25736E+00-5.00000E-01
 -1      2049 1.03889E+01-5.83191E+00-5.00000E-01
 -1      2050-1.06027E+00-1.13157E+01 5.00000E-01
 -1      2051-9.51969E+00 9.86156E+00-5.00000E-01
 -1      2052-7.74650E+00 5.98854E+00-5.00000E-01
 -1      2053 8.57215E-01 6.53763E+00-5.00000E-01
 -1      2054-7.16868E+00-5.05141E+00-5.00000E-01
 -1      2055-3.15551E-01 1.58636E+00 5.00000E-01
 -1      2056-6.01318E+00-2.15006E+00-5.00000E-01
 -1      2057 2.31715E-02 2.31067E+00-5.00000E-01
 -1      2058-7.71604E+00 5.15569E+00 5.00000E-01
 -1      2059 9.57326E+00 1.53620E-01-5.00000E-01
 -1      2060 3.27427E-01-4.81877E+00-5.00000E-01
 -1      2061-2.53693E+00-5.78146E+00-5.00000E-01
 -1      2062-8.15361E+00 4.92322E+00-5.00000E-01
 -1      2063 4.41890E+00-6.61335E+00 5.00000E-01
 -1      2064 8.08222E+00-5.49146E+00-5.00000E-01
 -1      2065 4.43527E+00 3.51514E+00-5.00000E-01
 -1      2066-3.50829E+00 8.83073E+00-5.00000E-01
 -1      2067-1.22821E+01-8.96182E-01-5.00000E-01
 -1      2068-1.20070E+01 3.74692E-01-5.00000E-01
 -1      2069 1.96639E+00 5.14192E+00-5.00000E-01
 -1      2070-1.33277E+01 2.42070E+00 5.00000E-01
 -1      2071-1.80124E+00 1.34189E+01-5.00000E-01
 -1      2072 9.48215E+00-2.18388E+00-5.00000E-01
 -1      2073 1.23157E-01 4.67421E+00-5.00000E-01
 -1      2074-9.04831E+00-1.79982E+00 5.00000E-01
 -1      2075 7.38894E+00 4.48253E+00-5.00000E-01
 -1      2076 5.76490E+00 6.24106E+00-5.00000E-01
 -1      2077-9.99399E+00-5.36674E+00-5.00000E-01
 -1      2078-1.59616E+00 8.02445E+00 5.00000E-01
 -1      2079 5.44351E+00 1.85043E+00-5.00000E-01
 -1      2080-8.17303E+00 8.71549E+00 5.00000E-01
 -1      2081-7.38627E-01-3.50429E+00-5.00000E-01
 -1      2082-8.64913E+00-1.68099E+00-5.00000E-01
 -1      2083-1.30230E+01 4.28010E+00-5.00000E-01
 -1      2084-1.69168E+00 1.75607E+00-5.00000E-01
 -1      2085 5.79150E+00-1.02822E+01 5.00000E-01
 -1      2086 1.20894E+00 7.72080E+00-5.00000E-01
 -1      2087 7.14695E+00-1.42162E+00 5.00000E-01
 -1      2088 9.91632E+00 9.61447E+00 5.00000E-01
 -1      2089 1.55171E+00 7.80097E+00 5.00000E-01
 -1      2090 1.44624E+00 9.89710E+00 5.00000E-01
 -1      2091-1.29667E+00-5.56379E+00-5.00000E-01
 -1      2092-3.32909E+00 9.90681E+00-5.00000E-01
 -1      2093-2.50769E+00-1.09261E+01 5.00000E-01
 -1      2094 8.45585E+00 5.50828E+00-5.00000E-01
 -1      2095-7.14695E+00 1.42162E+00 5.00000E-01
 -1      2096 6.63233E+00 4.43158E+00 5.00000E-01
 -1      2097 3.06934E+00-8.92636E+00-5.00000E-01
 -1      2098 4.47819E+00-3.20843E+00-5.00000E-01
 -1      2099 4.21944E+00-6.20485E+00-5.00000E-01
 -1      2100 5.79298E+00-1.24561E+01 5.00000E-01
 -1      2101 1.28887E+01-4.50435E+00 5.00000E-01
 -1      2102-8.88933E+00 1.76820E+00 5.00000E-01
 -1      2103-6.45257E+00-1.16938E+01 5.00000E-01
 -1      2104-2.44106E+00 1.35345E+01 5.00000E-01
 -1      2105 1.34277E+01-1.59836E+00-5.00000E-01
 -1      2106 9.74570E-03-6.02436E+00-5.00000E-01
 -1      2107 1.08314E+01 1.96669E-01-5.00000E-01
 -1      2108 1.24048E+01-5.54115E+00-5.00000E-01
 -1      2109-2.31886E+00-2.89162E-01-5.00000E-01
 -1      2110-8.83982E-01-1.08474E+00-5.00000E-01
 -1      2111-6.31446E+00 4.83084E+00-5.00000E-01
 -1      2112-3.10073E+00-6.68443E+00-5.00000E-01
 -1      2113 1.37561E+01 8.26672E-01-5.00000E-01
 -1      2114-5.58391E+00 1.07885E+01 5.00000E-01
 -1      2115-7.84197E+00 2.91468E+00-5.00000E-01
 -1      2116-1.13352E+01-7.87614E+00 5.00000E-01
 -1      2117-7.23046E-01-1.37379E+01 5.00000E-01
 -1      2118-1.04724E+01 1.17069E+00-5.00000E-01
 -1      2119 2.36682E+00-8.00982E+00-5.00000E-01
 -1      2120-6.85815E+00-1.19451E+01-5.00000E-01
 -1      2121-1.31393E+00 5.00716E+00-5.00000E-01
 -1      2122-6.18696E+00-8.28695E+00-5.00000E-01
 -1      2123 5.42194E+00-1.27656E+01-5.00000E-01
 -1      2124-4.53031E+00 9.29438E+00-5.00000E-01
 -1      2125 9.64649E+00 1.00161E+01-5.00000E-01
 -1      2126 2.36908E+00 4.12610E+00-5.00000E-01
 -1      2127-2.25324E+00 4.32267E+00-5.00000E-01
 -1      2128 2.86371E+00-2.04040E+00-5.00000E-01
 -1      2129-9.33510E+00 1.02309E+01 5.00000E-01
 -1      2130-3.15551E-01-1.58636E+00 5.00000E-01
 -1      2131 2.85135E+00-4.34145E+00-5.00000E-01
 -1      2132-2.80586E+00 2.85264E+00-5.00000E-01
 -1      2133-1.06326E+01-3.40997E+00-5.00000E-01
 -1      2134-5.78291E+00-4.00773E+00-5.00000E-01
 -1      2135-4.53185E+00 1.99185E-01-5.00000E-01
 -1      2136-6.74046E+00 6.50303E+00-5.00000E-01
 -1      2137 1.10988E+00-1.18050E+01-5.00000E-01
 -1      2138-5.08010E+00-1.09676E+00-5.00000E-01
 -1      2139 5.59694E-01-3.54087E+00-5.00000E-01
 -1      2140 1.13681E+01-4.06313E-02 5.00000E-01
 -1      2141-7.15018E+00-1.76400E+00-5.00000E-01
 -1      2142 1.00365E+01 5.17904E+00-5.00000E-01
 -1      2143-1.14208E+01 7.68486E+00-5.00000E-01
 -1      2144-1.28684E-01 7.16913E+00-5.00000E-01
 -1      2145-2.46974E+00-7.93468E+00-5.00000E-01
 -1      2146 1.72516E+00 9.56765E-01-5.00000E-01
 -1      2147-3.35722E+00 2.63767E-01-5.00000E-01
 -1      2148 2.37759E-01-1.02235E+01-5.00000E-01
 -1      2149 1.00674E+00-8.13118E-01-5.00000E-01
 -1      2150-3.88573E+00-8.38106E-01-5.00000E-01
 -1      2151-1.55874E+00 5.96524E-01-5.00000E-01
 -1      2152 9.19133E+00 1.60733E+00 5.00000E-01
 -1      2153-3.02612E+00-3.20171E+00-5.00000E-01
 -1      2154-3.18021E+00-1.91963E+00-5.00000E-01
 -1      2155-4.86357E+00-1.17116E+01-5.00000E-01
 -1      2156 4.41890E+00 6.61335E+00 5.00000E-01
 -1      2157 5.55184E+00 8.76851E+00 5.00000E-01
 -1      2158 1.34486E+00-8.98595E-01 5.00000E-01
 -1      2159-1.58636E+00 3.15551E-01 5.00000E-01
 -1      2160 2.84653E+00-3.19086E+00-5.00000E-01
 -1      2161-4.31531E+00 2.69271E+00-5.00000E-01
 -1      2162-4.59704E+00 4.43296E+00-5.00000E-01
 -1      2163 4.68258E+00-4.69823E-01-5.00000E-01
 -1      2164 1.21821E+01 2.62060E+00-5.00000E-01
 -1      2165-6.61146E+00-4.41763E+00 5.00000E-01
 -1      2166-6.52742E+00 1.01432E+01 5.00000E-01
 -1      2167-8.59238E+00 1.55435E+00-5.00000E-01
 -1      2168 1.13569E+01-4.51898E+00-5.00000E-01
 -1      2169-4.19478E-01 5.59994E+00-5.00000E-01
 -1      2170-2.07215E+00 5.88803E+00-5.00000E-01
 -1      2171-1.35428E+00 1.10987E+01-5.00000E-01
 -1      2172-1.34650E+01 2.93225E+00-5.00000E-01
 -1      2173 9.07342E+00 7.54345E+00-5.00000E-01
 -1      2174 5.21906E+00 2.85217E+00-5.00000E-01
 -1      2175-9.85172E-01 9.30041E+00-5.00000E-01
 -1      2176 1.01229E+01-6.90302E+00-5.00000E-01
 -1      2177-6.31395E+00 9.66765E-01-5.00000E-01
 -1      2178-8.04466E+00 3.25586E-01-5.00000E-01
 -1      2179-2.08487E+00 7.09053E+00-5.00000E-01
 -1      2180 1.20150E+00 1.20150E+00 5.00000E-01
 -1      2181-1.49080E+00 1.49080E+00 5.00000E-01
 -1      2182 5.50485E-01 1.22682E+00-5.00000E-01
 -1      2183-6.73166E+00 4.49795E+00 5.00000E-01
 -1      2184-4.04242E+00 7.36363E+00-5.00000E-01
 -1      2185 4.59972E+00 4.62141E+00-5.00000E-01
 -1      2186 3.35332E+00 5.63955E+00-5.00000E-01
 -1      2187 2.11619E+00 6.39955E+00-5.00000E-01
 -1      2188-7.90418E+00-1.57224E+00 5.00000E-01
 -1      2189-1.88107E-01 3.50349E+00-5.00000E-01
 -1      2190 6.61515E+00 3.62285E+00-5.00000E-01
 -1      2191-9.04517E+00-5.87937E+00-5.00000E-01
 -1      2192 4.52227E+00 1.28157E+00-5.00000E-01
 -1      2193-7.27454E+00 4.07066E+00-5.00000E-01
 -1      2194 2.94411E+00-2.95018E-01-5.00000E-01
 -1      2195-1.86494E+00-3.45152E+00-5.00000E-01
 -1      2196-5.41045E+00 3.40834E+00-5.00000E-01
 -1      2197-7.53254E-01-4.60568E+00-5.00000E-01
 -1      2198 1.25908E+01-5.64795E+00 5.00000E-01
 -1      2199 3.75779E+00-1.23733E+00-5.00000E-01
 -1      2200-5.35881E-02-2.24899E+00-5.00000E-01
 -1      2201-1.26178E+00 1.29548E+01 5.00000E-01
 -1      2202-4.14638E+00 5.52223E+00-5.00000E-01
 -1      2203-2.98252E+00 7.80853E+00-5.00000E-01
 -1      2204 2.13000E+00-1.13205E+00-5.00000E-01
 -1      2205-5.68282E+00 9.52459E+00-5.00000E-01
 -1      2206-9.50955E-01-6.35404E-01 5.00000E-01
 -1      2207 1.85915E+00-2.60076E+00-5.00000E-01
 -1      2208-3.13801E+00 6.69401E+00-5.00000E-01
 -1      2209-3.65799E+00 3.69205E+00-5.00000E-01
 -1      2210-6.77070E+00-3.18707E+00-5.00000E-01
 -1      2211-4.84401E+00-2.24585E+00-5.00000E-01
 -1      2212-1.15636E+01 7.74895E+00 5.00000E-01
 -1      2213 1.80732E+00 2.19616E+00-5.00000E-01
 -1      2214-5.78492E+00-1.24771E+01-5.00000E-01
 -1      2215 4.61771E+00 6.78291E+00-5.00000E-01
 -1      2216 5.69696E+00 8.61363E+00-5.00000E-01
 -1      2217 8.06817E-01-1.94782E+00 5.00000E-01
 -1      2218-6.33282E+00 2.01550E+00-5.00000E-01
 -1      2219 1.96381E+00 1.98596E-01 5.00000E-01
 -1      2220 3.31705E+00 1.60965E+00-5.00000E-01
 -1      2221 3.88602E+00 3.40297E-01-5.00000E-01
 -1      2222 1.89920E+00-9.31441E-02-5.00000E-01
 -1      2223 9.96547E-01-1.91503E+00-5.00000E-01
 -1      2224-5.79381E+00-1.25807E+01 5.00000E-01
 -1      2225 0.00000E+00-8.02445E+00 5.00000E-01
 -1      2226 0.00000E+00-8.02445E+00 6.95000E-01
 -1      2227-3.81269E+00 3.81269E+00 5.00000E-01
 -1      2228-3.81269E+00 3.81269E+00 6.95000E-01
 -1      2229-7.14695E+00 0.00000E+00 6.95000E-01
 -1      2230-7.14695E+00 0.00000E+00 5.00000E-01
 -1      2231-6.26945E+00 0.00000E+00 5.00000E-01
 -1      2232-6.26945E+00 0.00000E+00 6.95000E-01
 -1      2233-6.60292E+00-2.73502E+00 6.95000E-01
 -1      2234-6.60293E+00-2.73502E+00 5.00000E-01
 -1      2235 5.67414E+00-5.67414E+00 5.00000E-01
 -1      2236 5.67414E+00-5.67414E+00 6.95000E-01
 -1      2237-1.72760E+00 4.17081E+00 6.95000E-01
 -1      2238-1.72760E+00 4.17081E+00 5.00000E-01
 -1      2239-4.51445E+00 0.00000E+00 6.95000E-01
 -1      2240-4.51445E+00 0.00000E+00 5.00000E-01
 -1      2241-5.39195E+00 0.00000E+00 6.95000E-01
 -1      2242-5.39195E+00 0.00000E+00 5.00000E-01
 -1      2243 0.00000E+00 6.26945E+00 5.00000E-01
 -1      2244 0.00000E+00 6.26945E+00 6.95000E-01
 -1      2245-5.05366E+00 5.05366E+00 5.00000E-01
 -1      2246-5.05366E+00 5.05366E+00 6.95000E-01
 -1      2247-5.32667E+00 5.18909E+00-5.00000E-01
 -1      2248 5.39195E+00 0.00000E+00 6.95000E-01
 -1      2249 5.39195E+00 0.00000E+00 5.00000E-01
 -1      2250 7.14695E+00 0.00000E+00 5.00000E-01
 -1      2251 7.14695E+00 0.00000E+00 6.95000E-01
 -1      2252 2.39921E+00 5.79222E+00 6.95000E-01
 -1      2253 2.39921E+00 5.79222E+00 5.00000E-01
 -1      2254 2.06341E+00-4.98152E+00 6.95000E-01
 -1      2255 2.06341E+00-4.98152E+00 5.00000E-01
 -1      2256-3.19220E+00-3.19220E+00 5.00000E-01
 -1      2257-3.19220E+00-3.19220E+00 6.95000E-01
 -1      2258 6.26945E+00 0.00000E+00 5.00000E-01
 -1      2259 6.26945E+00 0.00000E+00 6.95000E-01
 -1      2260-3.40663E+00 8.22433E+00 6.95000E-01
 -1      2261-3.40663E+00 8.22434E+00 5.00000E-01
 -1      2262-8.22434E+00-3.40663E+00 6.95000E-01
 -1      2263-8.22434E+00-3.40663E+00 5.00000E-01
 -1      2264-4.98152E+00-2.06341E+00 5.00000E-01
 -1      2265-4.98152E+00-2.06341E+00 6.95000E-01
 -1      2266-2.06341E+00 4.98152E+00 6.95000E-01
 -1      2267-2.06341E+00 4.98152E+00 5.00000E-01
 -1      2268 6.29463E+00-6.29463E+00 5.00000E-01
 -1      2269 6.29463E+00-6.29463E+00 6.95000E-01
 -1      2270 5.83070E+00-1.11094E-02 6.95000E-01
 -1      2271 5.83070E+00 1.11094E-02 5.00000E-01
 -1      2272 5.97653E+00-5.99224E+00 5.00000E-01
 -1      2273 5.99224E+00-5.97653E+00 6.95000E-01
 -1      2274-6.29463E+00-6.29463E+00 5.00000E-01
 -1      2275-6.29463E+00-6.29463E+00 6.95000E-01
 -1      2276-2.23968E+00 9.27705E-01 5.00000E-01
 -1      2277-2.48474E+00 1.07775E+00-5.00000E-01
 -1      2278 0.00000E+00 8.90195E+00 6.95000E-01
 -1      2279 0.00000E+00 8.90195E+00 5.00000E-01
 -1      2280 7.41363E+00-3.07082E+00 6.95000E-01
 -1      2281 7.41363E+00-3.07082E+00 5.00000E-01
 -1      2282-2.73502E+00 6.60293E+00 6.95000E-01
 -1      2283-2.73502E+00 6.60293E+00 5.00000E-01
 -1      2284-3.07082E+00-7.41363E+00 6.95000E-01
 -1      2285-3.07082E+00-7.41363E+00 5.00000E-01
 -1      2286 3.19220E+00 3.19220E+00 5.00000E-01
 -1      2287 3.19220E+00 3.19220E+00 6.95000E-01
 -1      2288 6.29463E+00 6.29463E+00 5.00000E-01
 -1      2289 6.29463E+00 6.29463E+00 6.95000E-01
 -1      2290-6.70820E+00 1.11094E-02 6.95000E-01
 -1      2291-6.70820E+00-1.11094E-02 5.00000E-01
 -1      2292 4.43317E+00-4.43317E+00 5.00000E-01
 -1      2293 4.43317E+00-4.43317E+00 6.95000E-01
 -1      2294 5.79222E+00-2.39921E+00 6.95000E-01
 -1      2295 5.79222E+00-2.39921E+00 5.00000E-01
 -1      2296 5.05366E+00-5.05366E+00 6.95000E-01
 -1      2297 5.05366E+00-5.05366E+00 5.00000E-01
 -1      2298-6.61293E+00-6.61293E+00 6.95000E-01
 -1      2299-6.61293E+00-6.61293E+00 5.00000E-01
 -1      2300-2.39921E+00 5.79222E+00 6.95000E-01
 -1      2301-2.39921E+00 5.79222E+00 5.00000E-01
 -1      2302 0.00000E+00 5.39195E+00 6.95000E-01
 -1      2303 0.00000E+00 5.39195E+00 5.00000E-01
 -1      2304-4.43317E+00-4.43317E+00 5.00000E-01
 -1      2305-4.43317E+00-4.43317E+00 6.95000E-01
 -1      2306-4.51534E+00-4.33618E+00-5.00000E-01
 -1      2307 4.98152E+00-2.06341E+00 6.95000E-01
 -1      2308 4.98152E+00-2.06341E+00 5.00000E-01
 -1      2309 4.43317E+00 4.43317E+00 6.95000E-01
 -1      2310 4.43317E+00 4.43317E+00 5.00000E-01
 -1      2311-4.11487E+00-4.11487E+00 6.95000E-01
 -1      2312-4.11487E+00-4.11487E+00 5.00000E-01
 -1      2313-8.90195E+00 0.00000E+00 6.95000E-01
 -1      2314-8.90195E+00 0.00000E+00 5.00000E-01
 -1      2315 0.00000E+00-5.39195E+00 6.95000E-01
 -1      2316 0.00000E+00-5.39195E+00 5.00000E-01
 -1      2317 6.61293E+00-6.61293E+00 6.95000E-01
 -1      2318 6.61293E+00-6.61293E+00 5.00000E-01
 -1      2319-5.05366E+00-5.05366E+00 5.00000E-01
 -1      2320-5.05366E+00-5.05366E+00 6.95000E-01
 -1      2321-4.43317E+00 4.43317E+00 5.00000E-01
 -1      2322-4.43317E+00 4.43317E+00 6.95000E-01
 -1      2323 8.22434E+00 3.40663E+00 6.95000E-01
 -1      2324 8.22434E+00 3.40663E+00 5.00000E-01
 -1      2325 2.39921E+00-5.79222E+00 6.95000E-01
 -1      2326 2.39921E+00-5.79222E+00 5.00000E-01
 -1      2327 6.60292E+00 2.73502E+00 6.95000E-01
 -1      2328 6.60293E+00 2.73502E+00 5.00000E-01
 -1      2329-4.75127E+00-4.73556E+00 6.95000E-01
 -1      2330-4.73556E+00-4.75127E+00 5.00000E-01
 -1      2331-7.03931E+00 2.68303E-01-5.00000E-01
 -1      2332 2.01296E+00 1.34501E+00 5.00000E-01
 -1      2333 0.00000E+00 8.02445E+00 5.00000E-01
 -1      2334 0.00000E+00 8.02445E+00 6.95000E-01
 -1      2335-2.39921E+00-5.79222E+00 6.95000E-01
 -1      2336-2.39921E+00-5.79222E+00 5.00000E-01
 -1      2337 0.00000E+00-8.90195E+00 6.95000E-01
 -1      2338 0.00000E+00-8.90195E+00 5.00000E-01
 -1      2339-5.67414E+00-5.67414E+00 6.95000E-01
 -1      2340-5.67414E+00-5.67414E+00 5.00000E-01
 -1      2341 4.17081E+00 1.72760E+00 6.95000E-01
 -1      2342 4.17081E+00 1.72760E+00 5.00000E-01
 -1      2343 0.00000E+00-4.51445E+00 6.95000E-01
 -1      2344 0.00000E+00-4.51445E+00 5.00000E-01
 -1      2345 2.73502E+00-6.60292E+00 6.95000E-01
 -1      2346 2.73502E+00-6.60293E+00 5.00000E-01
 -1      2347-8.02445E+00 0.00000E+00 6.95000E-01
 -1      2348-8.02445E+00 0.00000E+00 5.00000E-01
 -1      2349 4.98152E+00 2.06341E+00 6.95000E-01
 -1      2350 4.98152E+00 2.06341E+00 5.00000E-01
 -1      2351 2.24157E+00-5.38262E+00 6.95000E-01
 -1      2352 2.22105E+00-5.39112E+00 5.00000E-01
 -1      2353-4.13079E+00 4.11507E+00 6.95000E-01
 -1      2354-4.11507E+00 4.13079E+00 5.00000E-01
 -1      2355 2.22675E+00-6.72913E-01 5.00000E-01
 -1      2356 3.81269E+00-3.81269E+00 5.00000E-01
 -1      2357 3.86024E+00-4.05561E+00-5.00000E-01
 -1      2358 3.81269E+00-3.81269E+00 6.95000E-01
 -1      2359 0.00000E+00-9.66407E+00 6.95000E-01
 -1      2360 0.00000E+00-9.35209E+00 5.00000E-01
 -1      2361-1.66641E-02-9.78515E+00 5.00000E-01
 -1      2362-1.68750E-01-9.94113E+00 6.95000E-01
 -1      2363-6.73594E-02-9.28301E+00 6.95000E-01
 -1      2364 2.14164E-01-9.57718E+00 5.00000E-01
 -1      2365 1.68750E-01-9.94113E+00 6.95000E-01
 -1      2366 1.77452E-01-9.43621E+00 6.95000E-01
 -1      2367-2.35491E-01-9.94651E+00 5.00000E-01
 -1      2368 2.38332E-01-9.66976E+00 6.95000E-01
 -1      2369-2.25000E-01-9.12132E+00 5.00000E-01
 -1      2370 2.25149E-01-9.35230E+00 5.00000E-01
 -1      2371 2.18567E-01-9.93783E+00 5.00000E-01
 -1      2372-2.25000E-01-9.05866E+00 6.95000E-01
 -1      2373 2.21402E-01-9.12502E+00 6.95000E-01
 -1      2374 2.25000E-01-9.07092E+00 5.00000E-01
 -1      2375-2.73502E+00-6.60292E+00 6.95000E-01
 -1      2376-2.73502E+00-6.60292E+00 5.00000E-01
 -1      2377-1.72760E+00-4.17081E+00 5.00000E-01
 -1      2378-1.72760E+00-4.17081E+00 6.95000E-01
 -1      2379 2.06341E+00 4.98152E+00 6.95000E-01
 -1      2380 2.06341E+00 4.98152E+00 5.00000E-01
 -1      2381-6.60293E+00 2.73502E+00 5.00000E-01
 -1      2382-6.60293E+00 2.73502E+00 6.95000E-01
 -1      2383 0.00000E+00 4.51445E+00 6.95000E-01
 -1      2384 0.00000E+00 4.51445E+00 5.00000E-01
 -1      2385-1.47575E+00-3.56278E+00 6.95000E-01
 -1      2386-1.47575E+00-3.56278E+00 5.00000E-01
 -1      2387-5.79222E+00-2.39921E+00 6.95000E-01
 -1      2388-5.79222E+00-2.39921E+00 5.00000E-01
 -1      2389 1.72760E+00-4.17081E+00 6.95000E-01
 -1      2390 1.72760E+00-4.17081E+00 5.00000E-01
 -1      2391-7.41363E+00 3.07082E+00 5.00000E-01
 -1      2392-7.41363E+00 3.07082E+00 6.95000E-01
 -1      2393 5.79222E+00 2.39921E+00 5.00000E-01
 -1      2394 5.79222E+00 2.39921E+00 6.95000E-01
 -1      2395-9.93470E-01-2.55065E+00-5.00000E-01
 -1      2396 3.19220E+00-3.19220E+00 5.00000E-01
 -1      2397 3.19220E+00-3.19220E+00 6.95000E-01
 -1      2398-1.39419E+00-1.61932E+00 5.00000E-01
 -1      2399 3.07082E+00-7.41363E+00 6.95000E-01
 -1      2400 3.07082E+00-7.41363E+00 5.00000E-01
 -1      2401 3.07082E+00 7.41363E+00 6.95000E-01
 -1      2402 3.07082E+00 7.41363E+00 5.00000E-01
 -1      2403-5.67414E+00 5.67414E+00 5.00000E-01
 -1      2404-5.67414E+00 5.67414E+00 6.95000E-01
 -1      2405-7.41363E+00-3.07082E+00 6.95000E-01
 -1      2406-7.41363E+00-3.07082E+00 5.00000E-01
 -1      2407-5.99224E+00-5.97653E+00 6.95000E-01
 -1      2408-5.99224E+00-5.97653E+00 5.00000E-01
 -1      2409 2.13160E+00 2.90212E+00-5.00000E-01
 -1      2410-1.00324E+01-5.30253E-02-5.00000E-01
 -1      2411-4.95320E+00 1.11094E-02 5.00000E-01
 -1      2412-4.95320E+00-1.11094E-02 6.95000E-01
 -1      2413-2.04251E+00-6.76997E-01 5.00000E-01
 -1      2414-4.17081E+00-1.72760E+00 6.95000E-01
 -1      2415-4.17081E+00-1.72760E+00 5.00000E-01
 -1      2416-7.81473E+00-3.24899E+00 5.00000E-01
 -1      2417-7.82323E+00-3.22846E+00 6.95000E-01
 -1      2418 1.72760E+00 4.17081E+00 6.95000E-01
 -1      2419 1.72760E+00 4.17081E+00 5.00000E-01
 -1      2420 0.00000E+00 7.14695E+00 5.00000E-01
 -1      2421 0.00000E+00 7.14695E+00 6.95000E-01
 -1      2422-1.11094E-02 5.83070E+00 6.95000E-01
 -1      2423 1.11094E-02 5.83070E+00 5.00000E-01
 -1      2424 4.51445E+00 0.00000E+00 6.95000E-01
 -1      2425 4.51445E+00 0.00000E+00 5.00000E-01
 -1      2426 3.51030E+00-3.49459E+00 6.95000E-01
 -1      2427 3.49459E+00-3.51030E+00 5.00000E-01
 -1      2428 0.00000E+00-6.26945E+00 5.00000E-01
 -1      2429 0.00000E+00-6.26945E+00 6.95000E-01
 -1      2430 3.40663E+00-8.22434E+00 6.95000E-01
 -1      2431 3.40663E+00-8.22434E+00 5.00000E-01
 -1      2432 5.35604E+00-5.37176E+00 5.00000E-01
 -1      2433 5.35604E+00-5.37176E+00 6.95000E-01
 -1      2434-3.19220E+00 3.19220E+00 5.00000E-01
 -1      2435-3.19220E+00 3.19220E+00 6.95000E-01
 -1      2436 0.00000E+00-7.14695E+00 5.00000E-01
 -1      2437 0.00000E+00-7.14695E+00 6.95000E-01
 -1      2438-3.40663E+00-8.22433E+00 6.95000E-01
 -1      2439-3.40663E+00-8.22434E+00 5.00000E-01
 -1      2440-2.06341E+00-4.98152E+00 5.00000E-01
 -1      2441-2.06341E+00-4.98152E+00 6.95000E-01
 -1      2442-7.01253E+00-2.89266E+00 5.00000E-01
 -1      2443-7.00402E+00-2.91318E+00 6.95000E-01
 -1      2444-3.07082E+00 7.41363E+00 6.95000E-01
 -1      2445-3.07082E+00 7.41363E+00 5.00000E-01
 -1      2446-4.75127E+00 4.73556E+00 6.95000E-01
 -1      2447-4.73556E+00 4.75127E+00 5.00000E-01
 -1      2448-5.35604E+00-5.37176E+00 6.95000E-01
 -1      2449-5.37176E+00-5.35604E+00 5.00000E-01
 -1      2450-6.29463E+00 6.29463E+00 5.00000E-01
 -1      2451-6.29463E+00 6.29463E+00 6.95000E-01
 -1      2452-6.19332E+00-2.57738E+00 5.00000E-01
 -1      2453-6.20182E+00-2.55685E+00 6.95000E-01
 -1      2454-4.57326E+00-1.02458E+01 5.00000E-01
 -1      2455-3.22846E+00-7.82323E+00 5.00000E-01
 -1      2456-3.24899E+00-7.81473E+00 6.95000E-01
 -1      2457 1.11094E-02-6.70820E+00 6.95000E-01
 -1      2458-1.11094E-02-6.70820E+00 5.00000E-01
 -1      2459 2.57738E+00-6.19332E+00 5.00000E-01
 -1      2460 2.55685E+00-6.20182E+00 6.95000E-01
 -1      2461 1.88524E+00 4.58041E+00 5.00000E-01
 -1      2462 1.90577E+00 4.57191E+00 6.95000E-01
 -1      2463 5.67414E+00 5.67414E+00 5.00000E-01
 -1      2464 5.67414E+00 5.67414E+00 6.95000E-01
 -1      2465 4.17081E+00-1.72760E+00 6.95000E-01
 -1      2466 4.17081E+00-1.72760E+00 5.00000E-01
 -1      2467 8.22434E+00-3.40663E+00 5.00000E-01
 -1      2468 8.22434E+00-3.40663E+00 6.95000E-01
 -1      2469-5.97653E+00 5.99224E+00 5.00000E-01
 -1      2470-5.99224E+00 5.97653E+00 6.95000E-01
 -1      2471 6.55179E-01 3.03774E+00-5.00000E-01
 -1      2472 7.81473E+00-3.24899E+00 5.00000E-01
 -1      2473 7.82323E+00-3.22846E+00 6.95000E-01
 -1      2474 7.41363E+00 3.07082E+00 6.95000E-01
 -1      2475 7.41363E+00 3.07082E+00 5.00000E-01
 -1      2476-3.69828E+00-8.92844E+00 5.00000E-01
 -1      2477-3.57889E+00-8.64021E+00 6.95000E-01
 -1      2478-3.72922E+00-9.04668E+00 6.95000E-01
 -1      2479-3.49022E+00-8.60216E+00 5.00000E-01
 -1      2480-3.86289E+00-8.76621E+00 6.95000E-01
 -1      2481-3.96021E+00-9.11983E+00 5.00000E-01
 -1      2482-3.64840E+00-9.24899E+00 5.00000E-01
 -1      2483-3.56754E+00-9.22621E+00 6.95000E-01
 -1      2484-3.77503E+00-8.65002E+00 5.00000E-01
 -1      2485-3.28271E+00-8.51311E+00 6.95000E-01
 -1      2486-3.92027E+00-8.83984E+00 5.00000E-01
 -1      2487-3.78698E+00-8.55424E+00 6.95000E-01
 -1      2488-3.25873E+00-8.45522E+00 5.00000E-01
 -1      2489-4.00497E+00-9.09772E+00 6.95000E-01
 -1      2490-3.69654E+00-8.34569E+00 5.00000E-01
 -1      2491-3.67916E+00-8.29434E+00 6.95000E-01
 -1      2492 2.74700E+00 7.32420E-01-5.00000E-01
 -1      2493-7.58570E+00-1.11094E-02 5.00000E-01
 -1      2494-7.58570E+00 1.11094E-02 6.95000E-01
 -1      2495 3.75233E+00 0.00000E+00 6.95000E-01
 -1      2496 3.64834E+00 0.00000E+00 5.00000E-01
 -1      2497 3.47527E+00-1.68750E-01 6.95000E-01
 -1      2498 4.08140E+00 1.66641E-02 5.00000E-01
 -1      2499 3.47527E+00 1.43081E-01 6.95000E-01
 -1      2500 3.47741E+00-2.20816E-01 5.00000E-01
 -1      2501 4.13339E+00-6.73594E-02 6.95000E-01
 -1      2502 3.42327E+00 1.12500E-01 5.00000E-01
 -1      2503 3.98019E+00 1.77452E-01 6.95000E-01
 -1      2504 3.85632E+00 2.30410E-01 5.00000E-01
 -1      2505 4.29507E+00-2.25000E-01 5.00000E-01
 -1      2506 3.74923E+00 2.38996E-01 6.95000E-01
 -1      2507 4.35774E+00-2.25000E-01 6.95000E-01
 -1      2508 3.57889E+00-8.64021E+00 6.95000E-01
 -1      2509 3.57889E+00-8.64021E+00 5.00000E-01
 -1      2510-5.38262E+00-2.24157E+00 6.95000E-01
 -1      2511-5.38262E+00-2.24157E+00 5.00000E-01
 -1      2512 5.39112E+00-2.22105E+00 5.00000E-01
 -1      2513 5.39112E+00-2.22105E+00 6.95000E-01
 -1      2514-3.46671E+00-1.43595E+00 6.95000E-01
 -1      2515-3.75493E+00-1.55534E+00 5.00000E-01
 -1      2516-3.79298E+00-1.64401E+00 6.95000E-01
 -1      2517-3.88203E+00-1.85152E+00 5.00000E-01
 -1      2518-3.34847E+00-1.40501E+00 5.00000E-01
 -1      2519-3.27531E+00-1.17402E+00 6.95000E-01
 -1      2520-3.14615E+00-1.48583E+00 6.95000E-01
 -1      2521-3.93993E+00-1.87550E+00 6.95000E-01
 -1      2522-3.62894E+00-1.27134E+00 5.00000E-01
 -1      2523-3.29742E+00-1.12926E+00 5.00000E-01
 -1      2524-3.74512E+00-1.35920E+00 6.95000E-01
 -1      2525-3.16894E+00-1.56669E+00 5.00000E-01
 -1      2526-3.55530E+00-1.21396E+00 6.95000E-01
 -1      2527-3.84090E+00-1.34725E+00 5.00000E-01
 -1      2528-4.03244E+00-1.45734E+00 6.95000E-01
 -1      2529-4.00603E+00-1.53728E+00 5.00000E-01
 -1      2530 1.11094E-02-7.58570E+00 6.95000E-01
 -1      2531-1.11094E-02-7.58570E+00 5.00000E-01
 -1      2532 8.02445E+00 0.00000E+00 5.00000E-01
 -1      2533 8.02445E+00 0.00000E+00 6.95000E-01
 -1      2534 1.11094E-02-4.95320E+00 5.00000E-01
 -1      2535-1.11094E-02-4.95320E+00 6.95000E-01
 -1      2536 8.83236E+00 3.65848E+00 6.95000E-01
 -1      2537 9.02451E+00 3.73807E+00 5.00000E-01
 -1      2538 8.61805E+00 3.58775E+00 5.00000E-01
 -1      2539 8.92054E+00 3.44561E+00 5.00000E-01
 -1      2540 9.09120E+00 3.89348E+00 6.95000E-01
 -1      2541 8.74419E+00 3.87135E+00 5.00000E-01
 -1      2542 8.57353E+00 3.42348E+00 6.95000E-01
 -1      2543 8.82864E+00 3.64299E+00 5.00000E-01
 -1      2544 8.54655E+00 3.71324E+00 6.95000E-01
 -1      2545 9.11817E+00 3.60372E+00 6.95000E-01
 -1      2546 8.84127E+00 3.90872E+00 6.95000E-01
 -1      2547 9.09793E+00 4.00749E+00 5.00000E-01
 -1      2548 8.54286E+00 3.79104E+00 5.00000E-01
 -1      2549 8.94260E+00 3.46060E+00 6.95000E-01
 -1      2550 9.12650E+00 3.53710E+00 5.00000E-01
 -1      2551 8.51312E+00 3.28271E+00 5.00000E-01
 -1      2552 8.40743E+00 3.23893E+00 6.95000E-01
 -1      2553 8.30518E+00 3.19658E+00 5.00000E-01
 -1      2554 8.13619E+00 3.12658E+00 6.95000E-01
 -1      2555 7.81473E+00 3.24899E+00 5.00000E-01
 -1      2556 8.04988E+00 3.12848E+00 5.00000E-01
 -1      2557 7.76168E+00 3.27018E+00 6.95000E-01
 -1      2558-3.65756E+00-3.65756E+00 6.95000E-01
 -1      2559-3.51050E+00-3.51050E+00 5.00000E-01
 -1      2560-3.49464E+00-3.82049E+00 5.00000E-01
 -1      2561-3.82049E+00-3.49464E+00 5.00000E-01
 -1      2562-3.50836E+00-3.34140E+00 6.95000E-01
 -1      2563-3.85719E+00-3.85719E+00 5.00000E-01
 -1      2564-3.67428E+00-3.67428E+00 5.00000E-01
 -1      2565-3.97166E+00-3.80077E+00 6.95000E-01
 -1      2566-3.74510E+00-3.42297E+00 6.95000E-01
 -1      2567-3.57602E+00-3.89422E+00 6.95000E-01
 -1      2568-3.66205E+00-3.97577E+00 5.00000E-01
 -1      2569-3.80488E+00-4.13073E+00 6.95000E-01
 -1      2570-3.37256E+00-3.59878E+00 6.95000E-01
 -1      2571-3.84926E+00-4.17292E+00 5.00000E-01
 -1      2572-3.79005E+00-3.91611E+00 6.95000E-01
 -1      2573-4.11957E+00-3.85249E+00 5.00000E-01
 -1      2574-3.33936E+00-3.65714E+00 5.00000E-01
 -1      2575-3.50642E+00-3.18822E+00 5.00000E-01
 -1      2576-4.20633E+00-3.88441E+00 6.95000E-01
 -1      2577-3.42554E+00-3.10734E+00 6.95000E-01
 -1      2578-3.34727E+00-3.02907E+00 5.00000E-01
 -1      2579-3.19618E+00-2.87798E+00 6.95000E-01
 -1      2580-2.87390E+00-2.87390E+00 5.00000E-01
 -1      2581-2.73862E+00-2.71505E+00 6.95000E-01
 -1      2582-2.87598E+00-3.03863E+00 6.95000E-01
 -1      2583-3.10862E+00-2.95748E+00 5.00000E-01
 -1      2584-2.57947E+00-2.55590E+00 5.00000E-01
 -1      2585-2.87788E+00-3.18822E+00 5.00000E-01
 -1      2586-2.88976E+00-2.56391E+00 5.00000E-01
 -1      2587-2.96221E+00-2.81108E+00 6.95000E-01
 -1      2588-2.41504E+00-2.57769E+00 6.95000E-01
 -1      2589-2.95666E+00-3.27486E+00 6.95000E-01
 -1      2590-2.81427E+00-2.48428E+00 6.95000E-01
 -1      2591-2.73071E+00-2.71117E+00 5.00000E-01
 -1      2592-3.03300E+00-3.35120E+00 5.00000E-01
 -1      2593-2.26574E+00-2.57580E+00 5.00000E-01
 -1      2594-3.13813E+00-3.47082E+00 6.95000E-01
 -1      2595-2.61862E+00-2.54793E+00 6.95000E-01
 -1      2596-3.26548E+00-3.42477E+00 5.00000E-01
 -1      2597-7.01253E+00 2.89266E+00 6.95000E-01
 -1      2598-7.00403E+00 2.91318E+00 5.00000E-01
 -1      2599 8.07484E-01-2.53739E+00 5.00000E-01
 -1      2600-5.79222E+00 2.39921E+00 6.95000E-01
 -1      2601-5.79222E+00 2.39921E+00 5.00000E-01
 -1      2602-5.70231E+00-7.23227E+00-5.00000E-01
 -1      2603-9.66407E+00 0.00000E+00 6.95000E-01
 -1      2604-9.66407E+00 0.00000E+00 5.00000E-01
 -1      2605-3.51030E+00 3.49459E+00 6.95000E-01
 -1      2606-3.49459E+00 3.51030E+00 5.00000E-01
 -1      2607-2.24157E+00-5.38262E+00 6.95000E-01
 -1      2608-2.22105E+00-5.39112E+00 5.00000E-01
 -1      2609 7.58570E+00 1.11094E-02 6.95000E-01
 -1      2610 7.58570E+00-1.11094E-02 5.00000E-01
 -1      2611 5.38262E+00 2.24157E+00 6.95000E-01
 -1      2612 5.39112E+00 2.22105E+00 5.00000E-01
 -1      2613-8.22434E+00 3.40663E+00 5.00000E-01
 -1      2614-8.22433E+00 3.40663E+00 6.95000E-01
 -1      2615-3.93418E+00-3.89346E+00-5.00000E-01
 -1      2616-1.86198E+00 2.69736E+00-5.00000E-01
 -1      2617 8.90195E+00 0.00000E+00 6.95000E-01
 -1      2618 8.90195E+00 0.00000E+00 5.00000E-01
 -1      2619-2.30623E+00-1.33858E+00-5.00000E-01
 -1      2620 3.81269E+00 3.81269E+00 5.00000E-01
 -1      2621 3.81269E+00 3.81269E+00 6.95000E-01
 -1      2622 5.35584E+00 5.35584E+00 6.95000E-01
 -1      2623 5.35584E+00 5.35584E+00 5.00000E-01
 -1      2624 9.04637E+00 3.48919E+00-5.00000E-01
 -1      2625 6.60292E+00-2.73502E+00 6.95000E-01
 -1      2626 6.60293E+00-2.73502E+00 5.00000E-01
 -1      2627-1.43595E+00 3.46671E+00 6.95000E-01
 -1      2628-1.55534E+00 3.75493E+00 5.00000E-01
 -1      2629-1.64401E+00 3.79298E+00 6.95000E-01
 -1      2630-1.84421E+00 3.87890E+00 5.00000E-01
 -1      2631-1.89350E+00 3.98337E+00 6.95000E-01
 -1      2632-1.93542E+00 4.08458E+00 5.00000E-01
 -1      2633-1.37423E+00 3.36122E+00 5.00000E-01
 -1      2634-1.17402E+00 3.27531E+00 6.95000E-01
 -1      2635-2.01943E+00 4.28738E+00 6.95000E-01
 -1      2636-1.66707E+00 3.46502E+00 5.00000E-01
 -1      2637-1.48583E+00 3.14615E+00 6.95000E-01
 -1      2638-1.70730E+00 3.52315E+00 6.95000E-01
 -1      2639-1.88524E+00 4.58041E+00 5.00000E-01
 -1      2640-1.91676E+00 4.33315E+00 5.00000E-01
 -1      2641-1.11031E+00 3.29588E+00 5.00000E-01
 -1      2642-2.05020E+00 4.63389E+00 6.95000E-01
 -1      2643-1.41247E+00 3.11604E+00 5.00000E-01
 -1      2644-1.72934E+00 4.51351E+00 6.95000E-01
 -1      2645-2.18733E+00 4.69274E+00 5.00000E-01
 -1      2646-1.59855E+00 4.46172E+00 5.00000E-01
 -1      2647-2.23219E+00 4.80104E+00 6.95000E-01
 -1      2648-1.55541E+00 4.34304E+00 6.95000E-01
 -1      2649-2.27346E+00 4.90068E+00 5.00000E-01
 -1      2650-1.51758E+00 4.25172E+00 5.00000E-01
 -1      2651-2.35523E+00 5.09809E+00 6.95000E-01
 -1      2652-1.44324E+00 4.03557E+00 6.95000E-01
 -1      2653-2.22105E+00 5.39112E+00 5.00000E-01
 -1      2654-2.34156E+00 5.15598E+00 5.00000E-01
 -1      2655-1.36549E+00 3.76685E+00 6.95000E-01
 -1      2656-1.54267E+00 4.00380E+00 5.00000E-01
 -1      2657-2.38601E+00 5.44460E+00 6.95000E-01
 -1      2658-1.36006E+00 3.86975E+00 5.00000E-01
 -1      2659-2.52313E+00 5.50344E+00 5.00000E-01
 -1      2660-2.56800E+00 5.61175E+00 6.95000E-01
 -1      2661-2.06514E+00 5.32422E+00 6.95000E-01
 -1      2662-1.24619E+00 3.61211E+00 5.00000E-01
 -1      2663-2.60927E+00 5.71138E+00 5.00000E-01
 -1      2664-2.68237E+00 5.88788E+00 6.95000E-01
 -1      2665-1.20684E+00 3.50533E+00 6.95000E-01
 -1      2666-2.62667E+00 6.06992E+00 5.00000E-01
 -1      2667-2.70827E+00 5.88627E+00 5.00000E-01
 -1      2668-1.93436E+00 5.27242E+00 5.00000E-01
 -1      2669-2.53432E+00 6.25824E+00 6.95000E-01
 -1      2670-2.75290E+00 6.13085E+00 6.95000E-01
 -1      2671-2.48738E+00 6.37575E+00 5.00000E-01
 -1      2672-1.89121E+00 5.15374E+00 6.95000E-01
 -1      2673-2.46179E+00 6.53124E+00 6.95000E-01
 -1      2674-2.49631E+00 6.61458E+00 5.00000E-01
 -1      2675-2.76766E+00 6.31878E+00 5.00000E-01
 -1      2676-2.88297E+00 6.37215E+00 6.95000E-01
 -1      2677-1.85338E+00 5.06242E+00 5.00000E-01
 -1      2678-2.92812E+00 6.48116E+00 5.00000E-01
 -1      2679-2.97479E+00 6.59383E+00 6.95000E-01
 -1      2680-2.99451E+00 6.80044E+00 5.00000E-01
 -1      2681-1.78743E+00 4.82528E+00 6.95000E-01
 -1      2682-2.88996E+00 7.01929E+00 6.95000E-01
 -1      2683-2.84561E+00 7.13032E+00 5.00000E-01
 -1      2684-1.88145E+00 4.82222E+00 5.00000E-01
 -1      2685-3.06374E+00 6.83276E+00 6.95000E-01
 -1      2686-2.82780E+00 7.28645E+00 6.95000E-01
 -1      2687-2.82098E+00 7.39840E+00 5.00000E-01
 -1      2688 3.51030E+00 3.49459E+00 6.95000E-01
 -1      2689 3.49459E+00 3.51030E+00 5.00000E-01
 -1      2690 8.46913E+00 4.96835E+00 5.00000E-01
 -1      2691-1.11094E-02-5.83070E+00 6.95000E-01
 -1      2692 1.11094E-02-5.83070E+00 5.00000E-01
 -1      2693 2.73502E+00 6.60292E+00 6.95000E-01
 -1      2694 2.73502E+00 6.60293E+00 5.00000E-01
 -1      2695 2.22105E+00 5.39112E+00 5.00000E-01
 -1      2696 2.24157E+00 5.38262E+00 6.95000E-01
 -1      2697 2.91318E+00 7.00402E+00 6.95000E-01
 -1      2698 2.89266E+00 7.01253E+00 5.00000E-01
 -1      2699 3.40663E+00 8.22433E+00 6.95000E-01
 -1      2700 3.40663E+00 8.22434E+00 5.00000E-01
 -1      2701-1.11094E-02 4.95320E+00 5.00000E-01
 -1      2702 1.11094E-02 4.95320E+00 6.95000E-01
 -1      2703-5.35604E+00 5.37176E+00 6.95000E-01
 -1      2704-5.37176E+00 5.35604E+00 5.00000E-01
 -1      2705-4.17081E+00 1.72760E+00 6.95000E-01
 -1      2706-4.17081E+00 1.72760E+00 5.00000E-01
 -1      2707-4.98152E+00 2.06341E+00 6.95000E-01
 -1      2708-4.98152E+00 2.06341E+00 5.00000E-01
 -1      2709-1.03709E+01-4.29576E+00 5.00000E-01
 -1      2710-1.11094E-02 7.58570E+00 6.95000E-01
 -1      2711 1.11094E-02 7.58570E+00 5.00000E-01
 -1      2712-1.90577E+00-4.57191E+00 6.95000E-01
 -1      2713-1.88524E+00-4.58041E+00 5.00000E-01
 -1      2714-2.84942E+00 5.96791E+00-5.00000E-01
 -1      2715 3.24899E+00-7.81473E+00 6.95000E-01
 -1      2716 3.22846E+00-7.82323E+00 5.00000E-01
 -1      2717 8.37570E+00 3.82399E+00-5.00000E-01
 -1      2718 3.69828E+00 8.92844E+00 6.95000E-01
 -1      2719 3.57889E+00 8.64021E+00 5.00000E-01
 -1      2720 3.72922E+00 9.04668E+00 5.00000E-01
 -1      2721 3.64840E+00 9.24899E+00 6.95000E-01
 -1      2722 3.93650E+00 9.12966E+00 6.95000E-01
 -1      2723 3.61468E+00 8.55061E+00 6.95000E-01
 -1      2724 4.02667E+00 9.14836E+00 5.00000E-01
 -1      2725 3.86289E+00 8.76621E+00 5.00000E-01
 -1      2726 3.85024E+00 8.69665E+00 6.95000E-01
 -1      2727 3.44714E+00 8.78584E+00 6.95000E-01
 -1      2728 3.58880E+00 9.27950E+00 5.00000E-01
 -1      2729 3.69845E+00 8.34090E+00 5.00000E-01
 -1      2730 3.44561E+00 8.92054E+00 5.00000E-01
 -1      2731 3.67447E+00 8.28301E+00 6.95000E-01
 -1      2732 3.36466E+00 8.71021E+00 5.00000E-01
 -1      2733 3.47866E+00 9.02277E+00 6.95000E-01
 -1      2734 3.28744E+00 8.51515E+00 6.95000E-01
 -1      2735 3.24073E+00 8.41178E+00 5.00000E-01
 -1      2736 3.19802E+00 8.30867E+00 6.95000E-01
 -1      2737 3.13143E+00 8.14791E+00 5.00000E-01
 -1      2738 3.17611E+00 7.95430E+00 6.95000E-01
 -1      2739 3.26806E+00 7.76699E+00 5.00000E-01
 -1      2740 3.05969E+00 7.90721E+00 5.00000E-01
 -1      2741 3.09753E+00 8.13702E+00 6.95000E-01
 -1      2742 3.31622E+00 7.64643E+00 6.95000E-01
 -1      2743 3.03027E+00 7.70211E+00 6.95000E-01
 -1      2744 3.04467E+00 7.65996E+00 5.00000E-01
 -1      2745 3.31581E+00 7.50861E+00 5.00000E-01
 -1      2746 3.34330E+00 7.41949E+00 6.95000E-01
 -1      2747-7.82323E+00 3.22846E+00 6.95000E-01
 -1      2748-7.81473E+00 3.24899E+00 5.00000E-01
 -1      2749 7.00403E+00-2.91318E+00 5.00000E-01
 -1      2750 7.01253E+00-2.89266E+00 6.95000E-01
 -1      2751-5.38262E+00 2.24157E+00 5.00000E-01
 -1      2752-5.39112E+00 2.22105E+00 6.95000E-01
 -1      2753-4.61652E+00 6.93404E+00 5.00000E-01
 -1      2754 8.46320E+00 1.11094E-02 6.95000E-01
 -1      2755 8.46320E+00-1.11094E-02 5.00000E-01
 -1      2756-6.83353E+00 6.83353E+00 6.95000E-01
 -1      2757-6.61293E+00 6.61293E+00 5.00000E-01
 -1      2758-6.90736E+00 6.93093E+00 5.00000E-01
 -1      2759-6.91012E+00 7.14877E+00 6.95000E-01
 -1      2760-6.51645E+00 6.61171E+00 6.95000E-01
 -1      2761-7.13062E+00 6.92827E+00 6.95000E-01
 -1      2762-6.92353E+00 6.62066E+00 5.00000E-01
 -1      2763-6.79789E+00 6.54693E+00 6.95000E-01
 -1      2764-6.29065E+00 6.60885E+00 5.00000E-01
 -1      2765-7.18166E+00 6.87256E+00 5.00000E-01
 -1      2766-7.00472E+00 6.66673E+00 6.95000E-01
 -1      2767-6.82669E+00 7.15866E+00 5.00000E-01
 -1      2768-6.77228E+00 6.45387E+00 5.00000E-01
 -1      2769-6.59726E+00 6.31905E+00 6.95000E-01
 -1      2770-6.57321E+00 6.25501E+00 5.00000E-01
 -1      2771-6.21309E+00 6.53129E+00 6.95000E-01
 -1      2772 5.99224E+00 5.97653E+00 6.95000E-01
 -1      2773 5.97653E+00 5.99224E+00 5.00000E-01
 -1      2774-7.88482E+00-7.83422E+00-5.00000E-01
 -1      2775-1.11094E-02 8.46320E+00 6.95000E-01
 -1      2776 1.11094E-02 8.46320E+00 5.00000E-01
 -1      2777 6.20182E+00-2.55685E+00 5.00000E-01
 -1      2778 6.19332E+00-2.57738E+00 6.95000E-01
 -1      2779 4.95320E+00-1.11094E-02 5.00000E-01
 -1      2780 4.95320E+00 1.11094E-02 6.95000E-01
 -1      2781 4.13079E+00 4.11507E+00 6.95000E-01
 -1      2782 4.13079E+00 4.11507E+00 5.00000E-01
 -1      2783 3.90517E+00-2.30066E+00-5.00000E-01
 -1      2784 4.58041E+00 1.88524E+00 5.00000E-01
 -1      2785 4.57191E+00 1.90577E+00 6.95000E-01
 -1      2786-2.65330E+00 2.65330E+00 6.95000E-01
 -1      2787-2.87390E+00 2.87390E+00 5.00000E-01
 -1      2788-2.55590E+00 2.57947E+00 5.00000E-01
 -1      2789-2.33806E+00 2.57671E+00 6.95000E-01
 -1      2790-2.97038E+00 2.87512E+00 6.95000E-01
 -1      2791-2.55856E+00 2.35621E+00 6.95000E-01
 -1      2792-2.86617E+00 2.56330E+00 5.00000E-01
 -1      2793-2.57580E+00 2.26574E+00 5.00000E-01
 -1      2794-2.32817E+00 2.66014E+00 5.00000E-01
 -1      2795-2.68894E+00 2.93990E+00 6.95000E-01
 -1      2796-2.92560E+00 2.60160E+00 6.95000E-01
 -1      2797-3.19618E+00 2.87798E+00 5.00000E-01
 -1      2798-2.52383E+00 2.85072E+00 5.00000E-01
 -1      2799-2.45640E+00 2.77667E+00 6.95000E-01
 -1      2800-3.24049E+00 2.92229E+00 6.95000E-01
 -1      2801-2.68916E+00 3.00883E+00 5.00000E-01
 -1      2802-2.72162E+00 1.95139E+00-5.00000E-01
 -1      2803-3.76438E+00-9.74334E+00-5.00000E-01
 -1      2804-4.58041E+00 1.88524E+00 5.00000E-01
 -1      2805-4.57191E+00 1.90577E+00 6.95000E-01
 -1      2806-9.28301E+00 6.73594E-02 5.00000E-01
 -1      2807-9.28301E+00-6.73594E-02 6.95000E-01
 -1      2808-9.12132E+00 2.25000E-01 6.95000E-01
 -1      2809-9.38986E+00 1.82621E-01 6.95000E-01
 -1      2810-9.12132E+00-2.25000E-01 5.00000E-01
 -1      2811-8.79749E+00-4.62959E-01-5.00000E-01
 -1      2812-9.05866E+00 2.25000E-01 5.00000E-01
 -1      2813-9.38986E+00-1.82621E-01 5.00000E-01
 -1      2814-9.50290E+00 1.99771E-01 5.00000E-01
 -1      2815-9.06309E+00-1.99915E-01 6.95000E-01
 -1      2816-9.61672E+00 2.26074E-01 6.95000E-01
 -1      2817-9.50290E+00-1.99771E-01 6.95000E-01
 -1      2818-9.73451E+00 2.21730E-01 5.00000E-01
 -1      2819-9.61672E+00-2.26074E-01 5.00000E-01
 -1      2820-9.92552E+00 1.72753E-01 6.95000E-01
 -1      2821-9.73451E+00-2.21730E-01 6.95000E-01
 -1      2822-9.92552E+00-1.72753E-01 5.00000E-01
 -1      2823-9.96721E+00 9.09199E-02 5.00000E-01
 -1      2824-9.96721E+00-9.09199E-02 6.95000E-01
 -1      2825-8.46320E+00 1.11094E-02 5.00000E-01
 -1      2826-8.46320E+00-1.11094E-02 6.95000E-01
 -1      2827-1.12254E+01 0.00000E+00 5.00000E-01
 -1      2828-2.55685E+00-6.20182E+00 5.00000E-01
 -1      2829-2.57738E+00-6.19332E+00 6.95000E-01
 -1      2830 0.00000E+00 9.66407E+00 6.95000E-01
 -1      2831 0.00000E+00 9.35209E+00 5.00000E-01
 -1      2832 1.66641E-02 9.78515E+00 5.00000E-01
 -1      2833 1.68750E-01 9.94113E+00 6.95000E-01
 -1      2834-1.68750E-01 9.94113E+00 6.95000E-01
 -1      2835 6.73594E-02 9.28301E+00 6.95000E-01
 -1      2836-2.14164E-01 9.57718E+00 5.00000E-01
 -1      2837-2.19239E-01 9.99292E+00 5.00000E-01
 -1      2838 2.34737E-01 9.88914E+00 5.00000E-01
 -1      2839-1.77452E-01 9.43621E+00 6.95000E-01
 -1      2840 2.25000E-01 9.12132E+00 5.00000E-01
 -1      2841-2.38996E-01 9.66717E+00 6.95000E-01
 -1      2842-2.25149E-01 9.35230E+00 5.00000E-01
 -1      2843 2.25000E-01 9.01164E+00 6.95000E-01
 -1      2844-1.96733E-01 9.13321E+00 6.95000E-01
 -1      2845-1.12782E-01 9.12702E+00 5.00000E-01
 -1      2846 0.00000E+00 3.85632E+00 6.95000E-01
 -1      2847 0.00000E+00 4.06431E+00 5.00000E-01
 -1      2848-1.66641E-02 3.63125E+00 5.00000E-01
 -1      2849 2.14164E-01 3.83922E+00 5.00000E-01
 -1      2850-2.30410E-01 3.85632E+00 5.00000E-01
 -1      2851-1.18055E-01 4.18539E+00 6.95000E-01
 -1      2852-1.18055E-01 3.52726E+00 6.95000E-01
 -1      2853-1.38146E-02 3.84799E+00 5.00000E-01
 -1      2854-2.27777E-01 3.96032E+00 6.95000E-01
 -1      2855-2.34737E-01 3.52726E+00 5.00000E-01
 -1      2856 1.59963E-01 3.61323E+00 6.95000E-01
 -1      2857 1.59963E-01 4.09942E+00 6.95000E-01
 -1      2858-2.25000E-01 4.29507E+00 5.00000E-01
 -1      2859 2.25149E-01 4.06410E+00 5.00000E-01
 -1      2860 2.17036E-01 3.60394E+00 5.00000E-01
 -1      2861 2.25000E-01 3.83020E+00 6.95000E-01
 -1      2862-2.25000E-01 4.40946E+00 6.95000E-01
 -1      2863-2.25000E-01 4.52015E+00 5.00000E-01
 -1      2864-2.19445E-01 4.73952E+00 6.95000E-01
 -1      2865-1.07083E-01 4.73125E+00 5.00000E-01
 -1      2866-7.26805E-01 4.27346E+00-5.00000E-01
 -1      2867 3.16530E+00 7.71774E+00-5.00000E-01
 -1      2868-3.77380E+00-2.64127E+00-5.00000E-01
 -1      2869 1.90577E+00-4.57191E+00 5.00000E-01
 -1      2870 1.88524E+00-4.58041E+00 6.95000E-01
 -1      2871 2.57738E+00 6.19332E+00 5.00000E-01
 -1      2872 2.55685E+00 6.20182E+00 6.95000E-01
 -1      2873 6.70820E+00-1.11094E-02 6.95000E-01
 -1      2874 6.70820E+00 1.11094E-02 5.00000E-01
 -1      2875 1.03794E+01 3.64038E+00 5.00000E-01
 -1      2876 1.11094E-02 6.70820E+00 6.95000E-01
 -1      2877-1.11094E-02 6.70820E+00 5.00000E-01
 -1      2878 1.43595E+00 3.46671E+00 5.00000E-01
 -1      2879 1.55534E+00 3.75493E+00 6.95000E-01
 -1      2880 1.37423E+00 3.36122E+00 6.95000E-01
 -1      2881 1.48583E+00 3.14615E+00 5.00000E-01
 -1      2882 1.66707E+00 3.46502E+00 6.95000E-01
 -1      2883 1.51266E+00 3.07899E+00 6.95000E-01
 -1      2884 1.17402E+00 3.27531E+00 5.00000E-01
 -1      2885 1.13296E+00 3.34860E+00 6.95000E-01
 -1      2886 1.64401E+00 3.79298E+00 5.00000E-01
 -1      2887 1.35920E+00 3.74512E+00 5.00000E-01
 -1      2888 1.24079E+00 3.59955E+00 6.95000E-01
 -1      2889 1.73742E+00 3.57312E+00 5.00000E-01
 -1      2890 1.33303E+00 3.80889E+00 6.95000E-01
 -1      2891 1.20684E+00 3.50533E+00 5.00000E-01
 -1      2892 1.85152E+00 3.88203E+00 6.95000E-01
 -1      2893 1.64414E+00 3.35715E+00 5.00000E-01
 -1      2894 1.76327E+00 3.66858E+00 6.95000E-01
 -1      2895 1.87550E+00 3.93993E+00 5.00000E-01
 -1      2896-3.69828E+00 8.92844E+00 6.95000E-01
 -1      2897-3.57889E+00 8.64021E+00 5.00000E-01
 -1      2898-3.49022E+00 8.60216E+00 6.95000E-01
 -1      2899-3.72922E+00 9.04668E+00 5.00000E-01
 -1      2900-3.96021E+00 9.11983E+00 6.95000E-01
 -1      2901-3.77503E+00 8.65002E+00 6.95000E-01
 -1      2902-3.64840E+00 9.24899E+00 6.95000E-01
 -1      2903-3.86289E+00 8.76621E+00 5.00000E-01
 -1      2904-3.92027E+00 8.83984E+00 6.95000E-01
 -1      2905-3.78698E+00 8.55424E+00 5.00000E-01
 -1      2906-3.67688E+00 8.36270E+00 6.95000E-01
 -1      2907-3.28271E+00 8.51312E+00 5.00000E-01
 -1      2908-4.00497E+00 9.09772E+00 5.00000E-01
 -1      2909-3.59696E+00 8.38911E+00 5.00000E-01
 -1      2910-3.56754E+00 9.22621E+00 5.00000E-01
 -1      2911-3.25873E+00 8.45522E+00 6.95000E-01
 -1      2912 1.15628E+00 8.76932E+00-5.00000E-01
 -1      2913-3.85632E+00 0.00000E+00 6.95000E-01
 -1      2914-4.06431E+00 0.00000E+00 5.00000E-01
 -1      2915-3.63125E+00 1.66641E-02 5.00000E-01
 -1      2916-3.85632E+00 2.30410E-01 5.00000E-01
 -1      2917-4.18539E+00-1.18055E-01 6.95000E-01
 -1      2918-3.85632E+00-2.30410E-01 5.00000E-01
 -1      2919-3.96032E+00-2.27777E-01 6.95000E-01
 -1      2920-4.09942E+00 1.59963E-01 6.95000E-01
 -1      2921-3.84799E+00 1.38146E-02 5.00000E-01
 -1      2922-4.08162E+00 2.24706E-01 5.00000E-01
 -1      2923-3.52726E+00-1.18055E-01 6.95000E-01
 -1      2924-3.45244E+00 1.91011E-01 6.95000E-01
 -1      2925-3.88245E+00 2.25000E-01 6.95000E-01
 -1      2926-4.29507E+00-2.25000E-01 5.00000E-01
 -1      2927-3.64413E+00 7.38308E-02 6.95000E-01
 -1      2928-3.41072E+00 1.12500E-01 5.00000E-01
 -1      2929-3.47857E+00-2.18567E-01 5.00000E-01
 -1      2930-4.40946E+00-2.25000E-01 6.95000E-01
 -1      2931-4.52015E+00-2.25000E-01 5.00000E-01
 -1      2932-4.70306E+00-2.25000E-01 6.95000E-01
 -1      2933-4.79801E+00-2.19445E-01 5.00000E-01
 -1      2934-3.01168E+00-8.22285E-01-5.00000E-01
 -1      2935 4.75127E+00-4.73556E+00 5.00000E-01
 -1      2936 4.73556E+00-4.75127E+00 6.95000E-01
 -1      2937-1.11070E-01 1.11259E+01 5.00000E-01
 -1      2938 2.65330E+00-2.65330E+00 6.95000E-01
 -1      2939 2.87390E+00-2.87390E+00 5.00000E-01
 -1      2940 2.57947E+00-2.55590E+00 5.00000E-01
 -1      2941 2.97038E+00-2.87512E+00 6.95000E-01
 -1      2942 2.56330E+00-2.86617E+00 5.00000E-01
 -1      2943 2.33806E+00-2.57671E+00 6.95000E-01
 -1      2944 2.57671E+00-2.33806E+00 6.95000E-01
 -1      2945 2.68894E+00-2.93990E+00 6.95000E-01
 -1      2946 3.19618E+00-2.87798E+00 5.00000E-01
 -1      2947 3.24049E+00-2.92229E+00 6.95000E-01
 -1      2948 2.48211E+00-2.82010E+00 6.95000E-01
 -1      2949 2.66014E+00-2.32817E+00 5.00000E-01
 -1      2950 2.71455E+00-3.03296E+00 5.00000E-01
 -1      2951 2.30517E+00-2.61427E+00 5.00000E-01
 -1      2952 2.87791E+00-3.19103E+00 6.95000E-01
 -1      2953 2.91362E+00-3.23182E+00 5.00000E-01
 -1      2954 4.11507E+00-4.13079E+00 6.95000E-01
 -1      2955 4.13079E+00-4.11507E+00 5.00000E-01
 -1      2956 3.56278E+00-1.47575E+00 5.00000E-01
 -1      2957 3.37063E+00-1.39616E+00 6.95000E-01
 -1      2958 3.76435E+00-1.57727E+00 6.95000E-01
 -1      2959 3.30395E+00-1.24076E+00 5.00000E-01
 -1      2960 3.66054E+00-1.28443E+00 6.95000E-01
 -1      2961 3.55387E+00-1.22552E+00 5.00000E-01
 -1      2962 3.27698E+00-1.53051E+00 5.00000E-01
 -1      2963 3.45698E+00-1.18823E+00 6.95000E-01
 -1      2964 3.47461E+00-1.68862E+00 6.95000E-01
 -1      2965 3.26865E+00-1.59713E+00 6.95000E-01
 -1      2966 3.77935E+00-1.34276E+00 5.00000E-01
 -1      2967 3.82162E+00-1.71074E+00 5.00000E-01
 -1      2968 3.56995E+00-1.48136E+00 6.95000E-01
 -1      2969 3.87900E+00-1.37181E+00 6.95000E-01
 -1      2970 3.20585E+00-1.20583E+00 6.95000E-01
 -1      2971 3.45255E+00-1.67363E+00 5.00000E-01
 -1      2972 4.00665E+00-1.50307E+00 5.00000E-01
 -1      2973 3.99716E+00-1.57247E+00 6.95000E-01
 -1      2974 3.92520E+00-1.82777E+00 6.95000E-01
 -1      2975 3.98159E+00-1.89780E+00 5.00000E-01
 -1      2976-6.48882E+00-1.29071E+00 5.00000E-01
 -1      2977-6.31317E+00-1.16625E+00-5.00000E-01
 -1      2978 2.89266E+00-7.01253E+00 5.00000E-01
 -1      2979 2.91318E+00-7.00402E+00 6.95000E-01
 -1      2980 6.76000E+00 6.76000E+00 6.95000E-01
 -1      2981 6.90706E+00 6.90706E+00 5.00000E-01
 -1      2982 6.58906E+00 6.61263E+00 5.00000E-01
 -1      2983 6.92292E+00 6.59707E+00 5.00000E-01
 -1      2984 6.76249E+00 6.74426E+00 5.00000E-01
 -1      2985 6.90920E+00 7.07616E+00 6.95000E-01
 -1      2986 7.04500E+00 6.81878E+00 6.95000E-01
 -1      2987 6.44383E+00 6.61079E+00 6.95000E-01
 -1      2988 7.07820E+00 6.76042E+00 5.00000E-01
 -1      2989 6.93757E+00 6.61937E+00 6.95000E-01
 -1      2990 6.87179E+00 7.18407E+00 5.00000E-01
 -1      2991 6.28274E+00 6.60094E+00 5.00000E-01
 -1      2992 6.69334E+00 6.46334E+00 6.95000E-01
 -1      2993 6.20977E+00 6.52797E+00 6.95000E-01
 -1      2994 6.74839E+00 6.44179E+00 5.00000E-01
 -1      2995 3.96147E+00 5.83561E+00 5.00000E-01
 -1      2996-1.29071E+00 6.48883E+00 5.00000E-01
 -1      2997-4.27362E+00 8.27858E+00-5.00000E-01
 -1      2998-2.48797E+00-1.12500E-01 5.00000E-01
 -1      2999 9.65584E+00 4.45274E+00-5.00000E-01
 -1      3000-5.53116E+00 7.21322E+00 5.00000E-01
 -1      3001-4.06542E+00-8.16392E+00-5.00000E-01
 -1      3002 8.85104E+00 2.76549E+00-5.00000E-01
 -1      3003 6.33305E+00-1.64440E+00-5.00000E-01
 -1      3004 2.42987E+00 1.56233E+00-5.00000E-01
 -1      3005 5.93530E-01 3.92241E+00-5.00000E-01
 -1      3006-5.26747E+00-2.53550E-01-5.00000E-01
 -1      3007 9.95406E+00 4.24488E+00 5.00000E-01
 -1      3008-2.31092E-01-9.59617E+00-5.00000E-01
 -1      3009-1.11094E-02-8.46320E+00 6.95000E-01
 -1      3010 1.11094E-02-8.46320E+00 5.00000E-01
 -1      3011 4.89854E+00 4.89854E+00 5.00000E-01
 -1      3012 4.75147E+00 4.75147E+00 6.95000E-01
 -1      3013 5.03805E+00 5.06927E+00 6.95000E-01
 -1      3014 5.06146E+00 4.73561E+00 6.95000E-01
 -1      3015 4.58238E+00 4.74933E+00 5.00000E-01
 -1      3016 5.21263E+00 5.04175E+00 5.00000E-01
 -1      3017 5.34782E+00 5.04524E+00 6.95000E-01
 -1      3018 5.13098E+00 4.80477E+00 5.00000E-01
 -1      3019 5.04421E+00 5.30823E+00 5.00000E-01
 -1      3020 4.77038E+00 5.02253E+00 6.95000E-01
 -1      3021 4.93072E+00 4.89409E+00 6.95000E-01
 -1      3022 5.44730E+00 5.12538E+00 5.00000E-01
 -1      3023 4.84996E+00 5.14656E+00 5.00000E-01
 -1      3024 4.93145E+00 4.64512E+00 5.00000E-01
 -1      3025 4.89812E+00 4.58033E+00 6.95000E-01
 -1      3026 5.51475E+00 5.19633E+00 6.95000E-01
 -1      3027 5.65090E+00 5.33956E+00 5.00000E-01
 -1      3028 4.87565E+00 5.20946E+00 6.95000E-01
 -1      3029 4.65858E+00 4.98337E+00 5.00000E-01
 -1      3030 4.42919E+00 4.74739E+00 6.95000E-01
 -1      3031 5.71367E+00 5.39547E+00 6.95000E-01
 -1      3032 4.34831E+00 4.66651E+00 5.00000E-01
 -1      3033 5.09267E+00 5.35837E+00 6.95000E-01
 -1      3034 4.27004E+00 4.58824E+00 6.95000E-01
 -1      3035 4.14070E+00 4.45890E+00 5.00000E-01
 -1      3036 4.20041E+00 4.35166E+00 6.95000E-01
 -1      3037 4.27260E+00 4.28304E+00 5.00000E-01
 -1      3038 4.39627E+00 4.16548E+00 6.95000E-01
 -1      3039 4.37706E+00 4.05100E+00 5.00000E-01
 -1      3040-4.57398E+00-5.46937E-01-5.00000E-01
 -1      3041 9.56007E+00 0.00000E+00 5.00000E-01
 -1      3042 9.35209E+00 0.00000E+00 6.95000E-01
 -1      3043 9.78515E+00-1.66641E-02 6.95000E-01
 -1      3044 9.56007E+00-2.30410E-01 6.95000E-01
 -1      3045 9.56841E+00-1.38146E-02 6.95000E-01
 -1      3046 9.23101E+00 1.18055E-01 5.00000E-01
 -1      3047 9.88914E+00-1.18055E-01 5.00000E-01
 -1      3048 9.31698E+00-1.59963E-01 5.00000E-01
 -1      3049 9.53395E+00-2.25000E-01 5.00000E-01
 -1      3050 9.80317E+00 1.59963E-01 5.00000E-01
 -1      3051 9.12132E+00-2.25000E-01 6.95000E-01
 -1      3052 9.12132E+00 2.25000E-01 6.95000E-01
 -1      3053 9.67981E+00 2.15417E-01 6.95000E-01
 -1      3054 9.94651E+00-2.35491E-01 6.95000E-01
 -1      3055 9.34080E+00-2.19264E-01 6.95000E-01
 -1      3056 9.05357E+00-2.25000E-01 5.00000E-01
 -1      3057 9.00694E+00 2.25000E-01 5.00000E-01
 -1      3058 9.58620E+00 2.25000E-01 5.00000E-01
 -1      3059 9.95499E+00 1.87818E-01 6.95000E-01
 -1      3060 8.89625E+00 2.25000E-01 6.95000E-01
 -1      3061 1.00232E+01 1.12500E-01 5.00000E-01
 -1      3062 8.67688E+00 2.19445E-01 5.00000E-01
 -1      3063 8.68515E+00 1.07083E-01 6.95000E-01
 -1      3064-1.50255E+00 4.27926E+00-5.00000E-01
 -1      3065 0.00000E+00-3.85632E+00 6.95000E-01
 -1      3066 0.00000E+00-4.06431E+00 5.00000E-01
 -1      3067 2.30410E-01-3.85632E+00 5.00000E-01
 -1      3068-5.86943E-02-3.58815E+00 5.00000E-01
 -1      3069-2.24693E-01-3.85030E+00 5.00000E-01
 -1      3070 1.18055E-01-4.18539E+00 6.95000E-01
 -1      3071 1.18055E-01-3.52726E+00 6.95000E-01
 -1      3072 2.29660E-01-3.96601E+00 6.95000E-01
 -1      3073-1.59963E-01-3.61323E+00 6.95000E-01
 -1      3074 3.08627E-03-3.83610E+00 5.00000E-01
 -1      3075-1.59963E-01-4.09942E+00 6.95000E-01
 -1      3076 1.12500E-01-3.41452E+00 5.00000E-01
 -1      3077 2.34781E-01-3.73114E+00 6.95000E-01
 -1      3078 2.25000E-01-4.29507E+00 5.00000E-01
 -1      3079-2.25000E-01-3.83020E+00 6.95000E-01
 -1      3080-2.24862E-01-4.07544E+00 5.00000E-01
 -1      3081 1.64718E-01-3.63722E+00 5.00000E-01
 -1      3082 2.25000E-01-4.40946E+00 6.95000E-01
 -1      3083 2.25000E-01-4.52015E+00 5.00000E-01
 -1      3084 2.19445E-01-4.73952E+00 6.95000E-01
 -1      3085 1.07083E-01-4.73125E+00 5.00000E-01
 -1      3086 9.75356E+00 3.71640E+00-5.00000E-01
 -1      3087-2.55202E+00-9.29068E+00 5.00000E-01
 -1      3088-2.81683E-01-1.01229E+01-5.00000E-01
 -1      3089 6.86391E+00-6.52834E-01-5.00000E-01
 -1      3090-6.89905E+00 5.57227E+00-5.00000E-01
 -1      3091 3.63383E+00 9.22802E+00-5.00000E-01
 -1      3092 2.65330E+00 2.65330E+00 6.95000E-01
 -1      3093 2.87390E+00 2.87390E+00 5.00000E-01
 -1      3094 2.57947E+00 2.55590E+00 5.00000E-01
 -1      3095 2.87512E+00 2.97038E+00 6.95000E-01
 -1      3096 2.57671E+00 2.33806E+00 6.95000E-01
 -1      3097 2.87788E+00 3.18822E+00 5.00000E-01
 -1      3098 2.35621E+00 2.55856E+00 6.95000E-01
 -1      3099 2.33832E+00 2.49742E+00 5.00000E-01
 -1      3100 2.51129E+00 2.31059E+00 5.00000E-01
 -1      3101 2.56330E+00 2.86617E+00 5.00000E-01
 -1      3102 2.93990E+00 2.68894E+00 6.95000E-01
 -1      3103 2.60160E+00 2.92560E+00 6.95000E-01
 -1      3104 2.95554E+00 3.27374E+00 6.95000E-01
 -1      3105 2.88976E+00 2.56391E+00 5.00000E-01
 -1      3106 3.03300E+00 3.35120E+00 5.00000E-01
 -1      3107 3.04504E+00 2.72726E+00 5.00000E-01
 -1      3108 2.82010E+00 2.48211E+00 6.95000E-01
 -1      3109 3.19618E+00 3.50652E+00 6.95000E-01
 -1      3110 3.19618E+00 2.87798E+00 6.95000E-01
 -1      3111 3.26576E+00 3.42505E+00 5.00000E-01
 -1      3112 3.10070E+00 2.96540E+00 5.00000E-01
 -1      3113 6.18362E-01 2.08528E+00 5.00000E-01
 -1      3114 2.43917E+00 2.33338E+00-5.00000E-01
 -1      3115-1.04705E-01-4.06350E+00-5.00000E-01
 -1      3116 6.19332E+00 2.57738E+00 6.95000E-01
 -1      3117 6.20182E+00 2.55685E+00 5.00000E-01
 -1      3118-6.05124E-01 2.34282E+00 5.00000E-01
 -1      3119-6.20182E+00 2.55685E+00 5.00000E-01
 -1      3120-6.19332E+00 2.57738E+00 6.95000E-01
 -1      3121 3.04720E+00 2.17663E+00-5.00000E-01
 -1      3122 9.68661E+00 4.92307E+00 5.00000E-01
 -1      3123-3.59257E+00 8.14106E+00-5.00000E-01
 -1      3124 3.27165E+00-2.62185E+00-5.00000E-01
 -1      3125 1.46919E+00-7.12725E+00 5.00000E-01
 -1      3126 1.02137E+01-1.57329E-01-5.00000E-01
 -1      3127-8.83236E+00 3.65848E+00 6.95000E-01
 -1      3128-9.02451E+00 3.73807E+00 5.00000E-01
 -1      3129-8.63080E+00 3.55695E+00 5.00000E-01
 -1      3130-8.74419E+00 3.87135E+00 5.00000E-01
 -1      3131-8.92054E+00 3.44561E+00 5.00000E-01
 -1      3132-9.18155E+00 3.67534E+00 6.95000E-01
 -1      3133-9.01560E+00 3.48784E+00 6.95000E-01
 -1      3134-8.48317E+00 3.64162E+00 6.95000E-01
 -1      3135-8.99574E+00 3.89930E+00 6.95000E-01
 -1      3136-8.64912E+00 3.82912E+00 6.95000E-01
 -1      3137-8.82995E+00 3.64253E+00 5.00000E-01
 -1      3138-8.95452E+00 3.95230E+00 5.00000E-01
 -1      3139-8.66898E+00 3.41767E+00 6.95000E-01
 -1      3140-9.26693E+00 3.59948E+00 5.00000E-01
 -1      3141-8.50278E+00 3.27843E+00 5.00000E-01
 -1      3142-8.45051E+00 3.25678E+00 6.95000E-01
 -1      3143-8.72139E+00 3.36004E+00 5.00000E-01
 -1      3144-8.34090E+00 3.69845E+00 5.00000E-01
 -1      3145-8.23522E+00 3.65468E+00 6.95000E-01
 -1      3146-8.13296E+00 3.61232E+00 5.00000E-01
 -1      3147-7.93241E+00 3.52324E+00 6.95000E-01
 -1      3148-7.87946E+00 3.51333E+00 5.00000E-01
 -1      3149 2.12222E+00-6.23441E+00-5.00000E-01
 -1      3150-8.12561E-01 2.77777E+00-5.00000E-01
 -1      3151 9.45039E+00-1.22981E+00 5.00000E-01
 -1      3152-8.92844E+00-3.69828E+00 6.95000E-01
 -1      3153-8.64021E+00-3.57889E+00 5.00000E-01
 -1      3154-9.03393E+00-3.76001E+00 5.00000E-01
 -1      3155-9.24899E+00-3.64840E+00 6.95000E-01
 -1      3156-9.11983E+00-3.96021E+00 6.95000E-01
 -1      3157-8.60216E+00-3.49022E+00 6.95000E-01
 -1      3158-8.93013E+00-3.46717E+00 5.00000E-01
 -1      3159-9.27910E+00-3.72176E+00 5.00000E-01
 -1      3160-8.65002E+00-3.77503E+00 6.95000E-01
 -1      3161-8.51312E+00-3.28271E+00 5.00000E-01
 -1      3162-9.09926E+00-4.02393E+00 5.00000E-01
 -1      3163-8.74419E+00-3.87135E+00 5.00000E-01
 -1      3164-8.82203E+00-3.39682E+00 6.95000E-01
 -1      3165-8.72106E+00-3.36884E+00 5.00000E-01
 -1      3166-8.41178E+00-3.24073E+00 6.95000E-01
 -1      3167-9.03800E+00-3.49009E+00 6.95000E-01
 -1      3168-8.53822E+00-3.77986E+00 5.00000E-01
 -1      3169-8.83984E+00-3.92027E+00 6.95000E-01
 -1      3170-8.36270E+00-3.67688E+00 6.95000E-01
 -1      3171-8.28414E+00-3.67494E+00 5.00000E-01
 -1      3172-2.35925E+00-2.92556E+00-5.00000E-01
 -1      3173-5.55277E+00 2.50077E+00-5.00000E-01
 -1      3174-1.28998E+00 2.16839E+00 5.00000E-01
 -1      3175 6.62377E+00 6.35828E+00-5.00000E-01
 -1      3176-2.56898E+00-3.90042E+00-5.00000E-01
 -1      3177-3.48343E+00 5.70296E+00-5.00000E-01
 -1      3178 4.23480E+00 1.04590E+01 5.00000E-01
 -1      3179 4.19103E+00-1.71916E+00-5.00000E-01
 -1      3180 2.47626E+00 9.79695E+00 5.00000E-01
 -1      3181-2.62963E+00 9.61470E+00 5.00000E-01
 -1      3182-4.08100E+00 6.10765E+00 5.00000E-01
 -1      3183 4.58041E+00-1.88524E+00 5.00000E-01
 -1      3184 4.57191E+00-1.90577E+00 6.95000E-01
 -1      3185 5.33050E+00 5.04217E+00-5.00000E-01
 -1      3186 2.72505E+00 8.27056E+00-5.00000E-01
 -1      3187-9.66098E+00-3.40569E+00-5.00000E-01
 -1      3188 3.61817E+00-1.79856E+00-5.00000E-01
 -1      3189-7.12651E-01-2.30844E+00 5.00000E-01
 -1      3190 8.49185E+00-3.28113E+00-5.00000E-01
 -1      3191 7.22136E+00 6.53482E+00-5.00000E-01
 -1      3192 1.52205E+00-1.99935E+00 5.00000E-01
 -1      3193-6.60506E+00 7.18877E+00-5.00000E-01
 -1      3194-8.61120E-02-3.40351E+00-5.00000E-01
 -1      3195-5.83070E+00 1.11094E-02 6.95000E-01
 -1      3196-5.83070E+00-1.11094E-02 5.00000E-01
 -1      3197 4.82383E+00 8.35493E+00 5.00000E-01
 -1      3198-2.63648E+00 3.65817E-01-5.00000E-01
 -1      3199-3.92400E+00-1.42067E-01-5.00000E-01
 -1      3200 9.32312E+00-5.65966E-01-5.00000E-01
 -1      3201-2.47849E+00 9.13797E+00-5.00000E-01
 -1      3202-3.35762E+00-3.34358E-01-5.00000E-01
 -1      3203-6.90910E+00-7.06820E+00 5.00000E-01
 -1      3204-6.90910E+00-7.06820E+00 6.95000E-01
 -1      3205 6.67442E-01-2.69821E+00-5.00000E-01
 -1      3206 1.47575E+00-3.56278E+00 6.95000E-01
 -1      3207 1.39616E+00-3.37063E+00 5.00000E-01
 -1      3208 1.54649E+00-3.77710E+00 5.00000E-01
 -1      3209 1.68862E+00-3.47461E+00 5.00000E-01
 -1      3210 1.26288E+00-3.65096E+00 5.00000E-01
 -1      3211 1.24076E+00-3.30395E+00 6.95000E-01
 -1      3212 1.22552E+00-3.55387E+00 6.95000E-01
 -1      3213 1.71074E+00-3.82162E+00 6.95000E-01
 -1      3214 1.46618E+00-3.57577E+00 5.00000E-01
 -1      3215 1.42099E+00-3.84859E+00 6.95000E-01
 -1      3216 1.53051E+00-3.27698E+00 6.95000E-01
 -1      3217 1.67363E+00-3.45255E+00 6.95000E-01
 -1      3218 1.85152E+00-3.88203E+00 5.00000E-01
 -1      3219 1.44006E+00-4.06457E+00 5.00000E-01
 -1      3220 1.46171E+00-4.11684E+00 6.95000E-01
 -1      3221 1.34319E+00-3.85229E+00 5.00000E-01
 -1      3222 1.59713E+00-3.26865E+00 5.00000E-01
 -1      3223 1.12674E+00-3.29721E+00 5.00000E-01
 -1      3224 1.89530E+00-3.98771E+00 6.95000E-01
 -1      3225 1.93766E+00-4.08997E+00 5.00000E-01
 -1      3226 2.01648E+00-4.29477E+00 6.95000E-01
 -1      3227 1.90950E+00-4.33013E+00 5.00000E-01
 -1      3228 1.11616E+00-5.61132E+00 5.00000E-01
 -1      3229 1.12665E+00-5.44915E+00-5.00000E-01
 -1      3230-3.84795E+00 9.44025E+00-5.00000E-01
 -1      3231-8.44258E+00-4.94627E+00 5.00000E-01
 -1      3232-8.78419E+00-2.57741E+00-5.00000E-01
 -1      3233-9.83192E+00-4.76128E+00 5.00000E-01
 -1      3234 6.48947E+00 1.28185E+00-5.00000E-01
 -1      3235-2.47737E+00 6.53618E+00-5.00000E-01
 -1      3236-3.92329E+00-9.10238E+00-5.00000E-01
 -1      3237 8.83236E+00-3.65848E+00 6.95000E-01
 -1      3238 8.64021E+00-3.57889E+00 5.00000E-01
 -1      3239 9.03393E+00-3.76001E+00 5.00000E-01
 -1      3240 8.92054E+00-3.44561E+00 5.00000E-01
 -1      3241 8.74418E+00-3.87135E+00 5.00000E-01
 -1      3242 8.48317E+00-3.64162E+00 6.95000E-01
 -1      3243 9.18155E+00-3.67534E+00 6.95000E-01
 -1      3244 9.01560E+00-3.48784E+00 6.95000E-01
 -1      3245 8.66899E+00-3.41767E+00 6.95000E-01
 -1      3246 8.64912E+00-3.82913E+00 6.95000E-01
 -1      3247 8.34090E+00-3.69845E+00 5.00000E-01
 -1      3248 8.83478E+00-3.67444E+00 5.00000E-01
 -1      3249 8.51312E+00-3.28271E+00 5.00000E-01
 -1      3250 9.26501E+00-3.60112E+00 5.00000E-01
 -1      3251 9.13241E+00-3.98951E+00 6.95000E-01
 -1      3252 9.00015E+00-3.80790E+00 6.95000E-01
 -1      3253 8.23523E+00-3.65468E+00 6.95000E-01
 -1      3254 8.71369E+00-3.37200E+00 5.00000E-01
 -1      3255 8.45052E+00-3.25678E+00 6.95000E-01
 -1      3256 8.13296E+00-3.61232E+00 5.00000E-01
 -1      3257 9.04654E+00-4.00128E+00 5.00000E-01
 -1      3258 7.93242E+00-3.52324E+00 6.95000E-01
 -1      3259 7.98306E+00-3.42259E+00 5.00000E-01
 -1      3260 8.99366E+00-3.81316E+00-5.00000E-01
 -1      3261 7.44921E+00-2.43211E+00-5.00000E-01
 -1      3262-2.09918E+00 5.09800E+00-5.00000E-01
 -1      3263-3.67627E+00-3.29013E+00-5.00000E-01
 -1      3264 9.07851E+00 6.73523E-01-5.00000E-01
 -1      3265 5.42721E+00-3.15564E+00-5.00000E-01
 -1      3266-2.91054E+00-2.53752E+00-5.00000E-01
 -1      3267-1.33247E+00-2.23985E+00 5.00000E-01
 -1      3268-2.77552E+00-9.68299E+00-5.00000E-01
 -1      3269 9.09623E-01 5.44069E+00-5.00000E-01
 -1      3270-6.18802E+00 8.10757E+00 5.00000E-01
 -1      3271-2.75592E-01 8.97958E+00-5.00000E-01
 -1      3272 9.21883E+00 2.43884E+00 5.00000E-01
 -1      3273-3.31576E+00-2.80916E+00-5.00000E-01
 -1      3274 6.85221E-03 4.07840E+00-5.00000E-01
 -1      3275-4.44474E+00 1.20227E+00-5.00000E-01
 -1      3276-8.40507E+00-3.01455E+00-5.00000E-01
 -1      3277 6.11646E+00-8.02402E+00 5.00000E-01
 -1      3278 3.81663E+00 4.93475E+00-5.00000E-01
 -1      3279-9.24611E+00-3.80906E+00-5.00000E-01
 -1      3280-8.63998E+00-4.04922E+00-5.00000E-01
 -1      3281 5.50096E+00 3.67562E+00 5.00000E-01
 -1      3282 8.76979E+00 1.34747E+00-5.00000E-01
 -1      3283 1.09733E+01 6.26869E-01 5.00000E-01
 -1      3284-9.45237E+00-3.70754E-01-5.00000E-01
 -1      3285 1.30565E+00-3.16744E+00-5.00000E-01
 -1      3286-4.57191E+00-1.90577E+00 6.95000E-01
 -1      3287-4.58041E+00-1.88524E+00 5.00000E-01
 -1      3288 6.90736E+00-6.93093E+00 6.95000E-01
 -1      3289 6.93093E+00-6.90736E+00 5.00000E-01
 -1      3290 7.17590E+00-6.90367E+00-5.00000E-01
 -1      3291 1.23189E+00-4.49390E+00-5.00000E-01
 -1      3292-1.34233E+00 1.01641E+01-5.00000E-01
 -1      3293-1.55819E+00 9.13204E+00 5.00000E-01
 -1      3294 3.56278E+00 1.47575E+00 6.95000E-01
 -1      3295 3.37063E+00 1.39616E+00 5.00000E-01
 -1      3296 3.77710E+00 1.54649E+00 5.00000E-01
 -1      3297 3.47461E+00 1.68862E+00 5.00000E-01
 -1      3298 3.65096E+00 1.26288E+00 5.00000E-01
 -1      3299 3.30395E+00 1.24076E+00 6.95000E-01
 -1      3300 3.55387E+00 1.22552E+00 6.95000E-01
 -1      3301 3.82162E+00 1.71074E+00 6.95000E-01
 -1      3302 3.84859E+00 1.42099E+00 6.95000E-01
 -1      3303 3.57169E+00 1.72598E+00 6.95000E-01
 -1      3304 3.27698E+00 1.53051E+00 6.95000E-01
 -1      3305 3.56650E+00 1.49123E+00 5.00000E-01
 -1      3306 3.26865E+00 1.59713E+00 5.00000E-01
 -1      3307 3.85229E+00 1.34319E+00 5.00000E-01
 -1      3308 3.88203E+00 1.85152E+00 5.00000E-01
 -1      3309 3.29721E+00 1.12674E+00 5.00000E-01
 -1      3310 3.98771E+00 1.89530E+00 6.95000E-01
 -1      3311 4.08997E+00 1.93766E+00 5.00000E-01
 -1      3312 4.25895E+00 2.00765E+00 6.95000E-01
 -1      3313 4.34881E+00 2.03886E+00 5.00000E-01
 -1      3314 3.89905E+00-5.83535E+00 5.00000E-01
 -1      3315-2.91318E+00-7.00402E+00 6.95000E-01
 -1      3316-2.89266E+00-7.01253E+00 5.00000E-01
 -1      3317-8.57810E-01 8.17563E+00-5.00000E-01
 -1      3318-1.02963E+00-9.30311E+00-5.00000E-01
 -1      3319 5.46654E+00 5.67102E+00-5.00000E-01
 -1      3320 3.99855E+00 1.73542E+00-5.00000E-01
 -1      3321 3.77239E+00 1.05156E+00-5.00000E-01
 -1      3322 3.20855E+00 1.05632E+00-5.00000E-01
 -1      3323 8.79226E+00 1.09227E+00 5.00000E-01
 -1      3324 4.62129E-02-2.43091E+00 5.00000E-01
 -1      3325 8.98101E+00-3.32242E+00-5.00000E-01
 -1      3326 2.54889E+00-1.00299E-01 5.00000E-01
 -1      3327 4.78828E+00 1.88116E+00-5.00000E-01
 -1      3328-5.56598E+00 4.30801E+00-5.00000E-01
 -1      3329 2.94113E+00-1.22736E+00-5.00000E-01
 -1      3330 2.22120E+00 8.35918E+00 5.00000E-01
 -1      3331 9.33709E-01-1.08584E+01 5.00000E-01
 -1      3332 8.64175E-01-1.09093E+01-5.00000E-01
 -1      3333 3.72770E+00-4.40861E-01-5.00000E-01
 -1      3334 3.41000E+00 3.01496E-02-5.00000E-01
 -1      3335 2.02132E+00-1.41419E+00 5.00000E-01
 -1      3336 2.59134E+00 8.68076E+00 5.00000E-01
 -1      3337-1.12500E-01-1.10434E+01 5.00000E-01
 -1      3338 5.29777E-01-9.51644E+00-5.00000E-01
 -1      3339 1.16609E+00-9.45039E+00 5.00000E-01
 -1      3340 1.07504E-01-9.15702E+00-5.00000E-01
 -1      3341 1.19881E+00-8.99997E+00-5.00000E-01
 -1      3342 6.36567E-01-8.96320E+00-5.00000E-01
 -1      3343-3.88856E+00 1.00072E+01-5.00000E-01
 -1      3344 1.97604E-01-8.58398E+00-5.00000E-01
 -1      3345 9.62634E+00 2.88815E+00 5.00000E-01
 -1      3346 8.49137E+00 2.20215E+00 5.00000E-01
 -1      3347-3.24069E+00 4.85004E+00 5.00000E-01
 -1      3348-3.56278E+00 1.47575E+00 6.95000E-01
 -1      3349-3.37063E+00 1.39616E+00 5.00000E-01
 -1      3350-3.76435E+00 1.57727E+00 5.00000E-01
 -1      3351-3.65096E+00 1.26288E+00 5.00000E-01
 -1      3352-3.21359E+00 1.45889E+00 6.95000E-01
 -1      3353-3.47461E+00 1.68862E+00 5.00000E-01
 -1      3354-3.07871E+00 1.51277E+00 5.00000E-01
 -1      3355-3.56520E+00 1.49170E+00 5.00000E-01
 -1      3356-3.39941E+00 1.23494E+00 6.95000E-01
 -1      3357-3.91197E+00 1.49261E+00 6.95000E-01
 -1      3358-3.86283E+00 1.80678E+00 6.95000E-01
 -1      3359-3.37954E+00 1.64639E+00 6.95000E-01
 -1      3360-3.62475E+00 1.25788E+00 6.95000E-01
 -1      3361-4.04658E+00 1.43884E+00 5.00000E-01
 -1      3362-3.44062E+00 1.18193E+00 5.00000E-01
 -1      3363-4.15736E+00 1.47345E+00 6.95000E-01
 -1      3364-4.25658E+00 1.51959E+00 5.00000E-01
 -1      3365-3.62278E+00 1.72287E+00 6.95000E-01
 -1      3366-3.67376E+00 1.77419E+00 5.00000E-01
 -1      3367-4.41935E+00 1.58702E+00 6.95000E-01
 -1      3368-4.51218E+00 1.61945E+00 5.00000E-01
 -1      3369-3.93373E+00 1.87294E+00 5.00000E-01
 -1      3370-3.92415E+00-5.87292E+00 5.00000E-01
 -1      3371 3.23284E+00-3.76455E+00-5.00000E-01
 -1      3372 3.35409E+00-8.53782E-01-5.00000E-01
 -1      3373 4.24438E+00 7.28370E+00 5.00000E-01
 -1      3374-8.49343E+00 3.16477E+00-5.00000E-01
 -1      3375 9.26502E+00 4.02622E+00-5.00000E-01
 -1      3376-3.32378E+00-7.65814E+00-5.00000E-01
 -1      3377 6.67459E+00-3.92224E+00-5.00000E-01
 -1      3378-3.11333E+00 8.76939E-01-5.00000E-01
 -1      3379-4.09867E+00 1.92306E+00-5.00000E-01
 -1      3380-4.08013E+00-1.73580E+00-5.00000E-01
 -1      3381-7.59400E+00 8.07130E+00 5.00000E-01
 -1      3382 4.04269E+00 4.36450E+00-5.00000E-01
 -1      3383-9.10868E+00 3.45320E+00-5.00000E-01
 -1      3384-3.43987E+00-1.31814E+00-5.00000E-01
 -1      3385-2.38953E+00 2.43699E+00-5.00000E-01
 -1      3386 1.01829E+01 7.42457E-01-5.00000E-01
 -1      3387-3.95965E+00 5.06415E-01-5.00000E-01
 -1      3388-2.81545E+00 3.69514E+00-5.00000E-01
 -1      3389 7.65740E-01-7.32213E+00-5.00000E-01
 -1      3390-3.24899E+00 7.81473E+00 5.00000E-01
 -1      3391-3.22846E+00 7.82323E+00 6.95000E-01
 -1      3392-5.49669E+00-3.02914E+00-5.00000E-01
 -1      3393-6.08224E+00-6.40986E+00-5.00000E-01
 -1      3394-3.89539E+00 1.06822E+00-5.00000E-01
 -1      3395-3.28760E+00-9.42395E+00-5.00000E-01
 -1      3396-7.95001E+00 7.47271E+00 5.00000E-01
 -1      3397-7.49878E+00 7.60950E+00 5.00000E-01
 -1      3398 1.29071E+00 6.48883E+00 5.00000E-01
 -1      3399 2.88612E+00 4.86662E+00-5.00000E-01
 -1      3400-7.96756E-01 3.39569E+00-5.00000E-01
 -1      3401-5.83397E+00-3.89813E+00 5.00000E-01
 -1      3402 1.85100E+00-7.17633E+00-5.00000E-01
 -1      3403 7.96200E+00 6.17848E+00 5.00000E-01
 -1      3404 1.01618E+01-4.46896E+00 5.00000E-01
 -1      3405 2.12110E+00-1.88974E+00-5.00000E-01
 -1      3406-5.50096E+00 3.67562E+00 5.00000E-01
 -1      3407-3.01171E+00 4.43657E+00-5.00000E-01
 -1      3408 9.59469E+00-2.67795E+00 5.00000E-01
 -1      3409 7.00403E+00 2.91318E+00 5.00000E-01
 -1      3410 7.01253E+00 2.89266E+00 6.95000E-01
 -1      3411-8.14690E+00-3.61716E+00-5.00000E-01
 -1      3412 1.07964E+01 7.17555E-02 5.00000E-01
 -1      3413-3.45955E+00-8.25568E+00-5.00000E-01
 -1      3414-8.46428E+00-2.25409E+00 5.00000E-01
 -1      3415-2.54593E+00-8.71052E+00-5.00000E-01
 -1      3416-4.73964E+00-7.74911E+00 5.00000E-01
 -1      3417-2.98882E+00-8.45515E+00-5.00000E-01
 -1      3418 3.63603E+00 2.64169E+00-5.00000E-01
 -1      3419 4.21491E+00-1.32983E-01-5.00000E-01
 -1      3420 9.76541E+00-3.98934E+00-5.00000E-01
 -1      3421 4.35885E+00-8.12529E+00-5.00000E-01
 -1      3422-3.26567E-01 9.70361E+00-5.00000E-01
 -1      3423-5.90711E+00 6.43398E+00-5.00000E-01
 -1      3424-3.75510E+00-8.64416E+00-5.00000E-01
 -1      3425-5.35987E+00 6.85452E+00-5.00000E-01
 -1      3426-5.12901E+00-3.42709E+00 5.00000E-01
 -1      3427 3.73418E+00 2.49510E+00 5.00000E-01
 -1      3428-9.09655E+00-4.31656E+00-5.00000E-01
 -1      3429 7.36898E+00 1.08942E+00-5.00000E-01
 -1      3430-2.01109E+00-1.69289E+00 5.00000E-01
 -1      3431-1.52272E+00-1.61721E+00-5.00000E-01
 -1      3432 1.06014E+01-1.37443E+00 5.00000E-01
 -1      3433 1.00548E+01-1.07212E+00 5.00000E-01
 -1      3434-9.19829E+00 4.14240E+00-5.00000E-01
 -1      3435 1.24961E+00-2.48211E+00-5.00000E-01
 -1      3436-7.84583E+00 2.02967E+00-5.00000E-01
 -1      3437-4.40476E+00 8.76162E-01 5.00000E-01
 -1      3438-6.29864E+00 6.77202E+00-5.00000E-01
 -1      3439-9.66976E+00 1.33556E+00 5.00000E-01
 -1      3440 8.29016E-01-3.14709E+00-5.00000E-01
 -1      3441-6.36590E+00 5.96032E+00-5.00000E-01
 -1      3442 8.07708E+00-3.88350E+00-5.00000E-01
 -1      3443 8.58302E+00-4.63700E-01-5.00000E-01
 -1      3444 9.45039E+00 1.05246E+00 5.00000E-01
 -1      3445-2.39956E+00-1.11570E+00 5.00000E-01
 -1      3446 7.94894E+00-2.88314E+00-5.00000E-01
 -1      3447-5.13555E-01 4.92289E+00-5.00000E-01
 -1      3448-9.18272E+00-2.52602E+00 5.00000E-01
 -1      3449-2.50401E+00 5.50733E+00-5.00000E-01
 -1      3450 2.50930E+00-3.76757E+00-5.00000E-01
 -1      3451 1.43905E+00 4.35307E+00-5.00000E-01
 -1      3452-4.43492E+00-1.18907E+00-5.00000E-01
 -1      3453-1.35457E+00 2.96331E+00-5.00000E-01
 -1      3454-6.34208E+00 7.94698E+00-5.00000E-01
 -1      3455-6.51350E+00 7.78210E+00 5.00000E-01
 -1      3456-1.96090E+00 7.51720E+00 5.00000E-01
 -1      3457-7.86643E+00 3.64394E+00-5.00000E-01
 -1      3458 3.89911E+00 7.78464E+00-5.00000E-01
 -1      3459 2.45092E+00-1.13697E+00 5.00000E-01
 -1      3460 4.18853E+00 1.00805E+01-5.00000E-01
 -1      3461-4.09045E+00 8.90572E+00-5.00000E-01
 -1      3462-2.29592E+00 7.74680E+00-5.00000E-01
 -1      3463-2.68582E+00 7.25934E+00-5.00000E-01
 -1      3464 9.07638E+00 4.90564E+00 5.00000E-01
 -1      3465-7.51073E+00 6.76836E+00-5.00000E-01
 -1      3466 2.16182E+00 3.53128E+00-5.00000E-01
 -1      3467 9.38156E+00-4.78543E+00-5.00000E-01
 -1      3468-2.10609E+00 3.62523E+00-5.00000E-01
 -1      3469-8.68258E+00-1.15663E+00 5.00000E-01
 -1      3470-2.23559E+00 1.49377E+00 5.00000E-01
 -1      3471-3.59689E+00 5.52158E+00 5.00000E-01
 -1      3472-1.37798E+00-6.92758E+00 5.00000E-01
 -1      3473 2.08948E+00-4.48553E+00-5.00000E-01
 -1      3474 7.26837E+00 2.97400E+00-5.00000E-01
 -1      3475 7.41327E+00 5.95159E+00 5.00000E-01
 -1      3476 7.25485E+00 1.98419E+00-5.00000E-01
 -1      3477-2.71573E+00 9.73045E+00-5.00000E-01
 -1      3478 4.15704E+00 8.48032E+00-5.00000E-01
 -1      3479 9.29879E+00-4.25494E+00-5.00000E-01
 -1      3480 3.58197E+00 2.08343E+00-5.00000E-01
 -1      3481-3.07099E+00 9.24445E+00-5.00000E-01
 -1      3482-8.62338E+00 5.04086E+00 5.00000E-01
 -1      3483-9.64775E+00 2.99805E+00-5.00000E-01
 -1      3484-1.28154E+00 2.29223E+00-5.00000E-01
 -1      3485-7.02896E+00 6.91624E+00-5.00000E-01
 -1      3486-2.55571E+00-6.23964E-01 5.00000E-01
 -1      3487-7.95718E+00 6.03791E+00 5.00000E-01
 -1      3488 1.16523E+00 3.84533E+00-5.00000E-01
 -1      3489-1.00308E+00 9.23101E+00 5.00000E-01
 -1      3490-2.56826E+00 5.03893E+00-5.00000E-01
 -1      3491-7.07804E+00-4.09611E+00-5.00000E-01
 -1      3492-5.46270E-01-1.07876E+01-5.00000E-01
 -1      3493-3.25141E+00-3.86450E+00-5.00000E-01
 -1      3494 2.29204E+00-8.79860E+00 5.00000E-01
 -1      3495-3.57647E+00 2.92258E+00-5.00000E-01
 -1      3496-4.42177E+00-9.80593E+00-5.00000E-01
 -1      3497-1.06442E+01-1.31996E+00 5.00000E-01
 -1      3498-1.07077E+01-1.33239E+00-5.00000E-01
 -1      3499-9.40616E+00-1.17076E+00 5.00000E-01
 -1      3500-1.00438E+01-1.09100E+00 5.00000E-01
 -1      3501-9.88686E+00 6.90266E-01-5.00000E-01
 -1      3502-1.06586E+01 4.12777E-01-5.00000E-01
 -1      3503-5.16812E+00 8.85249E+00 5.00000E-01
 -1      3504 5.03997E-01 1.02121E+01-5.00000E-01
 -1      3505 9.64514E-01 1.01085E+01 5.00000E-01
 -1      3506 3.91163E-01-2.73927E+00 5.00000E-01
 -1      3507 2.92215E-01 8.86645E+00-5.00000E-01
 -1      3508-2.90794E+00 4.35204E+00 5.00000E-01
 -1      3509-9.68026E+00-4.37500E+00 5.00000E-01
 -1      3510 3.81108E+00 1.00827E+01 5.00000E-01
 -1      3511 4.77871E+00 5.15553E+00-5.00000E-01
 -1      3512-3.65303E+00-2.40438E+00 5.00000E-01
 -1      3513 1.88157E+00-3.17631E+00-5.00000E-01
 -1      3514 2.94797E+00 3.57279E+00-5.00000E-01
 -1      3515 2.85588E+00 9.27941E+00-5.00000E-01
 -1      3516 6.53444E+00 8.02471E+00-5.00000E-01
 -1      3517 7.23681E+00 7.82528E+00-5.00000E-01
 -1      3518-7.01608E+00-7.96747E+00-5.00000E-01
 -1      3519 1.14679E+00 9.23101E+00 5.00000E-01
 -1      3520-7.24815E+00-7.36897E+00-5.00000E-01
 -1      3521 9.21345E+00 5.14746E+00-5.00000E-01
 -1      3522 4.09077E+00 9.53739E+00-5.00000E-01
 -1      3523-7.70299E-01-6.53422E+00-5.00000E-01
 -1      3524-4.20981E+00-9.86941E+00 5.00000E-01
 -1      3525 9.67842E+00-8.66704E-01 5.00000E-01
 -1      3526-2.83736E+00-3.32087E-01-5.00000E-01
 -1      3527-7.70050E+00 7.22320E+00 5.00000E-01
 -1      3528-2.87388E+00-1.37409E+00-5.00000E-01
 -1      3529 2.52325E+00-2.61067E+00-5.00000E-01
 -1      3530 9.01646E+00-5.61003E-02-5.00000E-01
 -1      3531 5.87179E+00 7.64820E+00 5.00000E-01
 -1      3532 6.13023E+00 6.76933E+00-5.00000E-01
 -1      3533-2.91007E+00-4.39337E+00 5.00000E-01
 -1      3534-1.03183E+01 3.60748E+00 5.00000E-01
 -1      3535-2.64020E+00-3.97557E+00 5.00000E-01
 -1      3536 4.19652E+00 5.48592E+00-5.00000E-01
 -1      3537 5.93932E+00 4.32312E+00 5.00000E-01
 -1      3538 4.53842E+00 6.01966E+00 5.00000E-01
 -1      3539 4.85853E+00 4.01758E+00-5.00000E-01
 -1      3540 3.91183E+00 3.78861E+00-5.00000E-01
 -1      3541-3.85819E-01-2.69561E+00 5.00000E-01
 -1      3542-9.66976E+00 8.85988E-01 5.00000E-01
 -1      3543 1.01655E+01-3.82490E+00 5.00000E-01
 -1      3544 9.96220E+00 3.79874E+00 5.00000E-01
 -1      3545 4.35105E+00 3.99162E+00-5.00000E-01
 -1      3546 2.93003E+00 4.38510E+00 5.00000E-01
 -1      3547 2.64139E+00 3.97874E+00 5.00000E-01
 -1      3548 1.46896E+00 1.94626E+00 5.00000E-01
 -1      3549-9.93918E+00 3.99518E+00 5.00000E-01
 -1      3550-3.37500E-01-1.06538E+01 5.00000E-01
 -1      3551 1.65807E+00-4.22200E+00-5.00000E-01
 -1      3552-1.78313E+00-2.87938E+00-5.00000E-01
 -1      3553 2.99281E+00 8.74874E+00-5.00000E-01
 -1      3554 7.89763E-01 9.23101E+00 5.00000E-01
 -1      3555 6.20021E-01-4.21189E+00-5.00000E-01
 -1      3556-4.40476E+00-8.76162E-01 5.00000E-01
 -1      3557-7.40571E+00-7.88302E+00 5.00000E-01
 -1      3558-2.96383E+00-9.47627E+00 5.00000E-01
 -1      3559-8.32738E+00 6.58972E+00-5.00000E-01
 -1      3560 2.69948E+00-3.99516E+00 5.00000E-01
 -1      3561 1.14229E+00-3.88351E+00-5.00000E-01
 -1      3562 7.08202E+00 1.40870E+00 5.00000E-01
 -1      3563 8.07581E+00-4.73283E+00 5.00000E-01
 -1      3564 7.51056E+00-4.26993E+00 5.00000E-01
 -1      3565 7.44400E+00-4.05655E+00-5.00000E-01
 -1      3566 5.01801E+00-9.72014E+00-5.00000E-01
 -1      3567-9.63434E-01 4.84351E+00 5.00000E-01
 -1      3568-6.20029E+00 3.73508E+00-5.00000E-01
 -1      3569 3.48435E+00 5.21655E+00 5.00000E-01
 -1      3570 7.97454E+00-4.27993E+00 5.00000E-01
 -1      3571 3.99103E+00-9.88915E+00-5.00000E-01
 -1      3572 2.39058E+00 7.54559E-01 5.00000E-01
 -1      3573-1.19989E+00 7.35475E+00 5.00000E-01
 -1      3574-3.48916E+00-5.22190E+00 5.00000E-01
 -1      3575-1.41340E+00-8.97303E+00 5.00000E-01
 -1      3576-4.23476E+00 9.92965E+00 5.00000E-01
 -1      3577-3.89555E-01-2.81725E+00-5.00000E-01
 -1      3578-2.49510E+00 3.73418E+00 5.00000E-01
 -1      3579-8.57567E+00 6.79728E+00 5.00000E-01
 -1      3580-4.61032E+00-3.17017E+00 5.00000E-01
 -1      3581-3.03623E+00-1.02957E+01 5.00000E-01
 -1      3582-7.88822E+00 7.35160E+00-5.00000E-01
 -1      3583 7.54085E+00 7.69995E+00 5.00000E-01
 -1      3584-7.88889E-01-3.96601E+00 5.00000E-01
 -1      3585 3.72922E+00-9.04668E+00 6.95000E-01
 -1      3586 3.88616E+00-9.08806E+00 5.00000E-01
 -1      3587 3.56981E+00-8.97578E+00 5.00000E-01
 -1      3588 4.00497E+00-9.09772E+00 6.95000E-01
 -1      3589 3.44561E+00-8.92054E+00 6.95000E-01
 -1      3590 3.40049E+00-8.80329E+00 5.00000E-01
 -1      3591 3.36466E+00-8.71021E+00 6.95000E-01
 -1      3592 3.28130E+00-8.51370E+00 5.00000E-01
 -1      3593 3.40437E+00-8.46889E+00 6.95000E-01
 -1      3594 3.49136E+00-8.43285E+00 5.00000E-01
 -1      3595 3.69845E+00-8.34090E+00 6.95000E-01
 -1      3596 3.74059E+00-8.44981E+00 5.00000E-01
 -1      3597 3.65000E+00-8.22393E+00 5.00000E-01
 -1      3598 3.78458E+00-8.54884E+00 6.95000E-01
 -1      3599 3.61232E+00-8.13296E+00 6.95000E-01
 -1      3600 3.53327E+00-7.93443E+00 5.00000E-01
 -1      3601 3.85846E+00-8.77773E+00 5.00000E-01
 -1      3602 3.42259E+00-7.98306E+00 6.95000E-01
 -1      3603 3.88239E+00-8.81172E+00 6.95000E-01
 -1      3604 3.33000E+00-8.01825E+00 5.00000E-01
 -1      3605 3.15393E+00-8.08645E+00 6.95000E-01
 -1      3606 3.15349E+00-8.20117E+00 5.00000E-01
 -1      3607 3.82266E+00-8.45838E+00-5.00000E-01
 -1      3608 2.98847E+00-5.85243E+00-5.00000E-01
 -1      3609 8.80962E+00-4.96944E+00 5.00000E-01
 -1      3610 1.77875E+00-2.25605E+00 5.00000E-01
 -1      3611 4.84819E+00-8.37130E+00 5.00000E-01
 -1      3612 2.70336E+00-5.64121E-01 5.00000E-01
 -1      3613-1.00812E+01-3.81048E+00 5.00000E-01
 -1      3614 9.63795E+00 4.51205E+00 5.00000E-01
 -1      3615 4.85824E+00-1.00650E+01 5.00000E-01
 -1      3616 1.27358E+00-2.41288E+00 5.00000E-01
 -1      3617-9.01164E+00-8.71421E-01 5.00000E-01
 -1      3618 6.44580E+00 8.15314E+00 5.00000E-01
 -1      3619 4.05315E+00-7.57303E+00-5.00000E-01
 -1      3620 3.45194E+00-9.48266E+00-5.00000E-01
 -1      3621 4.33054E+00-7.34743E+00 5.00000E-01
 -1      3622-1.73290E-02-2.81212E+00 5.00000E-01
 -1      3623 3.79393E-01-1.07744E+01 5.00000E-01
 -1      3624-3.06460E+00 1.06393E+01 5.00000E-01
 -1      3625-3.05100E+00 1.09615E+01-5.00000E-01
 -1      3626 8.23013E+00 2.36082E+00-5.00000E-01
 -1      3627 7.97214E+00 2.29573E+00 5.00000E-01
 -1      3628-5.55254E+00-7.40986E+00 5.00000E-01
 -1      3629-8.77655E-01 4.41227E+00 5.00000E-01
 -1      3630 4.41762E+00-9.78316E+00 5.00000E-01
 -1      3631 7.88889E-01-3.96601E+00 5.00000E-01
 -1      3632 2.70721E+00 3.71109E-01 5.00000E-01
 -1      3633-1.77327E+00-2.09229E+00 5.00000E-01
 -1      3634 1.02237E+01 1.24755E+00 5.00000E-01
 -1      3635 2.02446E+00-1.87097E+00 5.00000E-01
 -1      3636 9.89787E+00 9.08955E-01 5.00000E-01
 -1      3637-3.17382E+00 5.31575E+00 5.00000E-01
 -1      3638-3.29355E+00 5.77795E+00 5.00000E-01
 -1      3639-2.60779E+00 4.65836E-01 5.00000E-01
 -1      3640 2.13227E+00-8.91712E+00-5.00000E-01
 -1      3641 4.35160E+00 5.60897E+00 5.00000E-01
 -1      3642 1.06203E+01 4.33607E-01 5.00000E-01
 -1      3643-9.21428E+00-2.98370E+00-5.00000E-01
 -1      3644-8.65915E+00-2.64352E+00 5.00000E-01
 -1      3645 1.57677E+00 2.35982E+00 5.00000E-01
 -1      3646 3.61343E+00-8.96188E+00-5.00000E-01
 -1      3647 9.71619E+00-4.38988E+00 5.00000E-01
 -1      3648 6.35794E+00 7.67429E+00 5.00000E-01
 -1      3649 5.87142E+00 4.58742E+00-5.00000E-01
 -1      3650 1.12500E-01-1.05490E+01 5.00000E-01
 -1      3651 2.76187E+00 7.38701E-01 5.00000E-01
 -1      3652 3.36223E+00-2.24656E+00 5.00000E-01
 -1      3653 3.73418E+00-2.49510E+00 5.00000E-01
 -1      3654-4.79263E+00-9.67026E+00 5.00000E-01
 -1      3655 5.05866E+00-8.83291E+00-5.00000E-01
 -1      3656 5.51932E+00 7.08961E+00 5.00000E-01
 -1      3657 1.96635E+00 1.84957E+00 5.00000E-01
 -1      3658-9.62659E+00 2.60092E+00 5.00000E-01
 -1      3659 6.21111E+00 4.82694E+00 5.00000E-01
 -1      3660-2.85199E+00-1.12500E-01 5.00000E-01
 -1      3661 9.81987E+00-4.01117E+00 5.00000E-01
 -1      3662 2.60442E+00-8.55521E+00-5.00000E-01
 -1      3663 2.39762E+00 3.63190E+00 5.00000E-01
 -1      3664 3.52049E+00 3.27610E+00-5.00000E-01
 -1      3665-3.64682E+00 1.02797E+01 5.00000E-01
 -1      3666 1.00585E+00-5.05677E+00 5.00000E-01
 -1      3667 8.76162E-01-4.40476E+00 5.00000E-01
 -1      3668 5.94722E+00 7.21011E+00 5.00000E-01
 -1      3669 8.54159E+00-4.54448E+00 5.00000E-01
 -1      3670 9.02138E+00-4.63527E+00 5.00000E-01
 -1      3671 4.80953E+00-8.94920E+00 5.00000E-01
 -1      3672 3.34858E+00 4.70656E+00 5.00000E-01
 -1      3673 2.62935E+00-9.45869E+00 5.00000E-01
 -1      3674 8.28224E+00 2.52905E+00 5.00000E-01
 -1      3675 4.41795E+00-7.94603E+00 5.00000E-01
 -1      3676-3.06313E+00 1.00353E+01 5.00000E-01
 -1      3677-1.00449E+01 3.05442E+00 5.00000E-01
 -1      3678-9.46482E+00 2.99148E+00 5.00000E-01
 -1      3679 2.72468E+00-8.99375E+00 5.00000E-01
 -1      3680 9.53328E+00-5.21903E+00 5.00000E-01
 -1      3681 4.51919E+00-8.63954E+00 5.00000E-01
 -1      3682-2.70093E+00 2.83102E+00 1.01392E-02
 -1      3683-1.39249E+00 3.70143E+00 7.31308E-04
 -1      3684-2.99027E+00-1.99803E+00 1.65610E-02
 -1      3685 8.45114E+00 3.13827E+00-2.50269E-02
 -1      3686 2.12011E+00 2.27921E+00-4.22185E-02
 -1      3687-3.66721E+00 8.50017E+00-5.86287E-02
 -1      3688 2.63743E+00 2.40766E+00-9.74535E-03
 -1      3689-1.01560E-01-4.28938E+00 4.97136E-03
 -1      3690 3.54042E+00-1.81637E+00 1.08675E-02
 -1      3691-4.40761E+00-1.15277E-01-4.48087E-02
 -1      3692-4.40476E+00-6.59196E-01 7.27877E-03
 -1      3693-6.90821E+00 7.31216E+00-3.84602E-02
 -1      3694-3.37500E-01-3.41757E+00-1.30599E-03
 -1      3695 5.37095E+00 4.96855E+00 1.16835E-02
 -1      3696 8.97490E+00 3.59100E+00 4.30928E-03
 -1      3697-3.36505E-01-3.88482E+00 4.52532E-02
 -1      3698 6.51611E+00 6.38487E+00 2.24481E-02
 -1      3699 9.45039E+00 3.23249E-01-7.88663E-03
 -1      3700-3.35032E+00-3.27021E+00-3.77761E-02
 -1      3701 1.62470E+00-3.62921E+00-1.68968E-02
 -1      3702 6.91750E+00 6.75219E+00-2.35092E-02
 -1      3703 3.08227E+00 8.28416E+00-5.34057E-02
 -1      3704 8.89047E+00-3.81935E+00 6.70712E-03
 -1      3705 3.51732E+00 1.34325E+00-4.33808E-02
 -1      3706 2.95943E+00 2.80053E+00 4.48627E-03
 -1      3707 3.39418E-01-9.66976E+00-1.77423E-02
 -1      3708 4.37039E+00 1.81999E+00-4.85258E-02
 -1      3709 1.01085E+01-3.37500E-01-9.42156E-03
 -1      3710 1.12189E-01 3.72032E+00-5.63273E-02
 -1      3711 3.20070E+00 7.62094E+00 7.62255E-03
 -1      3712-3.85745E+00-3.67403E+00-1.02439E-02
 -1      3713 2.99307E+00-1.60507E+00-4.99265E-02
 -1      3714-2.05539E+00 4.80710E+00-2.80281E-02
 -1      3715-4.15820E+00-9.15687E+00-8.78939E-03
 -1      3716 1.30257E+00 3.37432E+00-1.65486E-02
 -1      3717-9.31819E+00 2.57725E-01-1.83672E-02
 -1      3718 9.31083E+00 3.97844E+00 8.52165E-03
 -1      3719-3.19931E+00 1.22163E+00-2.82472E-02
 -1      3720 3.65211E+00-1.31203E+00 1.93164E-04
 -1      3721 9.55206E+00-3.36914E-01-4.60114E-02
 -1      3722-3.03723E+00-2.78660E+00-2.18961E-02
 -1      3723-3.96627E+00 1.20577E-01 1.99430E-02
 -1      3724-1.59287E+00 4.13411E+00 4.22011E-02
 -1      3725 7.74988E-01 3.25942E+00-2.24257E-02
 -1      3726 3.37500E-01-1.01821E+01 1.14633E-03
 -1      3727-3.66833E+00 9.73806E+00-3.75138E-02
 -1      3728 8.65915E+00-3.22459E+00-3.24215E-03
 -1      3729 8.29730E+00 3.80372E+00 2.69513E-02
 -1      3730 8.04890E+00 2.97028E+00 8.03661E-02
 -1      3731 8.99268E+00 2.98481E+00-7.46339E-04
 -1      3732 1.12758E-01 4.26397E+00 3.46312E-03
 -1      3733 1.80687E-01 4.73854E+00 1.03735E-01
 -1      3734-9.99995E-01 4.11602E+00-2.34412E-02
 -1      3735 3.61987E+00 2.24423E-01-1.53051E-02
 -1      3736 3.16314E+00-1.12500E-01-3.37008E-02
 -1      3737 9.62216E+00-3.62032E+00-7.03984E-02
 -1      3738 3.18060E+00 3.37500E-01 5.52982E-02
 -1      3739-2.12084E+00 2.55722E+00-2.73057E-02
 -1      3740-7.30147E+00 7.46057E+00 1.23463E-01
 -1      3741 3.07432E-01-3.71383E+00-3.36584E-02
 -1      3742-3.96601E+00 7.88889E-01 2.35226E-02
 -1      3743-4.08411E+00 1.32922E+00-4.51544E-02
 -1      3744-5.79833E+00 6.94605E+00 1.25208E-02
 -1      3745-3.34221E-01-9.85204E+00-2.87151E-02
 -1      3746-3.65684E+00-4.27877E+00-8.66432E-03
 -1      3747-2.25959E+00-2.41869E+00-3.81653E-02
 -1      3748-3.77569E+00-8.79999E+00-1.10837E-03
 -1      3749-3.62930E+00 1.61703E+00-2.00883E-02
 -1      3750 1.12500E-01-3.27711E+00 4.65287E-02
 -1      3751-9.78424E+00-2.75423E-01-4.02660E-02
 -1      3752-6.76003E+00 6.13947E+00-4.21529E-02
 -1      3753-3.42265E+00-1.66789E+00 2.93666E-02
 -1      3754 2.88486E+00-2.10345E+00 9.06146E-03
 -1      3755 3.45833E+00 2.46070E+00 6.47125E-03
 -1      3756 4.50639E+00 4.59190E+00 1.04886E-02
 -1      3757-8.86527E+00 4.03591E+00-5.36424E-02
 -1      3758-3.40205E-01 4.62414E+00-2.66134E-02
 -1      3759 7.88889E-01 3.96601E+00 4.34055E-02
 -1      3760-8.94067E+00-3.92315E+00-3.54996E-02
 -1      3761-3.12967E+00 1.66150E+00 7.15440E-02
 -1      3762-4.23100E+00-1.50900E+00-1.13962E-02
 -1      3763-9.62603E+00-3.86546E+00-5.55236E-02
 -1      3764-2.90166E+00 6.65320E+00-1.36137E-02
 -1      3765-2.93028E+00 7.66227E+00 2.87268E-02
 -1      3766-2.38442E+00 7.57922E+00 1.86923E-02
 -1      3767 4.05927E+00-1.79388E+00-3.05517E-03
 -1      3768-2.58531E-01 3.30789E+00 2.73499E-03
 -1      3769-3.48326E+00-9.26112E+00-1.86902E-02
 -1      3770 9.88914E+00 6.94420E-01-8.42640E-03
 -1      3771-3.61318E+00 1.06744E+00 6.53325E-02
 -1      3772-2.84063E+00 5.96555E+00 1.18620E-02
 -1      3773 7.16634E+00 6.19853E+00-2.45868E-02
 -1      3774-3.00007E+00 3.37500E-01-4.05411E-02
 -1      3775 2.12230E+00 3.17625E+00 1.19854E-02
 -1      3776-8.65095E+00 3.21513E+00-6.94775E-04
 -1      3777 3.51938E+00 7.20648E-01 5.70824E-02
 -1      3778 3.50501E+00 8.77693E+00-6.10967E-02
 -1      3779-4.16748E+00 9.17927E+00-2.38526E-02
 -1      3780-3.61980E+00 9.11070E+00-3.73747E-02
 -1      3781 1.05257E+01-1.12500E-01 1.30003E-01
 -1      3782 9.23101E+00 7.81186E-01 1.12054E-01
 -1      3783-3.17468E+00-8.23857E+00-1.37225E-02
 -1      3784-2.79490E-01 9.01164E+00 2.00312E-02
 -1      3785-8.65751E+00-3.22075E+00-2.04381E-02
 -1      3786 1.46047E+00 4.01381E+00-1.65530E-02
 -1      3787-2.53789E+00-1.41653E+00 2.49471E-02
 -1      3788 1.17275E+00-3.12526E+00 6.12230E-03
 -1      3789-9.01164E+00-3.37500E-01-1.84560E-02
 -1      3790-9.45039E+00-7.65379E-01 7.73433E-03
 -1      3791-9.88914E+00-6.91833E-01 1.24469E-01
 -1      3792-1.01577E+01 2.25000E-01-1.93671E-02
 -1      3793 6.95565E-01 1.01085E+01 1.24525E-02
 -1      3794 2.31146E-01 9.61602E+00 1.51021E-02
 -1      3795-2.08166E+00 3.90543E+00-3.33121E-02
 -1      3796-2.58269E+00 1.43509E+00-2.77504E-02
 -1      3797-1.61087E+00 3.00707E+00-8.18412E-03
 -1      3798 9.44856E+00-3.03074E+00 4.73645E-02
 -1      3799 3.82935E+00-2.26534E+00 1.82669E-02
 -1      3800 3.37500E-01 9.09484E+00-2.04275E-02
 -1      3801 9.67472E+00-4.37271E+00 6.12816E-03
 -1      3802 3.62299E+00 7.30364E+00-6.68996E-03
 -1      3803 9.16871E+00-4.27960E+00-2.73702E-03
 -1      3804-3.22495E+00-2.38384E+00 8.14851E-02
 -1      3805-3.52726E+00-7.01616E-01-3.58919E-02
 -1      3806 9.04665E+00 4.57428E+00 2.06283E-02
 -1      3807-6.26709E+00 6.74439E+00 8.58249E-03
 -1      3808 2.73950E+00-3.20705E+00 9.60652E-03
 -1      3809 2.12382E+00-2.60112E+00-1.84954E-02
 -1      3810 8.87098E+00 2.98553E-01-6.15246E-02
 -1      3811 4.85358E+00 5.01850E+00-3.98629E-03
 -1      3812 2.23174E+00-2.07264E+00-4.57453E-03
 -1      3813 8.19651E+00-3.76041E+00-2.36302E-03
 -1      3814 6.08348E+00 6.66090E+00-8.63190E-05
 -1      3815 6.90915E+00 7.38645E+00-2.82490E-02
 -1      3816-2.87186E+00-3.34926E+00 3.66001E-02
 -1      3817-9.54493E+00 3.37133E+00-6.50712E-02
 -1      3818 3.98552E+00 1.50802E+00 4.29510E-02
 -1      3819 2.63542E-01-8.88795E+00-3.08928E-02
 -1      3820-8.97623E+00 3.59052E+00 5.46799E-02
 -1      3821-3.18435E+00-3.66541E+00 8.26871E-02
 -1      3822-3.29098E+00-1.12500E-01-1.61984E-02
 -1      3823 2.78870E-01-4.68872E+00 6.02532E-03
 -1      3824 3.92273E+00 1.99015E+00 3.57041E-02
 -1      3825-2.81416E+00-8.00355E-01 2.92059E-02
 -1      3826-9.45039E+00 7.09387E-01 1.03691E-01
 -1      3827 2.99027E+00 1.99803E+00 3.23258E-02
 -1      3828-4.96717E+00-1.65799E-01-3.31963E-02
 -1      3829-2.82693E+00 5.02143E+00 1.23872E-03
 -1      3830-7.37797E+00-7.53707E+00 3.76707E-02
 -1      3831-7.04082E+00-7.19992E+00 6.05066E-02
 -1      3832 1.19979E+00-3.79281E+00 6.43282E-02
 -1      3833 9.42548E+00 3.53885E+00 8.19153E-02
 -1      3834 3.03642E+00 1.13595E+00-1.07839E-02
 -1      3835-2.31529E+00 5.29096E+00-3.17601E-02
 -1      3836 2.20347E+00-3.61753E+00-3.17326E-02
 -1      3837-5.27564E-01 4.18539E+00 3.77264E-02
 -1      3838-4.34250E+00 1.67671E+00 8.48467E-02
 -1      3839 2.91522E+00 8.78406E+00 2.61877E-02
 -1      3840-6.48788E+00 7.49747E+00 1.10661E-01
 -1      3841 9.92779E+00 2.03880E-01 2.48446E-02
 -1      3842 3.03116E+00 3.50836E+00 6.81533E-03
 -1      3843-3.12500E+00-1.17265E+00 4.83560E-02
 -1      3844 2.55106E+00 8.22255E+00 8.00811E-02
 -1      3845-4.31782E+00-1.08606E+00 1.13441E-01
 -1      3846 3.80173E+00 9.47217E+00-3.74977E-02
 -1      3847 9.88914E+00-6.97192E-01 1.42851E-01
 -1      3848-2.59143E+00 4.16918E+00 4.97673E-02
 -1      3849-7.96503E+00 3.66827E+00 1.05084E-02
 -1      3850 2.08389E+00-4.14196E+00-1.52790E-02
 -1      3851-3.37500E-01-1.04201E+01-1.90256E-02
 -1      3852 1.66756E+00-3.13764E+00 2.74317E-02
 -1      3853-9.83297E+00 3.70764E+00 1.27106E-01
 -1      3854-7.61625E-01 2.72065E+00 8.06964E-02
 -1      3855-9.31323E+00-4.22297E+00 3.05315E-02
 -1      3856 4.13819E+00-9.10856E+00 2.07827E-02
 -1      3857 2.56004E+00-1.42571E+00 1.11923E-01
 -1      3858-2.02824E+00 2.96007E+00 1.27121E-01
 -1      3859 8.08276E+00-3.15751E+00-6.48986E-03
 -1      3860-2.28000E+00 6.55395E+00 5.59627E-03
 -1      3861-3.20409E+00-4.26616E+00 1.44900E-01
 -1      3862-2.13640E+00 4.35766E+00 6.94742E-02
 -1      3863 8.00405E-01-4.40476E+00 3.25382E-02
 -1      3864 7.63305E+00-3.97424E+00 2.99627E-02
 -1      3865-1.88482E+00-2.79324E+00 1.56356E-02
 -1      3866 4.49091E+00 5.46129E+00-9.73274E-03
 -1      3867 7.99647E-01-9.45039E+00 1.19783E-01
 -1      3868-1.28041E+00 4.47477E+00 5.77589E-02
 -1      3869-7.56888E+00 7.09158E+00 8.19908E-02
 -1      3870 8.25313E+00-4.19699E+00 1.40017E-01
 -1      3871-4.30388E+00-3.98703E+00 4.60057E-03
 -1      3872-4.33500E+00-3.44549E+00 1.33926E-02
 -1      3873-1.79396E+00 5.20595E+00 4.34817E-02
 -1      3874 3.75820E+00-8.62862E+00-4.26181E-04
 -1      3875 3.65291E+00-8.05447E+00-5.88155E-03
 -1      3876 3.97393E+00 4.42705E+00 1.00934E-02
 -1      3877-2.62539E+00-2.94820E+00 1.15993E-01
 -1      3878-2.67560E+00 7.22116E+00 7.66852E-02
 -1      3879-9.62489E-01 3.20559E+00-2.40418E-03
 -1      3880 8.79226E+00 6.92075E-01 1.38722E-01
 -1      3881-8.36683E+00-3.83479E+00-3.16711E-02
 -1      3882 3.35981E+00-8.40436E+00 5.90595E-02
 -1      3883 4.58299E+00 3.97311E+00-2.83161E-03
 -1      3884-7.15666E-01 9.23101E+00 9.77494E-02
 -1      3885 6.57980E-01-3.30789E+00 1.54410E-02
 -1      3886 3.66630E-01-4.18539E+00 3.93326E-02
 -1      3887-1.24375E+00 2.70870E+00 8.56644E-02
 -1      3888 4.04054E+00-7.60558E+00 7.47632E-02
 -1      3889 1.44576E+00-2.60846E+00 6.72826E-03
 -1      3890 5.03800E+00 5.53468E+00-2.84479E-02
 -1      3891-6.76842E+00 6.60935E+00 4.75475E-02
 -1      3892 9.00025E+00-3.52658E-01-3.45349E-02
 -1      3893 7.33532E+00 7.49442E+00 1.32898E-01
 -1      3894 1.64642E+00-4.44699E+00 4.67846E-02
 -1      3895-3.75770E+00-1.24568E+00-2.56513E-02
 -1      3896 2.04620E+00 3.80139E+00-1.89985E-02
 -1      3897-4.11348E+00 9.63685E+00 1.11672E-01
 -1      3898-3.00609E+00 9.45877E+00 5.79505E-02
 -1      3899-9.03983E+00-2.87100E+00 1.15790E-01
 -1      3900-9.06359E+00-3.38688E+00 7.81423E-02
 -1      3901 8.07819E-01-2.83218E+00 1.19248E-01
 -1      3902 2.58531E-01 1.01085E+01 1.10285E-01
 -1      3903-2.01381E-01 9.46385E+00 5.41812E-02
 -1      3904 4.31514E+00-9.53575E+00 1.12137E-01
 -1      3905-3.58814E+00-2.64114E+00 1.26062E-01
 -1      3906-4.10730E+00-9.62193E+00 1.01027E-01
 -1      3907 7.81404E+00-3.53727E+00 9.51844E-02
 -1      3908 5.68823E+00 4.57421E+00 1.22653E-01
 -1      3909-3.37500E-01-2.95717E+00 1.08495E-01
 -1      3910-3.21215E+00-9.61087E+00 1.28785E-01
 -1      3911-2.48317E+00 5.69705E+00 6.77006E-02
 -1      3912-6.95000E-01 4.84351E+00 1.39897E-01
 -1      3913 1.03829E+01 3.37500E-01 6.75445E-02
 -1      3914 2.92122E+00 3.92854E+00 1.44102E-01
 -1      3915 2.57697E+00 3.34206E+00 3.68271E-02
 -1      3916 2.50923E+00-4.20323E+00 1.40297E-01
 -1      3917 2.12230E+00-3.17625E+00 1.48314E-01
 -1      3918 2.83821E+00-8.57851E+00 6.09744E-04
 -1      3919 6.95787E-01-4.84351E+00 1.26147E-01
 -1      3920 3.76893E+00 4.94230E+00 1.00624E-01
 -1      3921 3.40439E+00-8.96881E+00 3.64744E-02
 -1      3922-7.01616E-01 3.52726E+00 1.53071E-01
 -1      3923 3.12769E+00-7.99965E+00 7.95069E-02
 -1      3924 4.76399E+00 5.80869E+00 1.83944E-01
 -1      3925 2.94664E+00-9.24594E+00 1.16781E-01
 -1      3926 6.51253E+00 7.47283E+00 1.40956E-01
 -1      3927 3.46750E+00 3.23328E+00 6.22136E-02
 -3
    3C                         14093                                     1
 -1         1    3    0    1
 -2      1195      2794      3682      3858
 -1         2    3    0    1
 -2       453       201      1739      2007
 -1         3    3    0    1
 -2      3280      2033      3760      3881
 -1         4    3    0    1
 -2       460         9       461      1723
 -1         5    3    0    1
 -2      2149      2130      2200      2223
 -1         6    3    0    2
 -2       384      2356      2426      2427
 -1         7    3    0    2
 -2      2613      3129      3134      3144
 -1         8    3    0    1
 -2      2794      2788      2798      3682
 -1         9    3    0    1
 -2      1797      1820      1935      2051
 -1        10    3    0    1
 -2        22       353      1788      1793
 -1        11    3    0    2
 -2      2377       640      2385      2386
 -1        12    3    0    1
 -2      1692      1771      1795      1967
 -1        13    3    0    1
 -2       440        25        26      1865
 -1        14    3    0    2
 -2      3116      2393       926      2394
 -1        15    3    0    1
 -2        87       514      1855      1866
 -1        16    3    0    2
 -2       266      2253      1534      1533
 -1        17    3    0    1
 -2         9       507       345      1723
 -1        18    3    0    1
 -2       517       483      1913      2030
 -1        19    3    0    1
 -2      1923       496      2083      2172
 -1        20    3    0    1
 -2      1869      2004      2031      2036
 -1        21    3    0    1
 -2      2124      1672      3576      3897
 -1        22    3    0    2
 -2       277      1518      2874      1517
 -1        23    3    0    1
 -2       230       256      1913      1937
 -1        24    3    0    1
 -2      1732      1679      1759      1861
 -1        25    3    0    1
 -2      1718      1829      1763      1848
 -1        26    3    0    2
 -2       920       372       595      2826
 -1        27    3    0    2
 -2      2291      2290      1500       306
 -1        28    3    0    1
 -2      1769       477      1787      2021
 -1        29    3    0    2
 -2      1250      2243      2244      2876
 -1        30    3    0    1
 -2      1762      1761      1773      1851
 -1        31    3    0    1
 -2        46       485       370      1930
 -1        32    3    0    1
 -2      2630      2238      2656      3724
 -1        33    3    0    1
 -2      1791      1733      1930      1937
 -1        34    3    0    1
 -2       199       448      1742      1854
 -1        35    3    0    1
 -2        50        76       339      2104
 -1        36    3    0    1
 -2      3199      3723      3805      3822
 -1        37    3    0    1
 -2       191      1662      1770      1885
 -1        38    3    0    2
 -2       423      2781      2782      1447
 -1        39    3    0    1
 -2      1711      3186      3553      3839
 -1        40    3    0    1
 -2      1752      1739      1998      2007
 -1        41    3    0    1
 -2      1788      1683      1793      1939
 -1        42    3    0    1
 -2        25        26      1865      1880
 -1        43    3    0    1
 -2        18       559       342      1737
 -1        44    3    0    2
 -2      2434      2605      1468      2606
 -1        45    3    0    1
 -2       513       225       253      1877
 -1        46    3    0    1
 -2      1974       436      3125      3389
 -1        47    3    0    1
 -2      2641       955      2643      3879
 -1        48    3    0    1
 -2      1696      1705      1712      1769
 -1        49    3    0    1
 -2       370       257      1785      1857
 -1        50    3    0    2
 -2      3195      2242      1392      3196
 -1        51    3    0    1
 -2        61        89       330      1933
 -1        52    3    0    1
 -2        26        25       327      1880
 -1        53    3    0    2
 -2      2307       621      1054      3183
 -1        54    3    0    1
 -2      1690      1787      1821      1940
 -1        55    3    0    2
 -2       690      2303      2422      1181
 -1        56    3    0    1
 -2      1901      1692      1911      2201
 -1        57    3    0    2
 -2       784      3160      3163      3169
 -1        58    3    0    1
 -2      3866      1261      3890      3924
 -1        59    3    0    1
 -2      1775      1688      1900      2040
 -1        60    3    0    1
 -2       451       199       200      1854
 -1        61    3    0    1
 -2      1873      1687      1833      1823
 -1        62    3    0    1
 -2       422       970      3729      3806
 -1        63    3    0    2
 -2       881       894       893      2365
 -1        64    3    0    2
 -2      2360      2363      2366      2373
 -1        65    3    0    1
 -2      1748      1720      1802      1961
 -1        66    3    0    1
 -2       490       219       336      1787
 -1        67    3    0    1
 -2      1715      1727      1735      1865
 -1        68    3    0    1
 -2      3440      3561      3832      3885
 -1        69    3    0    2
 -2      2236      2272      1507      2273
 -1        70    3    0    1
 -2       197       324      1844      2020
 -1        71    3    0    2
 -2      2873      2258       860      2874
 -1        72    3    0    1
 -2      1992      1966      2258      3089
 -1        73    3    0    1
 -2      1853      2235      2432      1496
 -1        74    3    0    1
 -2      1991        11       452         7
 -1        75    3    0    1
 -2      1751      3126      3200      3721
 -1        76    3    0    2
 -2      2536      2541      2544      2546
 -1        77    3    0    1
 -2      1664      1803      1870      2137
 -1        78    3    0    1
 -2        26       440      1865      1880
 -1        79    3    0    1
 -2      1739       452      1991      1998
 -1        80    3    0    2
 -2      2625      2778      1565      1566
 -1        81    3    0    1
 -2      1690      1712      1769      1940
 -1        82    3    0    1
 -2       208       207      1684      1725
 -1        83    3    0    1
 -2       370       485      1785      1791
 -1        84    3    0    1
 -2      1814      1815      1862      1876
 -1        85    3    0    1
 -2       491       219       236      1769
 -1        86    3    0    2
 -2      1318      1317      2918      2929
 -1        87    3    0    2
 -2       393      2242      3195      3196
 -1        88    3    0    1
 -2       366      2211      2264      3287
 -1        89    3    0    2
 -2      2874      2250      1517      1518
 -1        90    3    0    2
 -2       749      2857      2859      2861
 -1        91    3    0    2
 -2      2390       388      2870      1522
 -1        92    3    0    1
 -2      1957      1952      2152      3272
 -1        93    3    0    1
 -2      1822      1669      2026      2117
 -1        94    3    0    2
 -2       243      2245      2446      2447
 -1        95    3    0    2
 -2      2250       267      1051      2873
 -1        96    3    0    2
 -2       412      1516      2695       740
 -1        97    3    0    2
 -2      2377       802      1609      2378
 -1        98    3    0    1
 -2      2017      2038      3624      3676
 -1        99    3    0    2
 -2      2389      3213      3219      3220
 -1       100    3    0    1
 -2      1752      1678      1932      1991
 -1       101    3    0    2
 -2       861      3207      3211      3223
 -1       102    3    0    2
 -2       389      1446      3084       608
 -1       103    3    0    1
 -2      1687      1753      1855      1906
 -1       104    3    0    2
 -2      2249       545      1278      1277
 -1       105    3    0    1
 -2      1612      2461      2380      2069
 -1       106    3    0    1
 -2      1768      1713      1779      1977
 -1       107    3    0    1
 -2      1228      2469      2403      3441
 -1       108    3    0    1
 -2      1910      1936      2184      2997
 -1       109    3    0    2
 -2       432      1388      1387      2352
 -1       110    3    0    2
 -2      1527      3218      1528      3224
 -1       111    3    0    2
 -2      2312      2311      2563      2565
 -1       112    3    0    1
 -2      1753      1687      1855      1866
 -1       113    3    0    1
 -2      3067      3074      3081      3741
 -1       114    3    0    2
 -2      2707      2752      1315      1316
 -1       115    3    0    1
 -2      1704      1694      1832      2176
 -1       116    3    0    1
 -2      3193      3693      3807      3840
 -1       117    3    0    1
 -2      1952      1997      2875      3345
 -1       118    3    0    1
 -2       274       214      1747      1933
 -1       119    3    0    1
 -2       183       987      3738      3777
 -1       120    3    0    1
 -2       338       220      1767      1822
 -1       121    3    0    1
 -2      3097      2286      3112      3706
 -1       122    3    0    1
 -2       222       559       288      1874
 -1       123    3    0    1
 -2       242      2048      2095      2177
 -1       124    3    0    2
 -2       738       649      2980      2982
 -1       125    3    0    1
 -2        86       514       346      1855
 -1       126    3    0    1
 -2        42        88      2030      2037
 -1       127    3    0    1
 -2      2121      3714      3868      3873
 -1       128    3    0    1
 -2       467        78       535      1837
 -1       129    3    0    1
 -2       501      2209      2227      2606
 -1       130    3    0    1
 -2      2825      2314      3717      3789
 -1       131    3    0    2
 -2      2300      2301      2669      1307
 -1       132    3    0    1
 -2      2009      1789      2049      2168
 -1       133    3    0    1
 -2       343        39       511      1877
 -1       134    3    0    1
 -2       358      1820      1908      2044
 -1       135    3    0    1
 -2      3343      3727      3576      3897
 -1       136    3    0    1
 -2      2291      2230      2331      1499
 -1       137    3    0    1
 -2      1766      1804      1971      2063
 -1       138    3    0    1
 -2       492       215       237      1914
 -1       139    3    0    1
 -2      1726      1696      1769      2021
 -1       140    3    0    2
 -2      2747      2613      3147      2748
 -1       141    3    0    1
 -2      1704      1694      1747      1832
 -1       142    3    0    1
 -2      2258      1966       859      2874
 -1       143    3    0    1
 -2      1772      1753      1850      1877
 -1       144    3    0    1
 -2      3002      1952      3272      3282
 -1       145    3    0    1
 -2       278      2016      3117      1584
 -1       146    3    0    1
 -2       473        27      1722      1914
 -1       147    3    0    1
 -2      1690      1720      1748      1961
 -1       148    3    0    1
 -2      2484       686      2490      3748
 -1       149    3    0    1
 -2       559        18        73      1737
 -1       150    3    0    1
 -2         1       441        77      1849
 -1       151    3    0    1
 -2       412      2069      1515      3269
 -1       152    3    0    1
 -2      3115      3689      3823      3886
 -1       153    3    0    1
 -2      2286       382      1279      3927
 -1       154    3    0    1
 -2      2360      2338      2374      3819
 -1       155    3    0    2
 -2      2388       941       674       625
 -1       156    3    0    1
 -2       412      2069       951      2695
 -1       157    3    0    2
 -2      2639       505      2642      2645
 -1       158    3    0    1
 -2      2615      3263      3712      3493
 -1       159    3    0    1
 -2       981      3001      3376      3413
 -1       160    3    0    1
 -2      1712      1705      1979      1981
 -1       161    3    0    1
 -2      3701      1716      3551      3561
 -1       162    3    0    1
 -2      3228      1013      3229      3666
 -1       163    3    0    2
 -2      2270      2258       860      2259
 -1       164    3    0    1
 -2      3592      2431      3594      3882
 -1       165    3    0    1
 -2      1795      2937      3504      3793
 -1       166    3    0    1
 -2      1020       704      3696      3731
 -1       167    3    0    2
 -2      1121      1258      1122      2863
 -1       168    3    0    2
 -2      2272      2236      1507      2235
 -1       169    3    0    2
 -2       842      2258      2270      2259
 -1       170    3    0    2
 -2       307      2452       953       954
 -1       171    3    0    1
 -2      3571      1819      3856      3904
 -1       172    3    0    2
 -2      2831      2830      2836      2839
 -1       173    3    0    1
 -2      1723       460      1841      1950
 -1       174    3    0    1
 -2      1838      1765      1939      1958
 -1       175    3    0    1
 -2       676      3351      1620      3771
 -1       176    3    0    1
 -2      1744      1724      1929      1931
 -1       177    3    0    1
 -2       540        12        62      1684
 -1       178    3    0    1
 -2      1708      1841      1949      1970
 -1       179    3    0    1
 -2      3492      2050      3550      3851
 -1       180    3    0    1
 -2      1801       385      2005      2014
 -1       181    3    0    1
 -2       237       215      1867      1914
 -1       182    3    0    1
 -2       247      1723      1829      1848
 -1       183    3    0    1
 -2       342        18      1737      1874
 -1       184    3    0    1
 -2      1859      1669      1870      2050
 -1       185    3    0    1
 -2      1713      1734      1779      1977
 -1       186    3    0    1
 -2      2455       392       978      3783
 -1       187    3    0    2
 -2      1242      1241      2830      2838
 -1       188    3    0    1
 -2      1710      1663      1724      1734
 -1       189    3    0    1
 -2      1986      2225      1429      3344
 -1       190    3    0    1
 -2       215      1714      1867      1914
 -1       191    3    0    1
 -2        90        78       467      1837
 -1       192    3    0    1
 -2       466       208      1671      1725
 -1       193    3    0    1
 -2      1945        84       337        14
 -1       194    3    0    1
 -2       957       637      2909      3687
 -1       195    3    0    2
 -2       109      1286      2881      2883
 -1       196    3    0    1
 -2      1288       411      2891      3716
 -1       197    3    0    1
 -2      1714      1695      1867      1884
 -1       198    3    0    1
 -2      2221      1749      1513      3419
 -1       199    3    0    1
 -2      1790      1954      1980      2164
 -1       200    3    0    1
 -2      1709      1742      1839      1854
 -1       201    3    0    1
 -2       637       957      2997      3687
 -1       202    3    0    1
 -2      3607      3874      3875      3882
 -1       203    3    0    1
 -2       392      2003      2145      1558
 -1       204    3    0    2
 -2       828      2749      1565      1566
 -1       205    3    0    2
 -2      2956      2957      2959      2962
 -1       206    3    0    1
 -2      3516      2018      3517      3815
 -1       207    3    0    1
 -2      1968      3185      3695      3319
 -1       208    3    0    1
 -2       533       210       270      1837
 -1       209    3    0    2
 -2      1523      3223      1529      1530
 -1       210    3    0    1
 -2       462       205       206      1950
 -1       211    3    0    1
 -2      1724      1710      1734      1931
 -1       212    3    0    1
 -2       229       493       238      1745
 -1       213    3    0    1
 -2       519       232       354      1857
 -1       214    3    0    2
 -2       521      1392       594      2412
 -1       215    3    0    1
 -2      3518      1681      3557      3830
 -1       216    3    0    1
 -2      1295       637      2997      3687
 -1       217    3    0    1
 -2       210       533       469      1837
 -1       218    3    0    1
 -2       259      1233      2976      2977
 -1       219    3    0    2
 -2       295       266      2871      1625
 -1       220    3    0    2
 -2      2393       271      3116      3117
 -1       221    3    0    1
 -2      1785      1791      1857      2067
 -1       222    3    0    1
 -2      2041      3706      3842      3915
 -1       223    3    0    1
 -2      1962      1908      2044      2143
 -1       224    3    0    1
 -2      1837       210      1852      2101
 -1       225    3    0    1
 -2      3722      2585      3816      3877
 -1       226    3    0    1
 -2      1720      1690      1940      1961
 -1       227    3    0    1
 -2      1588      2342      3708      3818
 -1       228    3    0    2
 -2      2393      1190      2611      2394
 -1       229    3    0    1
 -2      1799         2      1857      1918
 -1       230    3    0    1
 -2      1763      1672      2114      2205
 -1       231    3    0    1
 -2      1662      1736      1770      1885
 -1       232    3    0    1
 -2      3684      3266      3722      3804
 -1       233    3    0    1
 -2       381      2075      3729      3474
 -1       234    3    0    1
 -2      1762      1761      1851      1896
 -1       235    3    0    1
 -2      2180      2146      2219      2222
 -1       236    3    0    1
 -2       974      3769      3558      3910
 -1       237    3    0    2
 -2      2636      1080      2637      2638
 -1       238    3    0    1
 -2       200       450      2026      2117
 -1       239    3    0    2
 -2      2411      2239      1235      1236
 -1       240    3    0    2
 -2      3315      3316      1230       797
 -1       241    3    0    2
 -2      2338      2337      2363      2373
 -1       242    3    0    1
 -2      1993      1685      2055      2159
 -1       243    3    0    1
 -2      1752      1739      2007      2008
 -1       244    3    0    1
 -2      1673      1742      1839      1860
 -1       245    3    0    1
 -2       519       257      1857      1918
 -1       246    3    0    1
 -2      1769      1690      1787      1821
 -1       247    3    0    1
 -2       331        12      1684      1905
 -1       248    3    0    1
 -2         1       468       534      1849
 -1       249    3    0    2
 -2      2777      2625      1565      2626
 -1       250    3    0    1
 -2      1113      2981      2990      3702
 -1       251    3    0    1
 -2      2126      3547      3896      3914
 -1       252    3    0    2
 -2       568      2621      1559      1560
 -1       253    3    0    1
 -2        48       489      1821      1875
 -1       254    3    0    1
 -2      1753      1686      1772      1850
 -1       255    3    0    1
 -2      1953      1702      1957      3634
 -1       256    3    0    1
 -2      3715      1893      3496      3906
 -1       257    3    0    2
 -2       827      3242      3247      1545
 -1       258    3    0    1
 -2       242      1994      2231      2291
 -1       259    3    0    2
 -2      2324      2544      2548      1578
 -1       260    3    0    1
 -2      1728      1883      1891      1932
 -1       261    3    0    1
 -2      1824      1697      2029      2116
 -1       262    3    0    2
 -2       744      2727      2730      2733
 -1       263    3    0    2
 -2      2784      2349      1071      2785
 -1       264    3    0    1
 -2       275      1756      1809      3265
 -1       265    3    0    1
 -2        78       469       533      1837
 -1       266    3    0    1
 -2      3422      2019      3794      3903
 -1       267    3    0    1
 -2       681      1195      2798      3682
 -1       268    3    0    2
 -2      2296       873      2432      2433
 -1       269    3    0    1
 -2      1662        63      1770      1836
 -1       270    3    0    1
 -2      1923      1878      2070      2172
 -1       271    3    0    1
 -2      2062      2058      2193      3090
 -1       272    3    0    1
 -2       489       475      1821      1875
 -1       273    3    0    1
 -2      1017      3007      3718      3614
 -1       274    3    0    1
 -2       941      2056      2976      2977
 -1       275    3    0    2
 -2       651      1183      3051      3056
 -1       276    3    0    1
 -2      3685      2624      3696      3731
 -1       277    3    0    1
 -2      3494      1744      3640      3673
 -1       278    3    0    1
 -2      1719      1682      1903      1962
 -1       279    3    0    1
 -2       559       222       342      1874
 -1       280    3    0    1
 -2      1748      1720      1784      1802
 -1       281    3    0    1
 -2      1706      1733      1886      1913
 -1       282    3    0    1
 -2      2434       501      2606      3495
 -1       283    3    0    2
 -2      2318      3288      1345      2317
 -1       284    3    0    1
 -2      1790      1919      1975      1980
 -1       285    3    0    1
 -2      1971      2268      2272      1129
 -1       286    3    0    1
 -2         1        77       468      1849
 -1       287    3    0    2
 -2       315      2345      2459      1192
 -1       288    3    0    2
 -2       435      1540       806      2692
 -1       289    3    0    1
 -2      1822       220      1945      1956
 -1       290    3    0    1
 -2      2170       414      1307      3911
 -1       291    3    0    1
 -2       519         2        45      1918
 -1       292    3    0    1
 -2      1282      2981      2984      3702
 -1       293    3    0    1
 -2       441         1       322      1849
 -1       294    3    0    1
 -2      1987       432      2352      1013
 -1       295    3    0    1
 -2       891       556      3318      3575
 -1       296    3    0    1
 -2      1887      1682      1908      1962
 -1       297    3    0    1
 -2      1972       187      2038      2171
 -1       298    3    0    2
 -2      2405      1628      2442      2406
 -1       299    3    0    2
 -2       716      2424      2498      1514
 -1       300    3    0    1
 -2      2142      2999      3122      3521
 -1       301    3    0    1
 -2       461       460      1723      1950
 -1       302    3    0    1
 -2       558        17       341      1854
 -1       303    3    0    1
 -2      2578      1039      2583      3722
 -1       304    3    0    1
 -2      1775      1688      1780      1900
 -1       305    3    0    1
 -2       256       518      1913      1937
 -1       306    3    0    1
 -2      1757      1755      1798      1836
 -1       307    3    0    1
 -2      1733      1688      1886      1913
 -1       308    3    0    1
 -2      1687      1786      1873      1906
 -1       309    3    0    1
 -2        44      1773      2118      3502
 -1       310    3    0    1
 -2        17        82       448      1854
 -1       311    3    0    1
 -2       440      1715      1865      1880
 -1       312    3    0    1
 -2      2529      2515      3762      3895
 -1       313    3    0    1
 -2       456        20       457      2129
 -1       314    3    0    1
 -2       447       324      2020      2021
 -1       315    3    0    2
 -2      2268      1130       705      2269
 -1       316    3    0    2
 -2       562      3062      1427      3063
 -1       317    3    0    1
 -2      1945      1713      1956      1977
 -1       318    3    0    1
 -2       327        25       487      1880
 -1       319    3    0    1
 -2       485      1785      1791      1857
 -1       320    3    0    1
 -2      1553      1073      3570      3864
 -1       321    3    0    1
 -2       867      2272       385      1801
 -1       322    3    0    1
 -2        83        46       352      1930
 -1       323    3    0    1
 -2      1728       472      1898      1998
 -1       324    3    0    2
 -2      2407      2339      2408      1573
 -1       325    3    0    1
 -2      1731      1879      1894      2191
 -1       326    3    0    1
 -2      1762      1689      1773      1916
 -1       327    3    0    1
 -2      3854      1083      3879      3887
 -1       328    3    0    1
 -2      1862       216      2100      2123
 -1       329    3    0    2
 -2       360      1236      2411      1235
 -1       330    3    0    2
 -2      2258      2270       860      2271
 -1       331    3    0    1
 -2      2111      2183      2193      3568
 -1       332    3    0    1
 -2       448        82      1742      1854
 -1       333    3    0    1
 -2       459      1841      1950      2104
 -1       334    3    0    2
 -2      3139       771      3141      3142
 -1       335    3    0    2
 -2      2980       738      2982      2987
 -1       336    3    0    1
 -2      1696      1726      2020      2021
 -1       337    3    0    2
 -2       271      1190      1189      3116
 -1       338    3    0    1
 -2      2616      2132      3739      3858
 -1       339    3    0    1
 -2      1820      1797      1935      2080
 -1       340    3    0    1
 -2       324      1844      2020      2021
 -1       341    3    0    1
 -2       362         8       344      1848
 -1       342    3    0    1
 -2      1683      1838      1847      1882
 -1       343    3    0    1
 -2      1721      1781      1912      2803
 -1       344    3    0    1
 -2       435      1909      3228      1539
 -1       345    3    0    1
 -2      2517       995      3380      3753
 -1       346    3    0    1
 -2      2203      2066      1301      3201
 -1       347    3    0    1
 -2       468        77      1831      1849
 -1       348    3    0    1
 -2       460       205      1841      1950
 -1       349    3    0    2
 -2      2304      1450       624      1449
 -1       350    3    0    2
 -2      1462      1115      3104      3106
 -1       351    3    0    1
 -2      1671      1725      1827      1876
 -1       352    3    0    1
 -2      2028      3483      3658      3678
 -1       353    3    0    1
 -2       967      1530      3788      3885
 -1       354    3    0    1
 -2      1301      2042      3201      3293
 -1       355    3    0    1
 -2      1201      2434      2797      3495
 -1       356    3    0    1
 -2      3405      3192      3812      3635
 -1       357    3    0    2
 -2      2654       638      2657      2659
 -1       358    3    0    1
 -2      1678      1728      1891      1932
 -1       359    3    0    2
 -2      2773      2288      1379      1380
 -1       360    3    0    1
 -2      1710      1724      1826      1931
 -1       361    3    0    1
 -2      2202      3177      3182      3471
 -1       362    3    0    1
 -2        31      1618      3761      3796
 -1       363    3    0    1
 -2      1820      1797      2044      2051
 -1       364    3    0    2
 -2       243      2321      2446      1575
 -1       365    3    0    1
 -2      1705      1690      1712      1769
 -1       366    3    0    1
 -2       440       194      1735      2113
 -1       367    3    0    1
 -2      3093      3094      3101      3706
 -1       368    3    0    1
 -2      1725      1814      1815      1842
 -1       369    3    0    1
 -2      1883      1891      1932      2142
 -1       370    3    0    1
 -2       925       859      3234      3562
 -1       371    3    0    1
 -2      1679      1732      1759      1852
 -1       372    3    0    1
 -2       446       197       445      1844
 -1       373    3    0    1
 -2      1733      1913      1930      1937
 -1       374    3    0    1
 -2       477       219      1769      1787
 -1       375    3    0    2
 -2      3119      2382      1613      2381
 -1       376    3    0    1
 -2      1687      1786      1855      1866
 -1       377    3    0    1
 -2      2903      2897      2905      3687
 -1       378    3    0    2
 -2      2761      1166      2765      2766
 -1       379    3    0    2
 -2      2230      2290      1500      2291
 -1       380    3    0    1
 -2      3238      3241      3247      3704
 -1       381    3    0    1
 -2       228      1775      1780      2029
 -1       382    3    0    1
 -2      1795      1746      1967      1979
 -1       383    3    0    1
 -2       653      2199      1367      3720
 -1       384    3    0    2
 -2       315      2325      2459      2460
 -1       385    3    0    1
 -2      1793      1683      1923      1939
 -1       386    3    0    1
 -2      2058      2062      3482      3487
 -1       387    3    0    1
 -2      1663      1734      1945      2137
 -1       388    3    0    1
 -2        11      1991       452      1998
 -1       389    3    0    1
 -2      1739      2007      2008      2088
 -1       390    3    0    1
 -2      1771      1692      1795      1844
 -1       391    3    0    2
 -2       398       916       791      2305
 -1       392    3    0    1
 -2       351       493      1745      2212
 -1       393    3    0    1
 -2      1699      1763      1829      1848
 -1       394    3    0    1
 -2      2436      1986      2531      1127
 -1       395    3    0    1
 -2      1674      1714      1740      1884
 -1       396    3    0    1
 -2      2137      1803      3331      3332
 -1       397    3    0    1
 -2      3295       872      3306      3834
 -1       398    3    0    1
 -2      1699      1723      1841      1950
 -1       399    3    0    2
 -2       641      2376       905      3315
 -1       400    3    0    1
 -2      2107      3126      3781      3913
 -1       401    3    0    1
 -2      3683       683      3797      2636
 -1       402    3    0    1
 -2       376       339      2071      2104
 -1       403    3    0    1
 -2      1790       487      1865      1880
 -1       404    3    0    1
 -2      1247       691      3784      3884
 -1       405    3    0    1
 -2      1821       475      1868      1875
 -1       406    3    0    1
 -2      1784      1722      1802      1868
 -1       407    3    0    2
 -2      2459      2345       283      2346
 -1       408    3    0    2
 -2      2304       624      2311      2312
 -1       409    3    0    1
 -2      1698      1748      1784      1802
 -1       410    3    0    1
 -2      1509       849      3203      3831
 -1       411    3    0    1
 -2      1039       401      3722      3804
 -1       412    3    0    1
 -2      1855        87       480        86
 -1       413    3    0    1
 -2      1761      1762      1878      1896
 -1       414    3    0    2
 -2      2474      2555      1637      2557
 -1       415    3    0    1
 -2      1727      1790      1865      1880
 -1       416    3    0    2
 -2      2641      1078      2662      2665
 -1       417    3    0    2
 -2      3294      3297      3303      3305
 -1       418    3    0    1
 -2       207       465       208      1684
 -1       419    3    0    1
 -2        70       949      3710      3768
 -1       420    3    0    1
 -2      1964      1891      2142      3122
 -1       421    3    0    1
 -2       686      2484      2486      3748
 -1       422    3    0    1
 -2       440      1715      1735      1865
 -1       423    3    0    1
 -2       540       214       331      1905
 -1       424    3    0    1
 -2       210       536       270      2101
 -1       425    3    0    1
 -2      3298      3295      3305      3705
 -1       426    3    0    1
 -2       493       229       351      1745
 -1       427    3    0    1
 -2       232       370       485      1857
 -1       428    3    0    1
 -2       103       109      3686      3645
 -1       429    3    0    1
 -2      1786      1750      1824      1873
 -1       430    3    0    2
 -2       563      2248      2779      2780
 -1       431    3    0    1
 -2      1893      3001      3715      3424
 -1       432    3    0    2
 -2      2430      3593      3594      3595
 -1       433    3    0    2
 -2      2284      2285      1335      3315
 -1       434    3    0    1
 -2      2200      3901      3750      3205
 -1       435    3    0    1
 -2       445       446      1844      1925
 -1       436    3    0    1
 -2      1878      1765      1896      1958
 -1       437    3    0    2
 -2      2280       828      2749      1264
 -1       438    3    0    2
 -2       756      2651      2654      2657
 -1       439    3    0    1
 -2      3097      2286      3706      3842
 -1       440    3    0    1
 -2        78      1732      1837      1852
 -1       441    3    0    1
 -2       932      2481      2482      3715
 -1       442    3    0    2
 -2      2377       802      2378      2385
 -1       443    3    0    1
 -2      2205      2114      3503      3576
 -1       444    3    0    1
 -2       991       183      2502      3738
 -1       445    3    0    1
 -2       219       236      1769      1787
 -1       446    3    0    1
 -2       693       415      3734      3922
 -1       447    3    0    1
 -2      1674      1760      2022      2173
 -1       448    3    0    2
 -2       891       892      2369      2372
 -1       449    3    0    2
 -2      2476       800      2477      2478
 -1       450    3    0    1
 -2        17       558        82      1854
 -1       451    3    0    1
 -2        17       448       451      1854
 -1       452    3    0    2
 -2      2264      1538      1537       625
 -1       453    3    0    2
 -2       864      2320      2330      2319
 -1       454    3    0    1
 -2      1783      1708      2104      2201
 -1       455    3    0    1
 -2      1831       534      1849      2105
 -1       456    3    0    1
 -2      1691      1706      1886      1897
 -1       457    3    0    1
 -2       218       552       476      1845
 -1       458    3    0    1
 -2      2058      2052      2062      3487
 -1       459    3    0    2
 -2      2892       416      2894      2895
 -1       460    3    0    1
 -2        78        90       469      1837
 -1       461    3    0    1
 -2      1969      3685      3729      3730
 -1       462    3    0    1
 -2      1694      1704      1871      2176
 -1       463    3    0    1
 -2       232       257       370      1857
 -1       464    3    0    1
 -2      3078       434      1442      3886
 -1       465    3    0    1
 -2       264      2671      2674      3860
 -1       466    3    0    1
 -2      1692      1771      1911      1925
 -1       467    3    0    1
 -2       428      1801      2268       867
 -1       468    3    0    1
 -2      3479      3467      3801      3803
 -1       469    3    0    1
 -2       486       472      1728      1991
 -1       470    3    0    1
 -2      3473      2869      3850      3894
 -1       471    3    0    1
 -2         2       444        45      1918
 -1       472    3    0    1
 -2       652      1869      1271      2087
 -1       473    3    0    2
 -2      2268       428      2317      2318
 -1       474    3    0    1
 -2      1686      1743      1843      2012
 -1       475    3    0    2
 -2      2261      2260      1302      2911
 -1       476    3    0    1
 -2      1732      1679      1861      2105
 -1       477    3    0    1
 -2        25       440       321      1865
 -1       478    3    0    1
 -2      2017      2092      3624      3625
 -1       479    3    0    1
 -2       199       451       448      1854
 -1       480    3    0    1
 -2      2119       551      3918      3923
 -1       481    3    0    1
 -2       535        78      1732      1837
 -1       482    3    0    1
 -2      1786       480      1855      1866
 -1       483    3    0    1
 -2        51         9       460      1723
 -1       484    3    0    1
 -2      1831      1861      1941      2105
 -1       485    3    0    1
 -2      3236      3715      3496      3906
 -1       486    3    0    1
 -2      1686      1782      1843      1984
 -1       487    3    0    1
 -2       488      1904      1919      1975
 -1       488    3    0    1
 -2       276      1756      2015      1344
 -1       489    3    0    2
 -2      3046      3048      3051      3056
 -1       490    3    0    1
 -2      1835      1668      2052      2062
 -1       491    3    0    1
 -2      1674      1740      1810      1884
 -1       492    3    0    1
 -2       535       467      1837      2105
 -1       493    3    0    1
 -2      1666      1671      1827      1736
 -1       494    3    0    1
 -2       217       235      1821      1868
 -1       495    3    0    1
 -2       508      1942      2440      1606
 -1       496    3    0    2
 -2      2897      2901      2905      2906
 -1       497    3    0    2
 -2      2560      2558      2564      2567
 -1       498    3    0    1
 -2      1750      1786      1824      2029
 -1       499    3    0    1
 -2       537      2288      1385      3698
 -1       500    3    0    2
 -2      2327       663      3410      1583
 -1       501    3    0    2
 -2      2274       400      2298      2299
 -1       502    3    0    1
 -2      2716      3604      3606      3923
 -1       503    3    0    1
 -2      2539       936      1020      3696
 -1       504    3    0    2
 -2       761       681      2798      2801
 -1       505    3    0    1
 -2      1960      1869      2031      2036
 -1       506    3    0    1
 -2       972       686      2486      3748
 -1       507    3    0    2
 -2      2476       973      2478      2483
 -1       508    3    0    1
 -2      2332      2146      3004      3572
 -1       509    3    0    1
 -2      2009      1789      2168      3404
 -1       510    3    0    1
 -2      2281      1890      3446      3859
 -1       511    3    0    2
 -2       725      2539      2542      2549
 -1       512    3    0    2
 -2      1100       756      2659      2660
 -1       513    3    0    2
 -2       903      2298       904      3203
 -1       514    3    0    2
 -2       645      2832      2830      1241
 -1       515    3    0    1
 -2      1706      1691      1733      1791
 -1       516    3    0    2
 -2      2263      3153      3157      3161
 -1       517    3    0    1
 -2       346       514      1772      1855
 -1       518    3    0    1
 -2      1786      1687      1823      1824
 -1       519    3    0    2
 -2      2261       957      2906      2909
 -1       520    3    0    2
 -2       670       902       901      2385
 -1       521    3    0    1
 -2       429      1360      1528      3836
 -1       522    3    0    2
 -2       292      3116      1579      1580
 -1       523    3    0    1
 -2      1674      1695      1760      2008
 -1       524    3    0    1
 -2      2220      3322      3705      3834
 -1       525    3    0    1
 -2      2240      2914      2926      3691
 -1       526    3    0    1
 -2      1674      1805      1810      3517
 -1       527    3    0    2
 -2      2379       572      2461      2462
 -1       528    3    0    1
 -2      1680      1666      1684      1747
 -1       529    3    0    2
 -2      2304       916       398      2305
 -1       530    3    0    1
 -2      2689       528      1559      3842
 -1       531    3    0    1
 -2      2639       505      2645      3862
 -1       532    3    0    1
 -2      1830      1678      1891      1921
 -1       533    3    0    2
 -2      2423      2422      1270       712
 -1       534    3    0    1
 -2      2192       703      2221      1513
 -1       535    3    0    1
 -2       242      2048      2177      2331
 -1       536    3    0    1
 -2      2773      2288      3698      3814
 -1       537    3    0    1
 -2      1908       348      2044      2143
 -1       538    3    0    2
 -2       655       726      3297      3303
 -1       539    3    0    1
 -2      3001       686      3715      3748
 -1       540    3    0    2
 -2       649      1282      2980      2984
 -1       541    3    0    1
 -2      1704      1666      1747      1871
 -1       542    3    0    1
 -2      2639      2645      2684      3714
 -1       543    3    0    1
 -2       213       233      1728      1898
 -1       544    3    0    1
 -2      3088      3726      3745      3851
 -1       545    3    0    2
 -2       928      2537      2540      2547
 -1       546    3    0    2
 -2      1538      2264      1537      3287
 -1       547    3    0    2
 -2      3251      1549      1550      3257
 -1       548    3    0    1
 -2      1811       679       910      2598
 -1       549    3    0    1
 -2      1942      2046      1606      3861
 -1       550    3    0    2
 -2      2825      2313      1211      2826
 -1       551    3    0    1
 -2       328       539      1764      1832
 -1       552    3    0    1
 -2       665       628      1794      2131
 -1       553    3    0    1
 -2        50       339       376      2104
 -1       554    3    0    1
 -2       213       486       472      1728
 -1       555    3    0    1
 -2      2666      3772      3860      3911
 -1       556    3    0    1
 -2      3812        65      3857      3635
 -1       557    3    0    1
 -2       633      1165      2762      3891
 -1       558    3    0    1
 -2       236       490      1769      1787
 -1       559    3    0    2
 -2      1457       103      3098      3099
 -1       560    3    0    1
 -2       224      1699      1723      1848
 -1       561    3    0    1
 -2      1827      1816      1872      3277
 -1       562    3    0    1
 -2      3487      3559      3579      3869
 -1       563    3    0    2
 -2      2460      2325      1387      1388
 -1       564    3    0    2
 -2       710      2444      2445      1635
 -1       565    3    0    1
 -2      1639      1655      3925      3679
 -1       566    3    0    1
 -2      1693      1721      1781      2155
 -1       567    3    0    1
 -2      1749       660      1065      1277
 -1       568    3    0    1
 -2      1742      1709      1839      1860
 -1       569    3    0    1
 -2      2158      2204      2222      2355
 -1       570    3    0    1
 -2      3333      2194      3372      3736
 -1       571    3    0    2
 -2      2325      1582      2459      2326
 -1       572    3    0    1
 -2      1709      1669      1859      1860
 -1       573    3    0    2
 -2      2352      2254       929      2255
 -1       574    3    0    1
 -2      2058      2193      1473      3849
 -1       575    3    0    1
 -2      1897      1691      3497      3498
 -1       576    3    0    1
 -2       658      1890      2749      1263
 -1       577    3    0    2
 -2      2274       400      2275      2298
 -1       578    3    0    1
 -2      1771       198      1844      2020
 -1       579    3    0    1
 -2      2261       526      3390      3765
 -1       580    3    0    2
 -2      2467       380      2473      1132
 -1       581    3    0    1
 -2      2149      2158      2204      2222
 -1       582    3    0    1
 -2       475       217      1821      1868
 -1       583    3    0    1
 -2       351       229      1719      1745
 -1       584    3    0    1
 -2      1814       543      1815      1842
 -1       585    3    0    1
 -2      1754      1748      2157      2216
 -1       586    3    0    1
 -2       458       203       204      1892
 -1       587    3    0    2
 -2       427      2235      2236      2432
 -1       588    3    0    1
 -2      3351      1372      1620      3771
 -1       589    3    0    2
 -2      2879      2878      2880      2888
 -1       590    3    0    2
 -2       248       312      2829      1603
 -1       591    3    0    2
 -2      2314      2806      2810      2815
 -1       592    3    0    2
 -2      2899      1237      2902      2910
 -1       593    3    0    1
 -2       114      1251      2855      3768
 -1       594    3    0    2
 -2      2434      2435      2605      1202
 -1       595    3    0    1
 -2      1695      1739      2008      2088
 -1       596    3    0    1
 -2       512      1676      2054      1573
 -1       597    3    0    1
 -2       667      1436      3080      3697
 -1       598    3    0    2
 -2      2538      2539      2542      2551
 -1       599    3    0    2
 -2       436      2225      2530      2531
 -1       600    3    0    1
 -2      2972      2967      3720      3767
 -1       601    3    0    2
 -2      1455      3098      3099      3101
 -1       602    3    0    1
 -2       465       207       464      1684
 -1       603    3    0    1
 -2      1680      1747      1704      1666
 -1       604    3    0    1
 -2       114      3768      3879      3922
 -1       605    3    0    1
 -2      2005      1809      2014      1507
 -1       606    3    0    1
 -2      3775      3466      3896      3915
 -1       607    3    0    1
 -2       227       358       239      2044
 -1       608    3    0    1
 -2      1728      1701      1883      1898
 -1       609    3    0    1
 -2       695      3775      3663      3915
 -1       610    3    0    1
 -2      1743      2012      2103      2120
 -1       611    3    0    1
 -2         7       472       486      1991
 -1       612    3    0    2
 -2       402      1000      2514       780
 -1       613    3    0    2
 -2      2292      1343      1344      2955
 -1       614    3    0    2
 -2      2846      2847      2851      2857
 -1       615    3    0    1
 -2      1666      1717      1747      1871
 -1       616    3    0    1
 -2      3400      3683      3879      3922
 -1       617    3    0    2
 -2      2266      2267      2642      2645
 -1       618    3    0    1
 -2      2010      3271      3784      3507
 -1       619    3    0    2
 -2       745      1126      2850      2854
 -1       620    3    0    1
 -2      1809      2005      3377      3564
 -1       621    3    0    1
 -2       199       450       200      2117
 -1       622    3    0    2
 -2      2281      2280      2749      1263
 -1       623    3    0    1
 -2      2221       703      2498      3419
 -1       624    3    0    1
 -2      2995      3536      3866      3920
 -1       625    3    0    1
 -2      1720      1784      1802      1868
 -1       626    3    0    2
 -2       509      1336      2456      1335
 -1       627    3    0    1
 -2      2109      2151      2159      2206
 -1       628    3    0    2
 -2       728       663      1583      3410
 -1       629    3    0    2
 -2      2280       380      1555      2473
 -1       630    3    0    2
 -2      2376      2375       905      3315
 -1       631    3    0    2
 -2      1209      2313      2808      2812
 -1       632    3    0    1
 -2      3705      3322      3777      3834
 -1       633    3    0    2
 -2      3256      3258      1553      1554
 -1       634    3    0    1
 -2      3260      3420      3737      3479
 -1       635    3    0    1
 -2       644      1792      2141      2210
 -1       636    3    0    1
 -2       216      1814      1815      1862
 -1       637    3    0    2
 -2      2338      3009       895      3010
 -1       638    3    0    2
 -2       639      2440      2607      2608
 -1       639    3    0    1
 -2      1712      1705      1981      3510
 -1       640    3    0    1
 -2      3405      3335      3812      3857
 -1       641    3    0    1
 -2      1861      1679      1941      2105
 -1       642    3    0    2
 -2      2512      2307       700      2513
 -1       643    3    0    2
 -2       367      1536      2416       598
 -1       644    3    0    1
 -2        61       330       383      1933
 -1       645    3    0    1
 -2       211       487       234      1975
 -1       646    3    0    2
 -2      3071      1374      3077      3081
 -1       647    3    0    2
 -2       681      1468      1467      2801
 -1       648    3    0    1
 -2      1727      1715      1965      2164
 -1       649    3    0    1
 -2       244      1811      1613      3568
 -1       650    3    0    1
 -2       647      1110      3766      3878
 -1       651    3    0    1
 -2       384      2783      3124      3799
 -1       652    3    0    1
 -2      1801      1938      2005      2064
 -1       653    3    0    1
 -2       323       195      1916      2023
 -1       654    3    0    1
 -2      2801       681      3682      1467
 -1       655    3    0    1
 -2      1543      3250      1548      3737
 -1       656    3    0    1
 -2      1701      1898      1904      1919
 -1       657    3    0    1
 -2      1713      1663      1734      1956
 -1       658    3    0    1
 -2      1681      1686      1843      1984
 -1       659    3    0    1
 -2      2518      2522      2523      3843
 -1       660    3    0    1
 -2      1163      2758      2767      3891
 -1       661    3    0    1
 -2      1760      1674      2008      2173
 -1       662    3    0    1
 -2       346       225      1753      1772
 -1       663    3    0    1
 -2      3538      2995      3866      3641
 -1       664    3    0    2
 -2       635      2321      2353      2354
 -1       665    3    0    1
 -2      1696      1795      1967      1979
 -1       666    3    0    1
 -2      1759      1907      1947      2002
 -1       667    3    0    1
 -2      3744      1924      3807      3840
 -1       668    3    0    1
 -2       254       226      1786      1866
 -1       669    3    0    1
 -2      1665      1672      1828      2114
 -1       670    3    0    1
 -2      2753      3000      3425      3744
 -1       671    3    0    1
 -2       224       507       247      1723
 -1       672    3    0    2
 -2      2938       425       822      2941
 -1       673    3    0    1
 -2       482        22      1788      1793
 -1       674    3    0    1
 -2      1671       208      1680      1725
 -1       675    3    0    2
 -2      1206      1205      3073      3079
 -1       676    3    0    1
 -2      1707      1677      1768      1779
 -1       677    3    0    1
 -2       359       231       353      2083
 -1       678    3    0    1
 -2      2926       689      3691      3723
 -1       679    3    0    2
 -2      3082      2343      3083      3084
 -1       680    3    0    1
 -2      1669      1803      1870      3337
 -1       681    3    0    1
 -2      3068      1205      3694      3697
 -1       682    3    0    2
 -2      3078       434      1441      1442
 -1       683    3    0    1
 -2      3016      2623      3022      3695
 -1       684    3    0    1
 -2      1853       664      2099      1496
 -1       685    3    0    1
 -2      2559      2561      3700      3712
 -1       686    3    0    1
 -2       199       200      1854      2117
 -1       687    3    0    1
 -2       356      1784      1868      1914
 -1       688    3    0    1
 -2       371      2138      2211      1537
 -1       689    3    0    2
 -2       315       281      2459      1581
 -1       690    3    0    2
 -2      2462      2461      1612       378
 -1       691    3    0    2
 -2       436      1338      2530      1337
 -1       692    3    0    1
 -2      1959      3426      3871      3872
 -1       693    3    0    2
 -2      2939       425      2941      2946
 -1       694    3    0    1
 -2      1695      1674      1760      1805
 -1       695    3    0    1
 -2      1044       401      3512      3804
 -1       696    3    0    1
 -2      1768      1707      1845      2123
 -1       697    3    0    1
 -2       899      1087      3795      3848
 -1       698    3    0    2
 -2       149       903       904      1509
 -1       699    3    0    2
 -2       272       876       293      3025
 -1       700    3    0    1
 -2      1869      2087      3003      1644
 -1       701    3    0    1
 -2      1750      1775      1780      1900
 -1       702    3    0    2
 -2      2879      2878      2886      2889
 -1       703    3    0    1
 -2      1759      1861      1907      3432
 -1       704    3    0    1
 -2      2758      1064      2767      3693
 -1       705    3    0    1
 -2       262      1927      1389      2996
 -1       706    3    0    2
 -2       854       853      3047      3061
 -1       707    3    0    1
 -2      1726      1769      1787      2021
 -1       708    3    0    2
 -2      1604      2607      2608       639
 -1       709    3    0    1
 -2      1880      1790      1975      2164
 -1       710    3    0    2
 -2       696      2694      2697      2698
 -1       711    3    0    1
 -2      1682      1719      1745      2143
 -1       712    3    0    2
 -2       798       670      2377      2385
 -1       713    3    0    2
 -2       943       944      2960      2961
 -1       714    3    0    2
 -2       252      2452      1623      1624
 -1       715    3    0    1
 -2      1838      1847      1882      2027
 -1       716    3    0    1
 -2      1694      1800      1832      2176
 -1       717    3    0    1
 -2       472       213      1728      1898
 -1       718    3    0    1
 -2      1732      1679      1837      1852
 -1       719    3    0    1
 -2      1669      1709      1859      1870
 -1       720    3    0    1
 -2      2103      2120      2214      2224
 -1       721    3    0    1
 -2      3702      2018      3815      3893
 -1       722    3    0    1
 -2       513       253      1850      1877
 -1       723    3    0    2
 -2       393      1504      3195      1503
 -1       724    3    0    1
 -2      1825       364      1541      3393
 -1       725    3    0    1
 -2      2482      2481      3748      3769
 -1       726    3    0    1
 -2       381      1969      3729      3730
 -1       727    3    0    2
 -2       785      2522      2524      2527
 -1       728    3    0    1
 -2      3399      2006      3546      3914
 -1       729    3    0    2
 -2      2233       307      2452      2453
 -1       730    3    0    1
 -2      1704      1747      1905      1933
 -1       731    3    0    1
 -2      3064      2121      3714      3868
 -1       732    3    0    1
 -2      3338      1929      3707      3726
 -1       733    3    0    1
 -2       229       494       482      1745
 -1       734    3    0    2
 -2      2530      2436      1128      2437
 -1       735    3    0    1
 -2      2109      2998      3774      3526
 -1       736    3    0    1
 -2      3239      3240      3250      3704
 -1       737    3    0    1
 -2      1535      2442      2210      2406
 -1       738    3    0    2
 -2      2396      2397      2941      2952
 -1       739    3    0    2
 -2       995       996      2414      3286
 -1       740    3    0    2
 -2      2280      1556       380      2281
 -1       741    3    0    2
 -2       588      2707      2804      1316
 -1       742    3    0    2
 -2      1178      1476      3140      1177
 -1       743    3    0    1
 -2      1753       346      1772      1855
 -1       744    3    0    2
 -2      2597      2381       768      2382
 -1       745    3    0    1
 -2      1676       512      2408      1573
 -1       746    3    0    1
 -2       271      2016      2328      3117
 -1       747    3    0    2
 -2       940      2274       400      2275
 -1       748    3    0    1
 -2      2163      1992      2249      1275
 -1       749    3    0    1
 -2       518       230       352      1937
 -1       750    3    0    1
 -2      1747      1704      1832      1933
 -1       751    3    0    1
 -2      1525       168      3222      3852
 -1       752    3    0    1
 -2       486       213       233      1728
 -1       753    3    0    2
 -2      2327      2328      3116      1579
 -1       754    3    0    2
 -2      2260      2261      2906      2909
 -1       755    3    0    1
 -2      1385      1917      1968      3773
 -1       756    3    0    1
 -2      2195       865      2386      3865
 -1       757    3    0    1
 -2      1819      3571      3856      3620
 -1       758    3    0    2
 -2      2581      2586      2590      2591
 -1       759    3    0    1
 -2      1734      1663      1945      1956
 -1       760    3    0    1
 -2      1710      1707      1768      1779
 -1       761    3    0    1
 -2       220       554       285      1822
 -1       762    3    0    1
 -2       440       193       321      1735
 -1       763    3    0    1
 -2      1679      1759      1834      1852
 -1       764    3    0    1
 -2      1678      1891      1921      1932
 -1       765    3    0    1
 -2      1687      1681      1753      1906
 -1       766    3    0    1
 -2      1929      3338      3707      3867
 -1       767    3    0    1
 -2      1782      1686      1843      2012
 -1       768    3    0    2
 -2      1071      2349      1072      2785
 -1       769    3    0    1
 -2       415      3683      3734      3922
 -1       770    3    0    1
 -2      2264      2211      1537      3287
 -1       771    3    0    1
 -2        11       472      1991      1998
 -1       772    3    0    1
 -2       361       501      2161      1648
 -1       773    3    0    2
 -2      2784       546      1587      1588
 -1       774    3    0    2
 -2      3065      3067      3074      3077
 -1       775    3    0    1
 -2      1666      1671      1680      1725
 -1       776    3    0    2
 -2       708      2316      2691      2692
 -1       777    3    0    2
 -2      2747      2391       909      2392
 -1       778    3    0    1
 -2      1003        40      3684      3787
 -1       779    3    0    1
 -2       253       225      1772      1877
 -1       780    3    0    1
 -2      1813       149      2122       904
 -1       781    3    0    1
 -2      1955      2875      3007      3544
 -1       782    3    0    1
 -2      2134       404       953      2210
 -1       783    3    0    1
 -2      2645      1089      2649      3714
 -1       784    3    0    1
 -2      1932      1752      1991      1998
 -1       785    3    0    1
 -2      1767      1663      1822      1956
 -1       786    3    0    1
 -2      2802      1661      3719      3761
 -1       787    3    0    2
 -2      2625      2626      2749      1565
 -1       788    3    0    1
 -2      2732       413      3778      3839
 -1       789    3    0    1
 -2      1676      2340      2449      1573
 -1       790    3    0    2
 -2      2274       855      2407      2408
 -1       791    3    0    1
 -2      1743      1686      1753      1850
 -1       792    3    0    1
 -2      1167      1176      3744      3807
 -1       793    3    0    1
 -2      1789      2009      2049      3467
 -1       794    3    0    1
 -2       407      2024       919      2493
 -1       795    3    0    1
 -2      1763      1699      1829      2114
 -1       796    3    0    1
 -2      1411       651      3049      3721
 -1       797    3    0    1
 -2       366       995      2868      3380
 -1       798    3    0    1
 -2      1663      1710      1713      1734
 -1       799    3    0    1
 -2      1772      1753      1855      1866
 -1       800    3    0    1
 -2       427      1756      1809      2014
 -1       801    3    0    2
 -2      2849      2846      2853      2856
 -1       802    3    0    1
 -2      3464      2690      3521      3806
 -1       803    3    0    1
 -2      1975      1790      1980      2164
 -1       804    3    0    1
 -2       462       459      1950      2104
 -1       805    3    0    1
 -2      1687      1873      1833      1906
 -1       806    3    0    1
 -2      1952      3272      3345      3731
 -1       807    3    0    1
 -2      1693      2103      2214      2224
 -1       808    3    0    1
 -2      1261      3866      3641      3924
 -1       809    3    0    1
 -2       220       337      1945      1956
 -1       810    3    0    2
 -2      2450      2757      2760      2764
 -1       811    3    0    1
 -2      2081        72       837       901
 -1       812    3    0    1
 -2       646      2010      2086      2144
 -1       813    3    0    1
 -2      1913       517      2030      2037
 -1       814    3    0    1
 -2       218       476      1768      1845
 -1       815    3    0    2
 -2      2563      2558      2565      2572
 -1       816    3    0    1
 -2      1783      1708      1841      2104
 -1       817    3    0    1
 -2      1779      1710      1826      1931
 -1       818    3    0    1
 -2      2751      2708      3173      1648
 -1       819    3    0    2
 -2      2233       782      2442      2443
 -1       820    3    0    1
 -2       376       221       263      2071
 -1       821    3    0    1
 -2      2369       668      3008      3745
 -1       822    3    0    1
 -2      1830      1760      1921      2022
 -1       823    3    0    2
 -2      2233      2443       953       954
 -1       824    3    0    1
 -2       514        86        87      1855
 -1       825    3    0    1
 -2      1341      2978       430      1973
 -1       826    3    0    1
 -2       328      1764      1800      1832
 -1       827    3    0    1
 -2       219       490       236      1787
 -1       828    3    0    1
 -2      1790      1904      1919      1980
 -1       829    3    0    1
 -2      1708      1783      1901      2201
 -1       830    3    0    2
 -2      2519       945       946      2520
 -1       831    3    0    1
 -2       507         9        51      1723
 -1       832    3    0    1
 -2      2061      2336      2828      1595
 -1       833    3    0    1
 -2      1703      1759      1834      2002
 -1       834    3    0    2
 -2      2316      1068      2534      2315
 -1       835    3    0    1
 -2      1703      1764      2108      2198
 -1       836    3    0    2
 -2      2832      2830      1241      2838
 -1       837    3    0    1
 -2         2       354      1857      1918
 -1       838    3    0    1
 -2       939      2274       364      3393
 -1       839    3    0    2
 -2      2848      2846      2852      2856
 -1       840    3    0    1
 -2      1898       329      1904      1919
 -1       841    3    0    1
 -2       278      3234      3476      3562
 -1       842    3    0    1
 -2      1301      2203      3201      3462
 -1       843    3    0    1
 -2      1812       641      2035      2112
 -1       844    3    0    1
 -2      3695       272      3539      3908
 -1       845    3    0    1
 -2      1712      1726      1769      1787
 -1       846    3    0    2
 -2      2280      2281      2472      1263
 -1       847    3    0    1
 -2       630      2028      2102      3658
 -1       848    3    0    2
 -2      1473      1474      3144      3145
 -1       849    3    0    1
 -2      2806       678      2812      3717
 -1       850    3    0    2
 -2      1135      2722      2724      2725
 -1       851    3    0    2
 -2       593      2239      2411      1236
 -1       852    3    0    2
 -2      1024       725      2551      2552
 -1       853    3    0    2
 -2      2307       700       831      1571
 -1       854    3    0    1
 -2      3094      3105      3688      3706
 -1       855    3    0    1
 -2      1155        33      3138      3757
 -1       856    3    0    1
 -2      1810      3516      3517      3618
 -1       857    3    0    1
 -2       966      2584      2586      3684
 -1       858    3    0    1
 -2       540      1684      1747      1905
 -1       859    3    0    2
 -2       653      2960      2961      2966
 -1       860    3    0    1
 -2        80        81       474      1842
 -1       861    3    0    1
 -2       220      1767      1822      1945
 -1       862    3    0    1
 -2       229      1719      1745      1788
 -1       863    3    0    2
 -2      2938       425      2939      1349
 -1       864    3    0    2
 -2      3012      3015      3024      3025
 -1       865    3    0    1
 -2      2196       395      3406      1642
 -1       866    3    0    1
 -2      1662      1666      1717      1770
 -1       867    3    0    2
 -2      2693      2871       261      2694
 -1       868    3    0    1
 -2       383       214       274      1933
 -1       869    3    0    1
 -2      1691      1706      1922      2067
 -1       870    3    0    1
 -2      2751       395      3173      1642
 -1       871    3    0    1
 -2      1993      1685      2110      2149
 -1       872    3    0    1
 -2      1684      1680      1747      1905
 -1       873    3    0    1
 -2      1800      1703      2108      2168
 -1       874    3    0    1
 -2      1956       337        84       391
 -1       875    3    0    1
 -2      1197       634      2792      3682
 -1       876    3    0    1
 -2       198       446      1771      1844
 -1       877    3    0    1
 -2      2151      1993      2159      2206
 -1       878    3    0    2
 -2       646      1598      2711      1597
 -1       879    3    0    1
 -2      1996       669      2003      1429
 -1       880    3    0    1
 -2        74         8      1848      1892
 -1       881    3    0    2
 -2      2238      2630      2631      2632
 -1       882    3    0    1
 -2       285       220      1822      1956
 -1       883    3    0    1
 -2      1680       208      1684      1725
 -1       884    3    0    1
 -2      1728      1898      1932      1998
 -1       885    3    0    1
 -2       989       844      2500      3736
 -1       886    3    0    2
 -2      2432      2236      1495      2235
 -1       887    3    0    2
 -2       645       747      2831      2835
 -1       888    3    0    1
 -2      1686      1743      2012      2103
 -1       889    3    0    2
 -2       607       508      2712      1605
 -1       890    3    0    2
 -2      2313      2314      1210      2825
 -1       891    3    0    1
 -2      1748      1740      2157      2216
 -1       892    3    0    1
 -2       153      3267      3865      3633
 -1       893    3    0    1
 -2      1776      1677      1779      1826
 -1       894    3    0    1
 -2      1668      1682      1887      1962
 -1       895    3    0    2
 -2       648      2463      2622      2623
 -1       896    3    0    1
 -2       444       323      1916      1918
 -1       897    3    0    1
 -2       461         9      1699      1723
 -1       898    3    0    1
 -2       452      2007       455      1998
 -1       899    3    0    1
 -2      1692      1771      1901      1911
 -1       900    3    0    1
 -2      1737      1673      1839      2155
 -1       901    3    0    1
 -2      3751      1944      3790      3791
 -1       902    3    0    1
 -2      1029      1032      3533      3861
 -1       903    3    0    1
 -2       235      1784      1821      1868
 -1       904    3    0    1
 -2      2361      2360      2364      3707
 -1       905    3    0    2
 -2      1023      1024      2551      2552
 -1       906    3    0    2
 -2       125        37       923      2789
 -1       907    3    0    2
 -2      2627      2633      2634      2637
 -1       908    3    0    2
 -2      1077      1078      2641      2665
 -1       909    3    0    2
 -2       650      2620      2621      1559
 -1       910    3    0    2
 -2      2524       785      2527      2528
 -1       911    3    0    2
 -2       364       601      2339      2407
 -1       912    3    0    1
 -2      1727      1790      1880      2164
 -1       913    3    0    1
 -2      1907      1861      1941      3432
 -1       914    3    0    1
 -2      1193       551      3606      3923
 -1       915    3    0    1
 -2      1677      1707      1776      1779
 -1       916    3    0    1
 -2      1957      1727      1965      1997
 -1       917    3    0    2
 -2      2693       295      2871      1626
 -1       918    3    0    1
 -2       271      2016      2174      2190
 -1       919    3    0    2
 -2      2335      2828      1604      2336
 -1       920    3    0    1
 -2      3351       676      3743      3771
 -1       921    3    0    1
 -2      2253      2186       266      1534
 -1       922    3    0    2
 -2      2606      2434      1467      1468
 -1       923    3    0    1
 -2      1780       369      2029      2116
 -1       924    3    0    1
 -2      1725      1671      1815      1876
 -1       925    3    0    2
 -2      2857      2859      1569      1570
 -1       926    3    0    1
 -2      2463      1259      3319      3890
 -1       927    3    0    1
 -2       425      1353      3799      3653
 -1       928    3    0    2
 -2      2228      2227      2605      1309
 -1       929    3    0    1
 -2       251      2304      2306      1449
 -1       930    3    0    2
 -2      2515      2514      2518      2522
 -1       931    3    0    1
 -2      3318       556      1996      3575
 -1       932    3    0    2
 -2      2262      1185      3166      1186
 -1       933    3    0    1
 -2       453       454      2007      2088
 -1       934    3    0    1
 -2      1737       559      1874      1989
 -1       935    3    0    1
 -2      1718      1675      1935      2032
 -1       936    3    0    1
 -2      1669      1709      1742      1860
 -1       937    3    0    2
 -2      2302      2701       373      2702
 -1       938    3    0    1
 -2       635       395      2161      1309
 -1       939    3    0    1
 -2      1695      1714      1867      2088
 -1       940    3    0    2
 -2      2880       839      2881      2883
 -1       941    3    0    1
 -2      1771      1692      1901      1967
 -1       942    3    0    2
 -2      2633      2627      2634      2665
 -1       943    3    0    1
 -2       205       459      1841      1950
 -1       944    3    0    2
 -2       690      2243      2422      2423
 -1       945    3    0    1
 -2      2094      1830      3464      3521
 -1       946    3    0    2
 -2      1267      1268      1527      3224
 -1       947    3    0    1
 -2      1797      1887      1963      2080
 -1       948    3    0    2
 -2      2719      2727      2730      2732
 -1       949    3    0    2
 -2      3592      2431      3593      3594
 -1       950    3    0    1
 -2      2235      1853      2272      1496
 -1       951    3    0    2
 -2      1279      1464      1280      3110
 -1       952    3    0    1
 -2      1665      1672      1699      1949
 -1       953    3    0    1
 -2      3454      3693      3740      1796
 -1       954    3    0    1
 -2      3024       272      3756      3811
 -1       955    3    0    2
 -2      3128      3127      3132      3133
 -1       956    3    0    2
 -2       649      2980      2982      2984
 -1       957    3    0    1
 -2      1691      1706      1733      1886
 -1       958    3    0    2
 -2      2255      2254       929      2869
 -1       959    3    0    1
 -2      1705      1746      1979      1981
 -1       960    3    0    2
 -2      2296       317      2935      2936
 -1       961    3    0    1
 -2      1879       642      1999      1015
 -1       962    3    0    1
 -2      1265      3241      3257      3704
 -1       963    3    0    1
 -2       369       481      1780      2029
 -1       964    3    0    1
 -2        32       358      2051      2129
 -1       965    3    0    1
 -2      1665      1699      1763      2114
 -1       966    3    0    2
 -2      2321       635      2353      1575
 -1       967    3    0    1
 -2      1700      1831      1861      1941
 -1       968    3    0    1
 -2      1695      1674      1714      2008
 -1       969    3    0    2
 -2      2252      2253      2871      1533
 -1       970    3    0    1
 -2      2069      2186      2253      1534
 -1       971    3    0    2
 -2      2938      2942      2945      2948
 -1       972    3    0    2
 -2      2695      2379      1612      2696
 -1       973    3    0    1
 -2      1662       191      1818      1885
 -1       974    3    0    2
 -2       389      1068      2534      1067
 -1       975    3    0    1
 -2      1786      1687      1855      1906
 -1       976    3    0    1
 -2      1755      1798      1836      1871
 -1       977    3    0    2
 -2      2396       384      2426      2427
 -1       978    3    0    1
 -2      1756       276      1809      1344
 -1       979    3    0    1
 -2      3788       861      3889      3901
 -1       980    3    0    1
 -2       429      2942      2950      3808
 -1       981    3    0    1
 -2      1740      1698      1810      1884
 -1       982    3    0    1
 -2       326        10      2101      2108
 -1       983    3    0    1
 -2      1924      3193      3807      3840
 -1       984    3    0    2
 -2       251      1334      1333      2329
 -1       985    3    0    2
 -2       251      2304      2329      2330
 -1       986    3    0    1
 -2      3185      1968      3695      3649
 -1       987    3    0    2
 -2       674      2387      2388      2510
 -1       988    3    0    2
 -2       660      1278      2271       719
 -1       989    3    0    2
 -2       427       811      2296      2433
 -1       990    3    0    1
 -2      1934      1897      1944      3498
 -1       991    3    0    2
 -2       501      2227      2605      2606
 -1       992    3    0    1
 -2      2434      2787      2797      3682
 -1       993    3    0    2
 -2      3066      3065      3070      3072
 -1       994    3    0    1
 -2      1973       666      1608      3402
 -1       995    3    0    1
 -2      2886      2419      2895      3786
 -1       996    3    0    1
 -2      1719      1683      1788      1939
 -1       997    3    0    1
 -2       345       224      1699      1723
 -1       998    3    0    2
 -2      3134      3139      3141      3142
 -1       999    3    0    1
 -2       485        46        83      1930
 -1      1000    3    0    1
 -2      2420      2144      2711      1597
 -1      1001    3    0    1
 -2      1715      1727      1880      2164
 -1      1002    3    0    2
 -2       590       361      2805      1647
 -1      1003    3    0    1
 -2      3189      2395      3577      3909
 -1      1004    3    0    2
 -2      2622      3017      3022      3026
 -1      1005    3    0    1
 -2       959      1357      2949      3812
 -1      1006    3    0    1
 -2      2628      2630      2656      3724
 -1      1007    3    0    1
 -2      2134       251      1449      3426
 -1      1008    3    0    2
 -2       284      2436      2457      2458
 -1      1009    3    0    2
 -2      2787      2786      2788      2798
 -1      1010    3    0    2
 -2      3026       735      3027      3031
 -1      1011    3    0    2
 -2      2339      2449      1541      2340
 -1      1012    3    0    1
 -2       261      2187      3398      1646
 -1      1013    3    0    2
 -2      2609      2532      1272      2610
 -1      1014    3    0    1
 -2      1994       259      2331      2977
 -1      1015    3    0    2
 -2       969       731      2541      2546
 -1      1016    3    0    2
 -2      3288       857       173       858
 -1      1017    3    0    2
 -2      2712      2378      1609      1610
 -1      1018    3    0    2
 -2       600      2560      2570      2574
 -1      1019    3    0    1
 -2       476      1768      1845      2123
 -1      1020    3    0    1
 -2      2866      3064      3734      3868
 -1      1021    3    0    2
 -2       439       977       978      2485
 -1      1022    3    0    1
 -2       414      1927      1307      2996
 -1      1023    3    0    2
 -2      2440      2712      1602      2713
 -1      1024    3    0    2
 -2      2415       922      2528       921
 -1      1025    3    0    1
 -2        28       489        48      1875
 -1      1026    3    0    1
 -2      1909       284      2106      3389
 -1      1027    3    0    1
 -2      1688      1775      1780      2037
 -1      1028    3    0    1
 -2        10      2101      2108      2198
 -1      1029    3    0    2
 -2      2446      2321      1311      2322
 -1      1030    3    0    2
 -2      2428      2429      2691      1332
 -1      1031    3    0    2
 -2      2915      1158      2916      2927
 -1      1032    3    0    2
 -2      2300      2653      1307      1308
 -1      1033    3    0    2
 -2       754      2655      2662      2665
 -1      1034    3    0    2
 -2      2449      2448      1541       399
 -1      1035    3    0    2
 -2      2254      2869      1013      2870
 -1      1036    3    0    1
 -2       533        78      1837      1852
 -1      1037    3    0    2
 -2        43      1482      3155       143
 -1      1038    3    0    1
 -2      2196       244      3173      1642
 -1      1039    3    0    1
 -2      2111       500      2183      1228
 -1      1040    3    0    1
 -2       228       369       481      1780
 -1      1041    3    0    1
 -2      2708      2161      3173      1648
 -1      1042    3    0    1
 -2      1968      3649      3659      3908
 -1      1043    3    0    1
 -2       225       513       479      1877
 -1      1044    3    0    1
 -2       506      1730      1159      3423
 -1      1045    3    0    2
 -2       846      2264      2265      3286
 -1      1046    3    0    2
 -2       401      1040      1039      2579
 -1      1047    3    0    2
 -2      2256      2585      2589      2592
 -1      1048    3    0    2
 -2      2876      2420      1120      2421
 -1      1049    3    0    1
 -2      1668      1835      1847      2027
 -1      1050    3    0    2
 -2      2452      2387       941      2453
 -1      1051    3    0    2
 -2       884       883      2361      2367
 -1      1052    3    0    1
 -2      3587      2509      3601      3874
 -1      1053    3    0    1
 -2       243      2245      2247      1395
 -1      1054    3    0    1
 -2       455      2007       201       202
 -1      1055    3    0    1
 -2       253      1772      1850      1877
 -1      1056    3    0    2
 -2       860      2258      2271       859
 -1      1057    3    0    1
 -2      1698      1722      1784      1914
 -1      1058    3    0    2
 -2       266      2253      1533      2871
 -1      1059    3    0    1
 -2      2187       266      2253      2186
 -1      1060    3    0    2
 -2      1073      1074      3256      1553
 -1      1061    3    0    1
 -2       488       234      1790      1975
 -1      1062    3    0    1
 -2      1061       503      3407      3848
 -1      1063    3    0    1
 -2         2       519       354      1918
 -1      1064    3    0    1
 -2      1078      2641      3879      3922
 -1      1065    3    0    1
 -2       518       352      1930      1937
 -1      1066    3    0    2
 -2       408      2810      1217      1218
 -1      1067    3    0    2
 -2       592      2313      2825      2826
 -1      1068    3    0    2
 -2      1546      1074      1545      3253
 -1      1069    3    0    1
 -2      1699       461      1723      1950
 -1      1070    3    0    1
 -2      3701      3285      3561      3832
 -1      1071    3    0    2
 -2      2452      2233       953       954
 -1      1072    3    0    1
 -2      1710      1713      1734      1779
 -1      1073    3    0    1
 -2       890      2364      2370      3707
 -1      1074    3    0    1
 -2      1883      1728      1898      1932
 -1      1075    3    0    1
 -2       536        10        60      2101
 -1      1076    3    0    1
 -2      3296      3307      3705      3818
 -1      1077    3    0    1
 -2      1668      1847      1903      2027
 -1      1078    3    0    1
 -2      1790       487      1880      1975
 -1      1079    3    0    2
 -2      3156      1480      3162      3169
 -1      1080    3    0    1
 -2      2984      2983      2994      3702
 -1      1081    3    0    1
 -2      1078        36      2641      3922
 -1      1082    3    0    1
 -2      2056       258       941      2976
 -1      1083    3    0    1
 -2      3688       424      1453      3827
 -1      1084    3    0    1
 -2      2628      2633      2636      3683
 -1      1085    3    0    1
 -2      3801      3647      3670      3680
 -1      1086    3    0    1
 -2      2440      1942      2713      1601
 -1      1087    3    0    1
 -2       185      1375      3815      3893
 -1      1088    3    0    1
 -2      1750      1823      1824      1873
 -1      1089    3    0    1
 -2      1834      1837      1852      2101
 -1      1090    3    0    1
 -2      1773      1762      2118      3502
 -1      1091    3    0    1
 -2      1775      1750      1780      2029
 -1      1092    3    0    1
 -2      1823      1786      1824      1873
 -1      1093    3    0    1
 -2        56      3713      3754      3857
 -1      1094    3    0    2
 -2      2604      2603      2806      2809
 -1      1095    3    0    2
 -2      2604      2603      2814      2816
 -1      1096    3    0    1
 -2      1087      3795      3848      3862
 -1      1097    3    0    1
 -2        28       490       336      1875
 -1      1098    3    0    2
 -2      3152      3154      3155      3167
 -1      1099    3    0    2
 -2       243      1396      2446      1395
 -1      1100    3    0    1
 -2      1522       433      3863      3667
 -1      1101    3    0    2
 -2      3094      1453      3105      3108
 -1      1102    3    0    2
 -2      2692      2691      1540       806
 -1      1103    3    0    1
 -2      2087       268      3003      1644
 -1      1104    3    0    1
 -2      3219      3208      3701      3832
 -1      1105    3    0    1
 -2       369       481      2029      2116
 -1      1106    3    0    2
 -2       603       365      2562      2566
 -1      1107    3    0    1
 -2      1367      2466      2972      3767
 -1      1108    3    0    1
 -2      1395      2183      3328      3406
 -1      1109    3    0    1
 -2      1661      3743      3771      3749
 -1      1110    3    0    1
 -2       446      1771      1844      1925
 -1      1111    3    0    1
 -2       358       227       349      2044
 -1      1112    3    0    1
 -2      1996      1738      2003      3472
 -1      1113    3    0    1
 -2      3721      3151      3525      3892
 -1      1114    3    0    2
 -2      2234      2442      1505      1506
 -1      1115    3    0    1
 -2      1727      1702      1997      2164
 -1      1116    3    0    2
 -2      2461      2462      1294       378
 -1      1117    3    0    1
 -2      1957      1954      1997      2875
 -1      1118    3    0    1
 -2       352        83      1930      1937
 -1      1119    3    0    1
 -2      2096       421      2190      1638
 -1      1120    3    0    2
 -2       694       752      2897      2898
 -1      1121    3    0    2
 -2       537      2463      2772      2773
 -1      1122    3    0    1
 -2      1757      1755      1836      2064
 -1      1123    3    0    1
 -2      2916      2914      2922      3723
 -1      1124    3    0    2
 -2      1090      2647      2649      2651
 -1      1125    3    0    2
 -2      3043      3041      3047      3049
 -1      1126    3    0    2
 -2      1465       528      3109      3111
 -1      1127    3    0    1
 -2      1671      1666      1827      1725
 -1      1128    3    0    2
 -2      3117      2328      1583      1584
 -1      1129    3    0    1
 -2       481       228      1780      2029
 -1      1130    3    0    2
 -2      2243      2877      1389      1390
 -1      1131    3    0    1
 -2      1826      1744      1929      1931
 -1      1132    3    0    1
 -2      2822      1213      1222      3751
 -1      1133    3    0    1
 -2       248      1812      2112       905
 -1      1134    3    0    2
 -2       765      1473      3144       680
 -1      1135    3    0    2
 -2      1451      1452      3310      3311
 -1      1136    3    0    2
 -2      2424       716      2498      2503
 -1      1137    3    0    2
 -2      2939      2938      1349      2940
 -1      1138    3    0    2
 -2      2777       268      1643      1644
 -1      1139    3    0    1
 -2      2124        52      2205      3503
 -1      1140    3    0    1
 -2       543       474      1815      1842
 -1      1141    3    0    1
 -2      3097      1462      3106      3842
 -1      1142    3    0    1
 -2       218       282      1845      1977
 -1      1143    3    0    1
 -2      1677      1707      1862      2085
 -1      1144    3    0    1
 -2      1715       440      1735      2113
 -1      1145    3    0    2
 -2      3134      2614      3144      3145
 -1      1146    3    0    2
 -2      3585      2508      3587      3589
 -1      1147    3    0    1
 -2      1673      1737      1839      1874
 -1      1148    3    0    2
 -2      2700      2699      2735      2736
 -1      1149    3    0    2
 -2       650      2781      2782      3036
 -1      1150    3    0    2
 -2      3239       878      3251      3257
 -1      1151    3    0    2
 -2      2349      2611      1071      1072
 -1      1152    3    0    2
 -2      2555       567      2557      1577
 -1      1153    3    0    2
 -2      2760      2450      2769      2770
 -1      1154    3    0    2
 -2      2605      2228      1309      1310
 -1      1155    3    0    1
 -2       359        22        34      1793
 -1      1156    3    0    1
 -2      1672      1665      1763      2114
 -1      1157    3    0    1
 -2      1803      1767      1822      1870
 -1      1158    3    0    1
 -2        56      1364      3713      3857
 -1      1159    3    0    1
 -2       432      1987      2352      1387
 -1      1160    3    0    2
 -2      3034      3035      3036      1407
 -1      1161    3    0    1
 -2      1718      1675      1848      1858
 -1      1162    3    0    1
 -2        62        12       464      1684
 -1      1163    3    0    2
 -2       801       905       906      3315
 -1      1164    3    0    2
 -2       849       150       850      1016
 -1      1165    3    0    1
 -2      2319      2034      2449      1333
 -1      1166    3    0    1
 -2      2689      3111      3842      3927
 -1      1167    3    0    1
 -2       703      2221      1513      3419
 -1      1168    3    0    1
 -2      1947      2002      2009      2168
 -1      1169    3    0    1
 -2      1712      1696      1726      1979
 -1      1170    3    0    2
 -2      2879      2887      2888      2890
 -1      1171    3    0    1
 -2      1764       212      2108      2198
 -1      1172    3    0    1
 -2      1525       861      3788      3852
 -1      1173    3    0    1
 -2      1866       480        87       368
 -1      1174    3    0    1
 -2      3517      3516      3815      3618
 -1      1175    3    0    1
 -2      1717      1662      1770      1836
 -1      1176    3    0    1
 -2       705      1818       917      3277
 -1      1177    3    0    1
 -2      3537      2096      3649      3908
 -1      1178    3    0    1
 -2        27       492        29      1914
 -1      1179    3    0    2
 -2       544      1274      2754       562
 -1      1180    3    0    1
 -2      1698      1740      1748      1802
 -1      1181    3    0    1
 -2      1819      3856      3874      3646
 -1      1182    3    0    1
 -2      3451      1629      3759      3786
 -1      1183    3    0    2
 -2      2693      2694      2697      1625
 -1      1184    3    0    1
 -2       507       224       345      1723
 -1      1185    3    0    1
 -2      1761      1765      1851      1896
 -1      1186    3    0    1
 -2      2188      1792      1628      3414
 -1      1187    3    0    2
 -2      2236       427      2432      2433
 -1      1188    3    0    1
 -2      1836      1757      2064      1346
 -1      1189    3    0    1
 -2      2396      2160      3371      3808
 -1      1190    3    0    1
 -2       686       972      3715      3748
 -1      1191    3    0    1
 -2      1904      1701      1919      1980
 -1      1192    3    0    1
 -2        12      1680      1684      1905
 -1      1193    3    0    2
 -2       317       276      2935      1343
 -1      1194    3    0    1
 -2      1622      1493      3364      3743
 -1      1195    3    0    1
 -2      3514      3842      3914      3915
 -1      1196    3    0    1
 -2      1907      1777      2072      3408
 -1      1197    3    0    2
 -2      2474      3409      1585      3410
 -1      1198    3    0    1
 -2      1994       688      1233      2977
 -1      1199    3    0    1
 -2       355      1728      1898      1904
 -1      1200    3    0    1
 -2       474       216      1814      1815
 -1      1201    3    0    1
 -2      1717      1704      1747      1871
 -1      1202    3    0    2
 -2      2691      2316      1068      2692
 -1      1203    3    0    1
 -2      2033      3760      3785      3900
 -1      1204    3    0    1
 -2      1950      1708      2071      2104
 -1      1205    3    0    2
 -2       682       758      2354      1061
 -1      1206    3    0    2
 -2       387      2715      2716      3600
 -1      1207    3    0    1
 -2      1674      2018      2022      3893
 -1      1208    3    0    1
 -2      2875      3086      3345      3833
 -1      1209    3    0    1
 -2      1741      1778      1976      3318
 -1      1210    3    0    1
 -2        66      1589      3834      3651
 -1      1211    3    0    1
 -2      1689      1785      1918      2067
 -1      1212    3    0    2
 -2      2463      2464      2622      3027
 -1      1213    3    0    2
 -2      2449      2339      1541      2448
 -1      1214    3    0    1
 -2      2055      1993      2057      2182
 -1      1215    3    0    2
 -2       549      1130      1129      2272
 -1      1216    3    0    1
 -2       953      2442      2234      2210
 -1      1217    3    0    1
 -2      1820      1797      1908      2044
 -1      1218    3    0    1
 -2      2628      2656      3683      3724
 -1      1219    3    0    2
 -2      1091      1098      2650      1097
 -1      1220    3    0    2
 -2      2298       642      2299      1015
 -1      1221    3    0    2
 -2      2352      2351      1014       818
 -1      1222    3    0    1
 -2      1878      1923      2083      2172
 -1      1223    3    0    2
 -2      2623      2622      3017      3022
 -1      1224    3    0    2
 -2       258      2234      1505      1506
 -1      1225    3    0    2
 -2      2618      2617      1183      3056
 -1      1226    3    0    1
 -2      2396      2946      3124      3808
 -1      1227    3    0    1
 -2      1900      1750      2191      1697
 -1      1228    3    0    1
 -2       490        28        48      1875
 -1      1229    3    0    2
 -2      2498      2495      2503      2504
 -1      1230    3    0    1
 -2      3497       136      3500      3791
 -1      1231    3    0    1
 -2      1696      1726      1771      2020
 -1      1232    3    0    1
 -2      2130      2110      2149      2200
 -1      1233    3    0    2
 -2       681      1468      2801       761
 -1      1234    3    0    2
 -2      2338       891      2369      2372
 -1      1235    3    0    1
 -2      3241      3239      3257      3704
 -1      1236    3    0    2
 -2       670       798      2377      1231
 -1      1237    3    0    2
 -2      1074      3253      3256      3258
 -1      1238    3    0    1
 -2      1879      1999      2043      2054
 -1      1239    3    0    1
 -2      2007      2008      2088      2125
 -1      1240    3    0    1
 -2      1750      1697      1823      2191
 -1      1241    3    0    1
 -2       208       465      1680      1684
 -1      1242    3    0    1
 -2      1760      1678      1830      1921
 -1      1243    3    0    1
 -2      1765      1878      1939      1958
 -1      1244    3    0    2
 -2       974      2476      2482      2483
 -1      1245    3    0    1
 -2       246      2202      1057      3182
 -1      1246    3    0    1
 -2        63      1757      1798      1836
 -1      1247    3    0    2
 -2       994       993      2505      2507
 -1      1248    3    0    2
 -2      2362       881       887      2367
 -1      1249    3    0    1
 -2      1814      1707      1862      2100
 -1      1250    3    0    1
 -2      2024      2348       919      2493
 -1      1251    3    0    1
 -2      1732      1700      1831      1861
 -1      1252    3    0    1
 -2       466        80       463      1842
 -1      1253    3    0    1
 -2       559       288      1874      1989
 -1      1254    3    0    2
 -2        63      1345      1346      3289
 -1      1255    3    0    1
 -2      3241       701      3247      3704
 -1      1256    3    0    2
 -2       701       827      1265      3241
 -1      1257    3    0    1
 -2      2832      2831      2836      3903
 -1      1258    3    0    2
 -2      2242       521      1392      1391
 -1      1259    3    0    1
 -2      1702      1727      1965      2164
 -1      1260    3    0    1
 -2        16       554       338      2026
 -1      1261    3    0    1
 -2         8       458      1858      1892
 -1      1262    3    0    1
 -2      3466      2126      3896      3915
 -1      1263    3    0    1
 -2       468       534      1831      2105
 -1      1264    3    0    1
 -2       543       216       279      1814
 -1      1265    3    0    1
 -2      2787       634      2797      3682
 -1      1266    3    0    1
 -2      1745      1682      2143      2212
 -1      1267    3    0    1
 -2      2222      2219      2355      3326
 -1      1268    3    0    1
 -2       356       217       334      1868
 -1      1269    3    0    2
 -2      3068      3065      3073      3074
 -1      1270    3    0    2
 -2      2457      2436      1128      2458
 -1      1271    3    0    1
 -2      1838      1683      1847      1903
 -1      1272    3    0    1
 -2      2084      2181       924      3470
 -1      1273    3    0    2
 -2       398      2304      2311      2312
 -1      1274    3    0    1
 -2       268      1948      3003      1644
 -1      1275    3    0    1
 -2      1688      1913      2030      2037
 -1      1276    3    0    1
 -2      1771      1692      1844      1925
 -1      1277    3    0    2
 -2      2436      2458      1127      1128
 -1      1278    3    0    1
 -2      1666      1680      1736      1871
 -1      1279    3    0    1
 -2       355       213       329      1898
 -1      1280    3    0    1
 -2      1888       700      2308      1572
 -1      1281    3    0    1
 -2      1719      1682      1962      2143
 -1      1282    3    0    1
 -2      1861      1679      1907      1941
 -1      1283    3    0    1
 -2      2555      2475      1638      3474
 -1      1284    3    0    1
 -2      2110      1685      2130      2149
 -1      1285    3    0    1
 -2       329        24      1904      1919
 -1      1286    3    0    1
 -2       215       473      1722      1914
 -1      1287    3    0    1
 -2      2112       641      2376       905
 -1      1288    3    0    2
 -2      3092      3093      3094      3101
 -1      1289    3    0    1
 -2        20        32      2051      2129
 -1      1290    3    0    2
 -2       668       884      2359       803
 -1      1291    3    0    1
 -2       384      2427      3124      3371
 -1      1292    3    0    2
 -2      1650      1639      3585      3587
 -1      1293    3    0    1
 -2      3194      3205      3750      3440
 -1      1294    3    0    1
 -2       500      2111      2183      3090
 -1      1295    3    0    1
 -2      3797      3453      3879      3887
 -1      1296    3    0    1
 -2       554       220       338      1822
 -1      1297    3    0    1
 -2      1113        59      2988      3702
 -1      1298    3    0    1
 -2      3307       662      3705      3818
 -1      1299    3    0    1
 -2      1786      1687      1824      1866
 -1      1300    3    0    1
 -2       216      1814      1862      2100
 -1      1301    3    0    1
 -2        27       356       334      1868
 -1      1302    3    0    1
 -2      1724      1931      2137      3332
 -1      1303    3    0    2
 -2      1267      1532      3225      1531
 -1      1304    3    0    2
 -2      2436       436      2530      2531
 -1      1305    3    0    1
 -2      1662      1666      1736      1871
 -1      1306    3    0    1
 -2      1686      1681      1743      1753
 -1      1307    3    0    1
 -2      1473      3144       680      3849
 -1      1308    3    0    1
 -2       221       263      1911      1925
 -1      1309    3    0    1
 -2       161        69      3885      3901
 -1      1310    3    0    1
 -2      3257      1265      3704      3803
 -1      1311    3    0    2
 -2       741      2723      2729      2731
 -1      1312    3    0    2
 -2      1215      2814      2816      2818
 -1      1313    3    0    1
 -2       495        21       348      2212
 -1      1314    3    0    1
 -2       907       365      2561      3712
 -1      1315    3    0    1
 -2        84      1945      1956      1977
 -1      1316    3    0    1
 -2       226       368       480      1866
 -1      1317    3    0    1
 -2       905      2828      2376      2112
 -1      1318    3    0    1
 -2      2264      2211       845      2511
 -1      1319    3    0    1
 -2      1770      1736      1827      1885
 -1      1320    3    0    1
 -2      1799       323      1916      2023
 -1      1321    3    0    2
 -2      1114      1113      2985      2990
 -1      1322    3    0    1
 -2       112      2937      3793      3902
 -1      1323    3    0    1
 -2         7        11       472      1991
 -1      1324    3    0    1
 -2       230       517       483      1913
 -1      1325    3    0    2
 -2       623       541      3184      1571
 -1      1326    3    0    1
 -2      1954      1955      1964      1980
 -1      1327    3    0    1
 -2      1748        53      1754      2157
 -1      1328    3    0    1
 -2      3429      1983      3476      3562
 -1      1329    3    0    1
 -2      1711      2089      3844      3330
 -1      1330    3    0    2
 -2      2512      2294       700      2295
 -1      1331    3    0    1
 -2      1804       705      1818      1971
 -1      1332    3    0    2
 -2       402       780      2516      2517
 -1      1333    3    0    1
 -2      1781      1912      2803      3581
 -1      1334    3    0    2
 -2       624       787      2305      2311
 -1      1335    3    0    1
 -2      3655      3856      3671      3681
 -1      1336    3    0    1
 -2      2131      3450      3850      3916
 -1      1337    3    0    2
 -2      2377       508      2712      1609
 -1      1338    3    0    1
 -2      1702      1715      1965      2000
 -1      1339    3    0    1
 -2      1717        63      1798      1836
 -1      1340    3    0    1
 -2      2823      2818      3751      3792
 -1      1341    3    0    1
 -2        83      1791      1930      1937
 -1      1342    3    0    1
 -2      3162      3159      3760      3855
 -1      1343    3    0    2
 -2      2400      2399      2715      1341
 -1      1344    3    0    1
 -2      3704      3260      3737      3803
 -1      1345    3    0    1
 -2      1778      1741      2050      2093
 -1      1346    3    0    1
 -2      1995       702      2532      1273
 -1      1347    3    0    2
 -2      1472      1471      3140      1475
 -1      1348    3    0    1
 -2      1827      1671      1876      1885
 -1      1349    3    0    1
 -2      1720      1690      1821      1940
 -1      1350    3    0    1
 -2      3743      3350      3838      3361
 -1      1351    3    0    1
 -2      1764      1694      1800      1832
 -1      1352    3    0    1
 -2      1853      2015      2297      1011
 -1      1353    3    0    1
 -2       966       151      2584      3747
 -1      1354    3    0    2
 -2      2978      2400      1563      1564
 -1      1355    3    0    2
 -2      2436      2530      1128      2531
 -1      1356    3    0    2
 -2       944      2959      2961      2963
 -1      1357    3    0    1
 -2       357       215       332      1867
 -1      1358    3    0    2
 -2       512      2407      2408      1573
 -1      1359    3    0    1
 -2      2046      3176      3493      3861
 -1      1360    3    0    1
 -2       329       355      1898      1904
 -1      1361    3    0    1
 -2       136      1920       913      3792
 -1      1362    3    0    1
 -2      3444      1953      3634      3636
 -1      1363    3    0    1
 -2      1678      1728      1932      1991
 -1      1364    3    0    1
 -2      1758      1806      1843      1893
 -1      1365    3    0    2
 -2       605      2438      2455       977
 -1      1366    3    0    1
 -2      3715      3236      3424      3748
 -1      1367    3    0    2
 -2       315      2459      1191      1192
 -1      1368    3    0    1
 -2      1807      1711      2090      3180
 -1      1369    3    0    1
 -2       538       212       273      2198
 -1      1370    3    0    1
 -2      1889       187       869      2937
 -1      1371    3    0    1
 -2      2281      1890      3261      3446
 -1      1372    3    0    1
 -2      1801      1757      1346      2064
 -1      1373    3    0    1
 -2      1997      1957      2875      3345
 -1      1374    3    0    1
 -2      1887      1668      1962      1963
 -1      1375    3    0    2
 -2       258       942      2453       941
 -1      1376    3    0    1
 -2      2402      2698      1150      3711
 -1      1377    3    0    1
 -2      1702      1952      1957      1997
 -1      1378    3    0    2
 -2      2532      2754      1272      2755
 -1      1379    3    0    1
 -2      1718      1675      1858      1935
 -1      1380    3    0    1
 -2       499      1670      2167      2178
 -1      1381    3    0    1
 -2        39       479       513      1877
 -1      1382    3    0    2
 -2      2957      2956      2961      2968
 -1      1383    3    0    2
 -2      2940       959      2943      2944
 -1      1384    3    0    1
 -2      1847      1838      1903      2027
 -1      1385    3    0    1
 -2       328       539      1832      1933
 -1      1386    3    0    1
 -2      2187      2694      2698      1646
 -1      1387    3    0    1
 -2       698      3022      3027      3695
 -1      1388    3    0    2
 -2      2407      2339      1573      1574
 -1      1389    3    0    1
 -2      2162      2196      1575      3328
 -1      1390    3    0    1
 -2       452      2007      1739       201
 -1      1391    3    0    1
 -2      1750      1775      1900      2077
 -1      1392    3    0    1
 -2      1947      1703      2002      2168
 -1      1393    3    0    1
 -2       252      2134      3392      3401
 -1      1394    3    0    2
 -2      1255      2858      1256      2862
 -1      1395    3    0    1
 -2      1665      1699      1841      1949
 -1      1396    3    0    1
 -2      1753      1743      1850      1877
 -1      1397    3    0    1
 -2       323      1799      1916      1918
 -1      1398    3    0    1
 -2      1714      1722      1740      1884
 -1      1399    3    0    1
 -2      1689      1799      1857      1918
 -1      1400    3    0    1
 -2      2618      2755      3810      3892
 -1      1401    3    0    1
 -2      1688      1733      1775      2030
 -1      1402    3    0    1
 -2      1722      1698      1784      1802
 -1      1403    3    0    1
 -2      1710       170      1776      1826
 -1      1404    3    0    1
 -2      1822      1669      1870      2026
 -1      1405    3    0    1
 -2      1715      1727      1865      1880
 -1      1406    3    0    2
 -2      2333       692      2710      1599
 -1      1407    3    0    1
 -2      1662       191      1770       857
 -1      1408    3    0    1
 -2       336       490      1787      1875
 -1      1409    3    0    1
 -2      1799      1689      1916      1918
 -1      1410    3    0    1
 -2      1710      1776      1779      1826
 -1      1411    3    0    2
 -2       567      1578      1577      2555
 -1      1412    3    0    2
 -2      2565      1034      2573      2576
 -1      1413    3    0    1
 -2        87      1855       480      1866
 -1      1414    3    0    1
 -2      2161      1223      3379      3495
 -1      1415    3    0    1
 -2       642      1879      1999      2043
 -1      1416    3    0    1
 -2      1816      1827      1876      1885
 -1      1417    3    0    1
 -2       266      2186      2995      3569
 -1      1418    3    0    2
 -2      2739       529      2742      2745
 -1      1419    3    0    1
 -2      3705      3320      3480      3824
 -1      1420    3    0    1
 -2       435      1909      2106      3229
 -1      1421    3    0    1
 -2       371       521      2138      1391
 -1      1422    3    0    2
 -2       671      1602      1601      2608
 -1      1423    3    0    1
 -2       212       328      1764      1800
 -1      1424    3    0    1
 -2      1682      1668      1835      1847
 -1      1425    3    0    2
 -2       768      2382      1613      1614
 -1      1426    3    0    1
 -2      2183       502      2193       910
 -1      1427    3    0    1
 -2      1797      1887      1962      1963
 -1      1428    3    0    1
 -2      2028       497      2115      1470
 -1      1429    3    0    1
 -2      3805      2934      3825      3843
 -1      1430    3    0    2
 -2      2245       243      2446      1395
 -1      1431    3    0    1
 -2      1821      1787      1875      1940
 -1      1432    3    0    1
 -2      1912      1781      2093      3581
 -1      1433    3    0    1
 -2       474        81      1815      1842
 -1      1434    3    0    2
 -2       576      2701      2702      2864
 -1      1435    3    0    1
 -2       654      1888      2512      1053
 -1      1436    3    0    1
 -2      1694      1717      1798      1871
 -1      1437    3    0    2
 -2      2580      2586      2587      2591
 -1      1438    3    0    1
 -2         9       345      1699      1723
 -1      1439    3    0    1
 -2      1861      1700      1941      2140
 -1      1440    3    0    2
 -2       425      1350      1349      2938
 -1      1441    3    0    1
 -2       130      1197      2802      3761
 -1      1442    3    0    1
 -2      3727      2092      3665      3676
 -1      1443    3    0    1
 -2      2803      3395      3769      3910
 -1      1444    3    0    1
 -2      1713      1710      1768      1779
 -1      1445    3    0    1
 -2      1761      1765      1878      1923
 -1      1446    3    0    1
 -2      2706      3364      3368      3838
 -1      1447    3    0    1
 -2      2162       243      2321      2447
 -1      1448    3    0    1
 -2      3649      2096      3659      3908
 -1      1449    3    0    1
 -2      1805      1674      1810      1884
 -1      1450    3    0    2
 -2      2601      2600      2751      1641
 -1      1451    3    0    2
 -2      3195      2231      1234      2232
 -1      1452    3    0    1
 -2       381      1856      2075      2096
 -1      1453    3    0    1
 -2      3563      1938      3564      3864
 -1      1454    3    0    1
 -2       227       495       348      2044
 -1      1455    3    0    1
 -2      1668      1835      2027      2062
 -1      1456    3    0    1
 -2      1765      1683      1882      1939
 -1      1457    3    0    1
 -2      1671      1666      1680      1736
 -1      1458    3    0    1
 -2      1766      1804      1818      1971
 -1      1459    3    0    1
 -2      3186      2867      3703      3844
 -1      1460    3    0    1
 -2      1346        63      3289      3290
 -1      1461    3    0    1
 -2      1836        63      1346      3290
 -1      1462    3    0    2
 -2       503      1468      2606      1467
 -1      1463    3    0    1
 -2       659      3046      1421      3699
 -1      1464    3    0    1
 -2      1717      1662      1836      1871
 -1      1465    3    0    2
 -2      2444      2682      2683      2686
 -1      1466    3    0    1
 -2       392      2455      1558      3783
 -1      1467    3    0    1
 -2      1729      1718      2166      2205
 -1      1468    3    0    1
 -2        79      1822      2026      2117
 -1      1469    3    0    1
 -2       348       495      1908      2044
 -1      1470    3    0    1
 -2       957      2261      3123      3687
 -1      1471    3    0    1
 -2       488       211       234      1975
 -1      1472    3    0    2
 -2      1164      1163      2756      2767
 -1      1473    3    0    2
 -2      2250       702      2609      2610
 -1      1474    3    0    1
 -2      1682      1668      1903      1962
 -1      1475    3    0    2
 -2      2614      3141      1469      3142
 -1      1476    3    0    2
 -2      2846      2847      2849      2853
 -1      1477    3    0    2
 -2      1403      1404      3034      3035
 -1      1478    3    0    1
 -2      1856      2075      2690      3729
 -1      1479    3    0    2
 -2      2611      2350      1066      2349
 -1      1480    3    0    2
 -2      2338       556      3009      3010
 -1      1481    3    0    2
 -2       679       768      2598      1613
 -1      1482    3    0    2
 -2       409      1270       712      2423
 -1      1483    3    0    2
 -2       419      2750      1643      1644
 -1      1484    3    0    2
 -2      1474      3145      3146      3147
 -1      1485    3    0    2
 -2      3296      2342      3302      3307
 -1      1486    3    0    1
 -2      2061       671      2091      2608
 -1      1487    3    0    1
 -2       458       204      1858      1892
 -1      1488    3    0    2
 -2      2472      2280       380      2281
 -1      1489    3    0    2
 -2      2440      2607      1605      1606
 -1      1490    3    0    1
 -2      3283      3386      2107      3913
 -1      1491    3    0    1
 -2      1425      3444      3770      3782
 -1      1492    3    0    1
 -2       370       485      1791      1930
 -1      1493    3    0    1
 -2      1719      1682      1745      1847
 -1      1494    3    0    2
 -2       654      1134       829      2512
 -1      1495    3    0    1
 -2      1787       490      1821      1875
 -1      1496    3    0    1
 -2       514      1772      1855      1866
 -1      1497    3    0    1
 -2       482       229      1745      1788
 -1      1498    3    0    1
 -2        36       114      3879      3922
 -1      1499    3    0    1
 -2      1971      1801      2318      3290
 -1      1500    3    0    2
 -2       399      1542      2448      1541
 -1      1501    3    0    1
 -2      1829      1763      2114      2166
 -1      1502    3    0    1
 -2      2983      2981      2988      3702
 -1      1503    3    0    1
 -2      3687      3461      3779      3780
 -1      1504    3    0    2
 -2      2347      2825       919      2826
 -1      1505    3    0    1
 -2        74       362      1829      1848
 -1      1506    3    0    2
 -2      2600       672      2751      1641
 -1      1507    3    0    2
 -2       878       877      3243      3251
 -1      1508    3    0    2
 -2       608      2315      2534      1068
 -1      1509    3    0    2
 -2      2388       625      2510      2511
 -1      1510    3    0    2
 -2       687       781      3161      1487
 -1      1511    3    0    2
 -2      2924      1325      1326      2928
 -1      1512    3    0    1
 -2      1432      3067      3741      3886
 -1      1513    3    0    1
 -2       353      1788      1793      2083
 -1      1514    3    0    1
 -2       625       941      2976      2977
 -1      1515    3    0    1
 -2      1800       328      1832      1933
 -1      1516    3    0    1
 -2       205       461       206      1950
 -1      1517    3    0    1
 -2      1167      2764      1176      3807
 -1      1518    3    0    2
 -2       867      2273      2269       868
 -1      1519    3    0    2
 -2      2560       363      1031      1032
 -1      1520    3    0    1
 -2      1683      1719      1745      1847
 -1      1521    3    0    1
 -2      1850      1743      2103      2120
 -1      1522    3    0    1
 -2      1723      1699      1829      1848
 -1      1523    3    0    2
 -2      2683       647      1110      2686
 -1      1524    3    0    1
 -2      1771      1696      1795      1967
 -1      1525    3    0    1
 -2       333       548      2100      2123
 -1      1526    3    0    1
 -2      3882      2097      3646      3921
 -1      1527    3    0    1
 -2      1777      1751      3151      3433
 -1      1528    3    0    1
 -2      1714      1695      2008      2125
 -1      1529    3    0    1
 -2       381      2075      1578      3729
 -1      1530    3    0    1
 -2      1410      3050      3058      3841
 -1      1531    3    0    2
 -2      3390      3391      1108       526
 -1      1532    3    0    2
 -2      2354      2353      1062       758
 -1      1533    3    0    2
 -2       307      2387      2452      2453
 -1      1534    3    0    2
 -2      1135      1136      2722      2725
 -1      1535    3    0    2
 -2       742      2697      1625      1626
 -1      1536    3    0    2
 -2      2597      2391       909      2598
 -1      1537    3    0    2
 -2       628      1562      1561      2954
 -1      1538    3    0    2
 -2      1037      1048      2594      1047
 -1      1539    3    0    1
 -2      3295      3306      3705      3834
 -1      1540    3    0    1
 -2      2250      1966      2874      1517
 -1      1541    3    0    1
 -2      1786       226      1824      2116
 -1      1542    3    0    1
 -2      1470      2115      2613       497
 -1      1543    3    0    1
 -2        70      3710      3725      3768
 -1      1544    3    0    1
 -2      2099      1191      3314      3608
 -1      1545    3    0    2
 -2      2400      2715      1563      2716
 -1      1546    3    0    2
 -2      2758      2756      2761      2766
 -1      1547    3    0    2
 -2       417      1276       723      2270
 -1      1548    3    0    2
 -2      2609      2250      1052      2251
 -1      1549    3    0    2
 -2       737       648      2464      2622
 -1      1550    3    0    2
 -2      2781      2621      1447      1448
 -1      1551    3    0    1
 -2      2256      2592      2596      3700
 -1      1552    3    0    2
 -2      2378      2377      2712      1609
 -1      1553    3    0    2
 -2      2755      2754      1272       560
 -1      1554    3    0    2
 -2      2420      2421      2876      1598
 -1      1555    3    0    2
 -2      2755      2532      1271      1272
 -1      1556    3    0    1
 -2      3538      3866      3536      3924
 -1      1557    3    0    2
 -2      2653      2300      2657      2661
 -1      1558    3    0    2
 -2      2964       657      1365      2971
 -1      1559    3    0    1
 -2      2043       642      2274       855
 -1      1560    3    0    2
 -2      3241      3239      3248      3252
 -1      1561    3    0    1
 -2      3185      3695      3319      3890
 -1      1562    3    0    1
 -2      1909      1387      3149      3229
 -1      1563    3    0    1
 -2      1834      1703      1947      2168
 -1      1564    3    0    1
 -2      1853       549      2272      1496
 -1      1565    3    0    2
 -2      3238      3237      3246      3248
 -1      1566    3    0    1
 -2        81       466      1815      1842
 -1      1567    3    0    1
 -2      1785      1857      1918      2067
 -1      1568    3    0    1
 -2      1760      1921      2022      2173
 -1      1569    3    0    1
 -2       426      2098      2357      1339
 -1      1570    3    0    1
 -2      1969      3685      3730      3626
 -1      1571    3    0    2
 -2       275       320      2778      1567
 -1      1572    3    0    2
 -2      2304       251      2329      1449
 -1      1573    3    0    1
 -2       226       254       368      1866
 -1      1574    3    0    1
 -2      3366      3350      3369      3749
 -1      1575    3    0    1
 -2       466       463      1725      1842
 -1      1576    3    0    2
 -2      2518       945      2520      2525
 -1      1577    3    0    1
 -2      1926      1999      1490      3231
 -1      1578    3    0    1
 -2      1771      1696      1967      1979
 -1      1579    3    0    1
 -2       356        27        29      1868
 -1      1580    3    0    1
 -2       235       356      1784      1868
 -1      1581    3    0    2
 -2      1203      2358      1204      2954
 -1      1582    3    0    2
 -2       366      2264      3286      3287
 -1      1583    3    0    1
 -2       410       411      1254      3759
 -1      1584    3    0    1
 -2      2191      3231      3428      3855
 -1      1585    3    0    1
 -2      1747       214      1905      1933
 -1      1586    3    0    1
 -2      2150      3805      3845      3895
 -1      1587    3    0    1
 -2       188      1372      3362      3719
 -1      1588    3    0    1
 -2      1734      1713      1945      1977
 -1      1589    3    0    2
 -2      2495      2503      2504      2506
 -1      1590    3    0    2
 -2      2390       388      2869      2870
 -1      1591    3    0    2
 -2      2950      2939      2952      2953
 -1      1592    3    0    1
 -2      2008      1695      2088      2125
 -1      1593    3    0    1
 -2      2075      2096      2190      1638
 -1      1594    3    0    2
 -2      2539       725      1019      2549
 -1      1595    3    0    1
 -2      3126      3709      3781      3913
 -1      1596    3    0    2
 -2      2436      2457      1128      2437
 -1      1597    3    0    1
 -2      2782       423      1447      3883
 -1      1598    3    0    1
 -2      1838      1765      1882      1939
 -1      1599    3    0    1
 -2       274       540      1747      1905
 -1      1600    3    0    2
 -2       811       427      2236      2433
 -1      1601    3    0    2
 -2      2317      1345       428       824
 -1      1602    3    0    1
 -2      3396      3579      3582      3869
 -1      1603    3    0    2
 -2       837       902        72       838
 -1      1604    3    0    1
 -2       428      1801      1346      3290
 -1      1605    3    0    2
 -2      2935      2293      1561      2936
 -1      1606    3    0    2
 -2       506      1160      2469      1159
 -1      1607    3    0    2
 -2       388       615      2870      1521
 -1      1608    3    0    1
 -2      1765      1761      1878      1896
 -1      1609    3    0    2
 -2      2757      2763      2768      2769
 -1      1610    3    0    2
 -2       703      1514      2498      1513
 -1      1611    3    0    1
 -2      1699      1841      1949      1950
 -1      1612    3    0    2
 -2       272      3014      3018      3024
 -1      1613    3    0    1
 -2      3275      3387      3394      3742
 -1      1614    3    0    1
 -2      2199      1367      3720      3767
 -1      1615    3    0    1
 -2      3756      2185      3539      3883
 -1      1616    3    0    2
 -2       605      2284      2455      2456
 -1      1617    3    0    1
 -2      2787      2788      2792      3682
 -1      1618    3    0    1
 -2      1971       705      2268      1129
 -1      1619    3    0    2
 -2       311      2335      2828      2829
 -1      1620    3    0    1
 -2      1700      1732      1831      1849
 -1      1621    3    0    2
 -2       583      2444      3390      3391
 -1      1622    3    0    1
 -2      1968       698      3695      3908
 -1      1623    3    0    2
 -2      3294      3296      3302      3305
 -1      1624    3    0    1
 -2      1674      1695      1714      1884
 -1      1625    3    0    1
 -2      2840      2279      2845      3800
 -1      1626    3    0    2
 -2       528      2689      3109      3111
 -1      1627    3    0    2
 -2      2620       382      2688      2689
 -1      1628    3    0    1
 -2      2208      3764      3463      3878
 -1      1629    3    0    1
 -2      1739      1678      1752      1991
 -1      1630    3    0    2
 -2      2253      2252       951      2695
 -1      1631    3    0    1
 -2      3000      1924      3425      3744
 -1      1632    3    0    1
 -2      2316      2106      1067      2692
 -1      1633    3    0    1
 -2       405      1479      3163      3760
 -1      1634    3    0    1
 -2      1869       419      1556      2087
 -1      1635    3    0    1
 -2      2518       945      2525      3843
 -1      1636    3    0    1
 -2      1679      1834      1837      1852
 -1      1637    3    0    2
 -2      3011      3020      3023      3029
 -1      1638    3    0    1
 -2      2076       527      2215      1259
 -1      1639    3    0    1
 -2      3114      3121      3688      3827
 -1      1640    3    0    1
 -2       209       535       269      2105
 -1      1641    3    0    2
 -2      2252       295      2871      2872
 -1      1642    3    0    1
 -2      1387      2459      3149      2326
 -1      1643    3    0    1
 -2       534       209       269      2105
 -1      1644    3    0    1
 -2       207       466       463      1725
 -1      1645    3    0    2
 -2       573      2738      2739      2742
 -1      1646    3    0    1
 -2      1968      2463      2773      3319
 -1      1647    3    0    2
 -2      2723      2699      2729      2731
 -1      1648    3    0    1
 -2        43      1897      2133      3613
 -1      1649    3    0    1
 -2      1675      1829      1848      1858
 -1      1650    3    0    2
 -2       617      2426      1339      1340
 -1      1651    3    0    2
 -2      1058      2245      2246      2703
 -1      1652    3    0    1
 -2      2031      1960      1556      3261
 -1      1653    3    0    2
 -2      2703      2245      1396      2704
 -1      1654    3    0    1
 -2      1759      1834      1852      2101
 -1      1655    3    0    2
 -2      2313      2314      2808      2812
 -1      1656    3    0    1
 -2      1841      1665      1949      1970
 -1      1657    3    0    1
 -2      1665      1828      1949      1970
 -1      1658    3    0    1
 -2      3354      1616      1618      3761
 -1      1659    3    0    1
 -2        80       466        81      1842
 -1      1660    3    0    1
 -2      1864      2045      2698      3711
 -1      1661    3    0    1
 -2      1108      3390      3765      2445
 -1      1662    3    0    1
 -2       936        99      3345      3833
 -1      1663    3    0    1
 -2      1784      1720      1821      1868
 -1      1664    3    0    1
 -2      1759      1703      1834      2101
 -1      1665    3    0    2
 -2      2282       912      2674      2682
 -1      1666    3    0    1
 -2      2209       501      2227      1309
 -1      1667    3    0    2
 -2       717       651      3051      3055
 -1      1668    3    0    1
 -2       491       477      1769      2021
 -1      1669    3    0    2
 -2       684      2245      2703      2704
 -1      1670    3    0    1
 -2      2128      3690      3713      3754
 -1      1671    3    0    2
 -2      1371      1372      3360      3362
 -1      1672    3    0    2
 -2       676       766      3357      3361
 -1      1673    3    0    2
 -2      2918      2915      2923      2929
 -1      1674    3    0    2
 -2       576       524      2701      2864
 -1      1675    3    0    1
 -2       489       217       235      1821
 -1      1676    3    0    1
 -2      1703      1764      1800      2108
 -1      1677    3    0    2
 -2       917      2318      3288      3289
 -1      1678    3    0    1
 -2        84        14      1945      1977
 -1      1679    3    0    1
 -2      1169      3693      1064      2765
 -1      1680    3    0    1
 -2      2646       377      1094      3868
 -1      1681    3    0    2
 -2      2405      2416      1535      1536
 -1      1682    3    0    2
 -2      2290      2231      1234      2291
 -1      1683    3    0    1
 -2      1725      1827      1876      2085
 -1      1684    3    0    2
 -2       175       917       918      3288
 -1      1685    3    0    1
 -2      1256      1121      3837      3629
 -1      1686    3    0    1
 -2      2626      1948      2777      1644
 -1      1687    3    0    1
 -2      1675      1718      1729      2032
 -1      1688    3    0    2
 -2       600       363      2560      2574
 -1      1689    3    0    1
 -2       466      1725      1815      1842
 -1      1690    3    0    1
 -2      2903      1295      2908      3779
 -1      1691    3    0    2
 -2       654      1134      2512      1133
 -1      1692    3    0    1
 -2       949      2848      3710      3768
 -1      1693    3    0    1
 -2       641      1812      2035      3370
 -1      1694    3    0    1
 -2        69      1523      3788      3901
 -1      1695    3    0    1
 -2      2333      2010       963      2711
 -1      1696    3    0    2
 -2      2712      2440      1602      2441
 -1      1697    3    0    2
 -2      2323      2324      2555      1577
 -1      1698    3    0    1
 -2       686       972      3001      3715
 -1      1699    3    0    1
 -2       247       224      1723      1848
 -1      1700    3    0    1
 -2       667      3080      3689      3697
 -1      1701    3    0    1
 -2      1938      1801      2005      2014
 -1      1702    3    0    1
 -2      1995       544      2532      2755
 -1      1703    3    0    1
 -2      1678      1739      1752      1760
 -1      1704    3    0    2
 -2      2840       645      1245      1246
 -1      1705    3    0    2
 -2      2268      1130      2272      1129
 -1      1706    3    0    1
 -2      1683      1838      1882      1939
 -1      1707    3    0    1
 -2      2084      2151      2181      2276
 -1      1708    3    0    1
 -2       907      1033      3580      3872
 -1      1709    3    0    1
 -2       399      1825      2013      1541
 -1      1710    3    0    1
 -2      1669      1709      1870      2026
 -1      1711    3    0    1
 -2      1830      3122      3464      3521
 -1      1712    3    0    2
 -2      1199        37      2789      2794
 -1      1713    3    0    2
 -2       668       884       883      2359
 -1      1714    3    0    2
 -2       827      1266      3241      3246
 -1      1715    3    0    2
 -2      2428       708      2691      2692
 -1      1716    3    0    1
 -2      2364       885      2371      3707
 -1      1717    3    0    2
 -2      2748      2613      3147      3148
 -1      1718    3    0    1
 -2      2255      1987      2352      1013
 -1      1719    3    0    2
 -2      3206      3207      3211      3216
 -1      1720    3    0    1
 -2       485        83      1791      1930
 -1      1721    3    0    1
 -2      2118        44      3502      3792
 -1      1722    3    0    1
 -2       662       983      3705      3777
 -1      1723    3    0    2
 -2      1354       822      2946      2947
 -1      1724    3    0    1
 -2      1673      1737      1874      1989
 -1      1725    3    0    2
 -2       555      1444      2535      1443
 -1      1726    3    0    1
 -2      1741      1912      2093      3581
 -1      1727    3    0    1
 -2       262      1927      2144      1389
 -1      1728    3    0    1
 -2      1085       955      3174      3887
 -1      1729    3    0    1
 -2      3230      2092      3727      3481
 -1      1730    3    0    2
 -2      2508      2509      3590      3591
 -1      1731    3    0    2
 -2      3251       878      1551      3257
 -1      1732    3    0    2
 -2       429      2950      2952      2953
 -1      1733    3    0    1
 -2      1378       699      3702      3773
 -1      1734    3    0    2
 -2       962       961      3250      1547
 -1      1735    3    0    2
 -2       827       701      3242      3246
 -1      1736    3    0    2
 -2       428       868      2269       824
 -1      1737    3    0    1
 -2      1992      2258       841      3089
 -1      1738    3    0    2
 -2       251      1450      2329      1449
 -1      1739    3    0    1
 -2       383       274      1747      1933
 -1      1740    3    0    1
 -2      1707      1710      1768      1845
 -1      1741    3    0    1
 -2      1718      1675      1829      1848
 -1      1742    3    0    1
 -2      1782      1806      1843      1984
 -1      1743    3    0    1
 -2      2046      2615      3746      3493
 -1      1744    3    0    1
 -2       257      1785      1857      1918
 -1      1745    3    0    1
 -2      1767      1822      1945      1956
 -1      1746    3    0    1
 -2      1701      1728      1883      1891
 -1      1747    3    0    1
 -2      1765      1878      1923      1939
 -1      1748    3    0    1
 -2      3683      3400      3734      3922
 -1      1749    3    0    1
 -2      3698       649      2991      2982
 -1      1750    3    0    1
 -2      1265       701      3704      3870
 -1      1751    3    0    1
 -2       232       519       257      1857
 -1      1752    3    0    2
 -2      2415       922      2414      2528
 -1      1753    3    0    2
 -2      3157      3161      1487      3166
 -1      1754    3    0    2
 -2      2512       829      2513      1134
 -1      1755    3    0    2
 -2      2721       834      1139      1140
 -1      1756    3    0    2
 -2       149      1510       903      1509
 -1      1757    3    0    1
 -2      3387      3394      3742      3771
 -1      1758    3    0    1
 -2      1707      1710      1776      1779
 -1      1759    3    0    2
 -2      1091      1098      1092      2650
 -1      1760    3    0    2
 -2      2750       419      1555      1556
 -1      1761    3    0    2
 -2      2452      2453       941       258
 -1      1762    3    0    2
 -2      1188       541      1187      3184
 -1      1763    3    0    1
 -2      3851      3337      3623      3650
 -1      1764    3    0    2
 -2       834       833      2721      1139
 -1      1765    3    0    2
 -2      2296       427      2297      1011
 -1      1766    3    0    1
 -2      1720      1690      1784      1821
 -1      1767    3    0    1
 -2      1998       452        11       455
 -1      1768    3    0    1
 -2      1983      1840      3429      3476
 -1      1769    3    0    2
 -2       660       860       719      2271
 -1      1770    3    0    1
 -2      1962      1908      2143      2212
 -1      1771    3    0    1
 -2       450       199       449      2117
 -1      1772    3    0    1
 -2       193       440       194      1735
 -1      1773    3    0    2
 -2      2391      2747       909      2748
 -1      1774    3    0    2
 -2      2614      3134      3141      3142
 -1      1775    3    0    1
 -2      2054      1676      2165      1573
 -1      1776    3    0    1
 -2      2730      2719      2732      3778
 -1      1777    3    0    2
 -2       372      1212       595      2826
 -1      1778    3    0    1
 -2      1873      1833      1906      2774
 -1      1779    3    0    1
 -2       216       543       474      1814
 -1      1780    3    0    1
 -2       483       230      1913      1937
 -1      1781    3    0    1
 -2      1839      1709      1859      1860
 -1      1782    3    0    1
 -2      2235      2014       427      1507
 -1      1783    3    0    1
 -2        77      1831      1849      2113
 -1      1784    3    0    2
 -2      2447       246       301      1311
 -1      1785    3    0    1
 -2      1913       483      1937      2030
 -1      1786    3    0    2
 -2      2707       672      2751      2752
 -1      1787    3    0    1
 -2      1785       370      1791      1930
 -1      1788    3    0    1
 -2      2056      1624      2511      2388
 -1      1789    3    0    2
 -2      3158      1486      3164      3165
 -1      1790    3    0    2
 -2      2751      2707      1315      2708
 -1      1791    3    0    2
 -2       598      2405      2416      2417
 -1      1792    3    0    1
 -2         8        74       325      1892
 -1      1793    3    0    2
 -2      2282      2283      2678      2679
 -1      1794    3    0    1
 -2       177        54       985      3372
 -1      1795    3    0    2
 -2      2627      2633      2662      2665
 -1      1796    3    0    1
 -2      1691      1706      1897      3497
 -1      1797    3    0    1
 -2      1428       544      3323      3880
 -1      1798    3    0    2
 -2      2756      2758      2759      2767
 -1      1799    3    0    1
 -2      1569       410      2859      3732
 -1      1800    3    0    1
 -2      2704      1159       684      2247
 -1      1801    3    0    1
 -2      2146      2213      2332      3004
 -1      1802    3    0    2
 -2       685      2758      2757      2756
 -1      1803    3    0    1
 -2      2461      2419      3786      3896
 -1      1804    3    0    1
 -2      1808       439      3415      3417
 -1      1805    3    0    2
 -2      2532       544      2754      2755
 -1      1806    3    0    1
 -2       511        39      1850      1877
 -1      1807    3    0    1
 -2      2135      3040      3691      3828
 -1      1808    3    0    1
 -2      1141       529      2739      3711
 -1      1809    3    0    1
 -2      1677      1707      1768      1862
 -1      1810    3    0    1
 -2       485       370      1785      1857
 -1      1811    3    0    1
 -2      3684       151      3747      3787
 -1      1812    3    0    2
 -2      2757       685      2760      2764
 -1      1813    3    0    2
 -2      2756      2762      2763      2766
 -1      1814    3    0    2
 -2      2772      2463      1260      2773
 -1      1815    3    0    2
 -2       736       424      3105      3107
 -1      1816    3    0    2
 -2       529       573      2739      2742
 -1      1817    3    0    2
 -2      2309       876       875      3025
 -1      1818    3    0    2
 -2      2301      2653      2657      2659
 -1      1819    3    0    2
 -2      1084        36      1083      2641
 -1      1820    3    0    2
 -2      1453      1460      1454      3096
 -1      1821    3    0    1
 -2       911       647      3456      3766
 -1      1822    3    0    2
 -2      2315      1010      1009      2691
 -1      1823    3    0    2
 -2      1301      1302      2907      2911
 -1      1824    3    0    1
 -2      1752      1678      1760      2173
 -1      1825    3    0    1
 -2      2806      2604      2814      3717
 -1      1826    3    0    1
 -2      1764       212      1800      2108
 -1      1827    3    0    2
 -2      2381      2382      2597      1225
 -1      1828    3    0    2
 -2       788       642      2275      2298
 -1      1829    3    0    1
 -2      3266      3172      3747      3877
 -1      1830    3    0    2
 -2       361      2708      1647      1648
 -1      1831    3    0    1
 -2      2138       371      3762      3845
 -1      1832    3    0    1
 -2      1909       284      3125      1539
 -1      1833    3    0    1
 -2      1863       271      2190      3281
 -1      1834    3    0    2
 -2      2294      2512      2513      1134
 -1      1835    3    0    2
 -2      2831      2835      2839      2844
 -1      1836    3    0    2
 -2      2359      2364      2366      2368
 -1      1837    3    0    2
 -2      2269       867       868       428
 -1      1838    3    0    1
 -2       328        61       539      1933
 -1      1839    3    0    2
 -2      2958      2956      2967      2971
 -1      1840    3    0    1
 -2      2184       504      2753      1636
 -1      1841    3    0    1
 -2      1421      3782      3810      3880
 -1      1842    3    0    2
 -2      2582      2257      2583      2585
 -1      1843    3    0    2
 -2      1038       397      1037      2585
 -1      1844    3    0    1
 -2      3325      3190      3704      3728
 -1      1845    3    0    1
 -2      1683      1719      1903      1939
 -1      1846    3    0    1
 -2      1792      2406      2442      1628
 -1      1847    3    0    1
 -2      1812       248      2061      1604
 -1      1848    3    0    2
 -2       643      1574      2449       793
 -1      1849    3    0    1
 -2      1760      1678      1921      2173
 -1      1850    3    0    2
 -2      2478       931      2481      2482
 -1      1851    3    0    1
 -2       187      1239      3292      3422
 -1      1852    3    0    1
 -2       625      2211      2264      2511
 -1      1853    3    0    1
 -2       378      2069      2126      2461
 -1      1854    3    0    1
 -2      1741      1778      1985      3268
 -1      1855    3    0    2
 -2       782      2405      2442      2443
 -1      1856    3    0    1
 -2      1808      3413      3748      3783
 -1      1857    3    0    1
 -2       180      1543      3737      3661
 -1      1858    3    0    1
 -2       639      1942      2046      1606
 -1      1859    3    0    2
 -2       747      2830      2831      2835
 -1      1860    3    0    2
 -2      1179      1248      2844      1247
 -1      1861    3    0    2
 -2      2558      2559      2562      2570
 -1      1862    3    0    1
 -2       646      2010      2144      2711
 -1      1863    3    0    1
 -2      2053       260      2144      2877
 -1      1864    3    0    1
 -2      1061      3407      3508      3848
 -1      1865    3    0    2
 -2      2420      2876      1597      1598
 -1      1866    3    0    2
 -2      2707       588      2804      2805
 -1      1867    3    0    1
 -2      1681      1687      1833      1906
 -1      1868    3    0    2
 -2      1292       743      2889      2894
 -1      1869    3    0    2
 -2        36      1077      1078      2641
 -1      1870    3    0    1
 -2      2475      3409      1638      3474
 -1      1871    3    0    1
 -2      1736      1671      1827      1885
 -1      1872    3    0    2
 -2      2625       319      2777      2778
 -1      1873    3    0    2
 -2      2465      3183      1187      2466
 -1      1874    3    0    1
 -2      2091      1942      2440      1601
 -1      1875    3    0    2
 -2      1461      3097      1462      3104
 -1      1876    3    0    2
 -2      2289      2987      2991      2993
 -1      1877    3    0    1
 -2      2204      2194      2355      3612
 -1      1878    3    0    2
 -2      2307      2512       700      2308
 -1      1879    3    0    2
 -2       698      3022      3026      3027
 -1      1880    3    0    2
 -2      2700      2699      2723      2734
 -1      1881    3    0    2
 -2       855       512      2407      2408
 -1      1882    3    0    1
 -2       228       255       369      1780
 -1      1883    3    0    2
 -2       695      1455      3101      3103
 -1      1884    3    0    2
 -2      3034      1403      3035      1407
 -1      1885    3    0    1
 -2       896       390      3342      3819
 -1      1886    3    0    2
 -2      2304       624      2305      2311
 -1      1887    3    0    2
 -2      3043      3044      3047      3054
 -1      1888    3    0    1
 -2      2150      3384      3805      3895
 -1      1889    3    0    2
 -2      2333       523      2775      2776
 -1      1890    3    0    1
 -2       652      2004      1051      2610
 -1      1891    3    0    2
 -2       425      1354       822      2946
 -1      1892    3    0    2
 -2       183       987      2499      2502
 -1      1893    3    0    1
 -2      2169      2073      3733      3447
 -1      1894    3    0    1
 -2      3579      3559      3582      3869
 -1      1895    3    0    2
 -2      2425      2424      2498      2501
 -1      1896    3    0    1
 -2      1954      1955      1997      2875
 -1      1897    3    0    1
 -2        55      3004      3827      3834
 -1      1898    3    0    1
 -2      2650      1091      1097      3724
 -1      1899    3    0    1
 -2       539        61      1832      1933
 -1      1900    3    0    1
 -2      1669      1859      1860      2050
 -1      1901    3    0    1
 -2      2403      2247      1228      3441
 -1      1902    3    0    2
 -2      2236      2273      1507      1508
 -1      1903    3    0    1
 -2       399      1812      2034       864
 -1      1904    3    0    2
 -2      2472      2280      1263      1264
 -1      1905    3    0    1
 -2      3469      2082      3499      3790
 -1      1906    3    0    1
 -2      2223      2204      3335      3405
 -1      1907    3    0    1
 -2      1696      1712      1726      1769
 -1      1908    3    0    1
 -2      2175      3292      3293      3489
 -1      1909    3    0    1
 -2       195       196      1916      2023
 -1      1910    3    0    1
 -2      1741      1778      3268      3581
 -1      1911    3    0    2
 -2      2459      2345      1191      1192
 -1      1912    3    0    2
 -2      1155      1156      3132      3135
 -1      1913    3    0    2
 -2      1023      1028      1024      2554
 -1      1914    3    0    2
 -2       411      1630       739      2890
 -1      1915    3    0    1
 -2      2330      1333      2034      2319
 -1      1916    3    0    1
 -2      3688      3121      3755      3827
 -1      1917    3    0    1
 -2      2048       677      2178      2331
 -1      1918    3    0    1
 -2        22       359       353      1793
 -1      1919    3    0    2
 -2      2513       700      2294       831
 -1      1920    3    0    1
 -2      2613       497      2115      2748
 -1      1921    3    0    2
 -2      2620      2688       568      2689
 -1      1922    3    0    2
 -2      1409      1410      3053      1425
 -1      1923    3    0    1
 -2      3015      3024      3756      3811
 -1      1924    3    0    1
 -2      1513      2779      3419       545
 -1      1925    3    0    1
 -2       692      2010      2333      2711
 -1      1926    3    0    1
 -2      1720      1690      1748      1784
 -1      1927    3    0    1
 -2       212       539       273      1764
 -1      1928    3    0    1
 -2       494        22       482      1793
 -1      1929    3    0    1
 -2      1739      1752      1760      2008
 -1      1930    3    0    1
 -2      2186      1864      2187      1625
 -1      1931    3    0    1
 -2      1663      1724      1734      1931
 -1      1932    3    0    1
 -2      2425      2163       993      2505
 -1      1933    3    0    1
 -2      1719      1683      1745      1788
 -1      1934    3    0    2
 -2      2445      2444      2682      2683
 -1      1935    3    0    2
 -2       716       703      2503      2504
 -1      1936    3    0    2
 -2      2784      2341      3312      2342
 -1      1937    3    0    2
 -2       660       860      2271       859
 -1      1938    3    0    2
 -2      2424       563      2779      2780
 -1      1939    3    0    1
 -2       217       489       475      1821
 -1      1940    3    0    2
 -2      3116      2327      1579      1580
 -1      1941    3    0    2
 -2      2342      1588      3302      3307
 -1      1942    3    0    2
 -2       523      2279      2775      2776
 -1      1943    3    0    1
 -2      2033      3279      3760      3900
 -1      1944    3    0    2
 -2      2350      1066      2349      2784
 -1      1945    3    0    1
 -2      1783      2017      3624      3625
 -1      1946    3    0    1
 -2      1856       537      1917      1968
 -1      1947    3    0    1
 -2      3240      3238      3254      3728
 -1      1948    3    0    1
 -2      2276      2084      2277      3796
 -1      1949    3    0    1
 -2       512      2054      2165      1573
 -1      1950    3    0    2
 -2      1029       398      2569      2571
 -1      1951    3    0    1
 -2      1681      1686      1687      1753
 -1      1952    3    0    1
 -2      2295      1948      2512      1133
 -1      1953    3    0    1
 -2      2717      1969      3729      3474
 -1      1954    3    0    1
 -2      2425      2163      2505      3419
 -1      1955    3    0    2
 -2       686       796      2480      2487
 -1      1956    3    0    1
 -2      2170      3449      3835      3911
 -1      1957    3    0    2
 -2      3210      3214      3215      3221
 -1      1958    3    0    2
 -2      1202       762      2797      2800
 -1      1959    3    0    2
 -2      1197      1198      2792      2796
 -1      1960    3    0    2
 -2       645      1242      1241      2830
 -1      1961    3    0    2
 -2      2358       619      1203      1204
 -1      1962    3    0    2
 -2      2535      2343      1443      1444
 -1      1963    3    0    2
 -2      2434       501      2605      2606
 -1      1964    3    0    1
 -2      2189      2471      3710      3768
 -1      1965    3    0    1
 -2      2042      1301      3201      3462
 -1      1966    3    0    1
 -2       652      1869      2087      1051
 -1      1967    3    0    1
 -2       702      1966      1517      3429
 -1      1968    3    0    2
 -2       284      2428      2457      1539
 -1      1969    3    0    2
 -2      3587      3585      3601      3603
 -1      1970    3    0    1
 -2       248      1812      2061      2112
 -1      1971    3    0    1
 -2       508      1942      2377      2713
 -1      1972    3    0    2
 -2       400       792      2298       903
 -1      1973    3    0    1
 -2       192      1355      2951      3809
 -1      1974    3    0    2
 -2       158       976      2482       975
 -1      1975    3    0    2
 -2      2544       731      2548      1577
 -1      1976    3    0    2
 -2       732       695      3095      3103
 -1      1977    3    0    1
 -2      1942      2091      2440      2608
 -1      1978    3    0    1
 -2       103      1455      3099      3686
 -1      1979    3    0    1
 -2      1666      1662      1717      1871
 -1      1980    3    0    1
 -2      2628       683      2630      3683
 -1      1981    3    0    2
 -2       837       866        38       865
 -1      1982    3    0    2
 -2       287      1230      2828      1229
 -1      1983    3    0    1
 -2      1561      2935       280      2015
 -1      1984    3    0    1
 -2      2082      1944      3499      3790
 -1      1985    3    0    1
 -2      1726        15      2020      2021
 -1      1986    3    0    1
 -2       197       446       198      1844
 -1      1987    3    0    1
 -2      1585      3409      3474       663
 -1      1988    3    0    1
 -2      1841      1708      1949      1950
 -1      1989    3    0    1
 -2       676      3742      3743      3771
 -1      1990    3    0    2
 -2      2444      1107      1108      3391
 -1      1991    3    0    2
 -2      2804      2707       361      2708
 -1      1992    3    0    1
 -2      3434      1943      3817      3853
 -1      1993    3    0    1
 -2      1733      1688      1913      2030
 -1      1994    3    0    2
 -2      2229      2290      1497      1498
 -1      1995    3    0    1
 -2      2725      1135      3478      3778
 -1      1996    3    0    1
 -2      1917      1856      3475      3773
 -1      1997    3    0    2
 -2      1213      1219      1220      2819
 -1      1998    3    0    1
 -2       553       218       335      1977
 -1      1999    3    0    2
 -2      2381       629      2597      2598
 -1      2000    3    0    2
 -2      2805      2705      1223      1224
 -1      2001    3    0    1
 -2      2048      2095      2218      1226
 -1      2002    3    0    1
 -2      1733      1688      1775      2040
 -1      2003    3    0    1
 -2      2574      2559      2596      3821
 -1      2004    3    0    1
 -2       361      2161      1223      3379
 -1      2005    3    0    2
 -2      3132      3128      3133      3140
 -1      2006    3    0    1
 -2      1730       506      1159      2753
 -1      2007    3    0    2
 -2       428       824      2269      2317
 -1      2008    3    0    2
 -2       566      2349      2784      2785
 -1      2009    3    0    1
 -2      1908      1797      1962      2044
 -1      2010    3    0    2
 -2       584      2404      2469      1160
 -1      2011    3    0    1
 -2      2131       628      2357      1203
 -1      2012    3    0    2
 -2      2704       632      1227      1228
 -1      2013    3    0    2
 -2       633      2768      2769      2770
 -1      2014    3    0    1
 -2      1144      1145      2735      3703
 -1      2015    3    0    1
 -2      1713      1768      1845      1977
 -1      2016    3    0    1
 -2      1727      1702      1965      1997
 -1      2017    3    0    1
 -2      1799      1689      2067      2068
 -1      2018    3    0    1
 -2       414      1927      2170      1307
 -1      2019    3    0    1
 -2      2283      2680      2683      3764
 -1      2020    3    0    2
 -2      2851      2858      1255      2862
 -1      2021    3    0    1
 -2      1707      1768      1862      2123
 -1      2022    3    0    1
 -2      1834       326      2101      2108
 -1      2023    3    0    1
 -2       210       270      1852      2101
 -1      2024    3    0    1
 -2       224       362       344      1848
 -1      2025    3    0    1
 -2       552       218       282      1845
 -1      2026    3    0    1
 -2       686       981      3001      3416
 -1      2027    3    0    1
 -2       225      1753      1772      1877
 -1      2028    3    0    2
 -2      2438      2439      2479      2490
 -1      2029    3    0    2
 -2       840       109      2881      2883
 -1      2030    3    0    1
 -2      2242      3006      1503      3828
 -1      2031    3    0    2
 -2      3066      2344      3075      3080
 -1      2032    3    0    1
 -2      1719      1682      1847      1903
 -1      2033    3    0    1
 -2       465        12      1680      1684
 -1      2034    3    0    1
 -2      3384      3753      3843      3895
 -1      2035    3    0    1
 -2      1592       655      3755      3824
 -1      2036    3    0    2
 -2      3153      3160      3163      3168
 -1      2037    3    0    2
 -2      1089      1090      2647      2649
 -1      2038    3    0    2
 -2      2420       692      1119      2710
 -1      2039    3    0    2
 -2        43      1482      1481      3155
 -1      2040    3    0    2
 -2      2923      2915      2928      2929
 -1      2041    3    0    2
 -2      2440      1602      2608      1601
 -1      2042    3    0    1
 -2      3333      2221      3735      3419
 -1      2043    3    0    2
 -2      2342      2784      1587      1588
 -1      2044    3    0    1
 -2      1241      2832      2838      3794
 -1      2045    3    0    2
 -2       692      1600      2710      1599
 -1      2046    3    0    2
 -2      3409      2474      1585      2475
 -1      2047    3    0    2
 -2      3009      2338       895      2337
 -1      2048    3    0    1
 -2       439      2476      2479      3748
 -1      2049    3    0    1
 -2       849      1509      3557      3830
 -1      2050    3    0    1
 -2       654      1992       841      1133
 -1      2051    3    0    2
 -2      2420       260      2876      2877
 -1      2052    3    0    1
 -2        80       474       543      1842
 -1      2053    3    0    1
 -2       628      1794      2131      2357
 -1      2054    3    0    1
 -2      2213      2471      3113      3645
 -1      2055    3    0    1
 -2      2357      2131      1203      3371
 -1      2056    3    0    2
 -2      2444      2445      1108      2687
 -1      2057    3    0    1
 -2       210       270      1837      1852
 -1      2058    3    0    1
 -2       281      2459      1582      3608
 -1      2059    3    0    2
 -2      2682       753      2683      2686
 -1      2060    3    0    2
 -2      2282      2283      2679      2680
 -1      2061    3    0    2
 -2       645       747      2840      1245
 -1      2062    3    0    1
 -2      1065      2350      3327      3708
 -1      2063    3    0    1
 -2      1205      3069      1436      3697
 -1      2064    3    0    1
 -2      3609      1902      3669      3670
 -1      2065    3    0    1
 -2      2000      1702      2107      3283
 -1      2066    3    0    2
 -2      2701      2384      2702      2865
 -1      2067    3    0    1
 -2      1765      1881      1896      1958
 -1      2068    3    0    1
 -2      2057      2055      2182      3113
 -1      2069    3    0    1
 -2       375      2740      2744      3711
 -1      2070    3    0    2
 -2       295      2693      2871      2872
 -1      2071    3    0    1
 -2      2177       631      1313      1397
 -1      2072    3    0    2
 -2       572      2418      2461      2462
 -1      2073    3    0    1
 -2       490      1769      1787      1821
 -1      2074    3    0    2
 -2      2871      2693       261      2872
 -1      2075    3    0    2
 -2       575       375      2740      2743
 -1      2076    3    0    2
 -2      2727       744      2732      2734
 -1      2077    3    0    1
 -2      1303      3181      3898      3676
 -1      2078    3    0    2
 -2       547      1586      2474      1585
 -1      2079    3    0    1
 -2      1807      1711      3180      3336
 -1      2080    3    0    1
 -2      1804       549      1971      2063
 -1      2081    3    0    2
 -2      2431      3599      3600      3602
 -1      2082    3    0    2
 -2      2326      2325      2352      1387
 -1      2083    3    0    1
 -2      1955      1883      1964      1980
 -1      2084    3    0    1
 -2       921      1007      2529      3762
 -1      2085    3    0    2
 -2      3095      3097      1461      3104
 -1      2086    3    0    1
 -2      1437      3823      3863      3919
 -1      2087    3    0    1
 -2      2427      2396      3124      3371
 -1      2088    3    0    1
 -2      2295      1948      1568      3265
 -1      2089    3    0    2
 -2      2749      2625      1644      2626
 -1      2090    3    0    2
 -2       830      3245      3249      3254
 -1      2091    3    0    2
 -2      3243      3239      3251      3252
 -1      2092    3    0    1
 -2       981      2490      3001      3413
 -1      2093    3    0    2
 -2       774       678      1209      2808
 -1      2094    3    0    1
 -2      1698      1722      1740      1802
 -1      2095    3    0    1
 -2      2961       653      2966      3720
 -1      2096    3    0    2
 -2      2536      2538      2539      2549
 -1      2097    3    0    2
 -2      2350       656      2611      2612
 -1      2098    3    0    1
 -2      1917      1856      2075      2094
 -1      2099    3    0    1
 -2      2584       847      2593      3747
 -1      2100    3    0    1
 -2      1675      1829      1858      1892
 -1      2101    3    0    2
 -2      1022      2545      1021      2550
 -1      2102    3    0    1
 -2      3188      2783      3767      3799
 -1      2103    3    0    2
 -2       532      1072       564      2785
 -1      2104    3    0    2
 -2      2541       970      2546      2547
 -1      2105    3    0    2
 -2      2539      2537      2549      2550
 -1      2106    3    0    1
 -2      1987      2255       929      3473
 -1      2107    3    0    1
 -2      2031      1960      2036      2072
 -1      2108    3    0    1
 -2       534       468      1831      1849
 -1      2109    3    0    2
 -2      3153      3158      3164      3165
 -1      2110    3    0    2
 -2      3225      1268      3226      1532
 -1      2111    3    0    1
 -2      3150      3453      3484      3887
 -1      2112    3    0    1
 -2      1708      1783      1841      1970
 -1      2113    3    0    2
 -2       814      3589      3590      3591
 -1      2114    3    0    2
 -2       707       814      3590      3591
 -1      2115    3    0    2
 -2       388      1014      1013      2870
 -1      2116    3    0    1
 -2      1421      3323      3782      3880
 -1      2117    3    0    2
 -2      1639      1656      3589      1655
 -1      2118    3    0    1
 -2      3682      2793      3385      3739
 -1      2119    3    0    2
 -2       874       873      2296      2433
 -1      2120    3    0    2
 -2      2897      2898      2901      2906
 -1      2121    3    0    2
 -2       377       581      2646      1093
 -1      2122    3    0    2
 -2      2227       501      2605      1309
 -1      2123    3    0    2
 -2      1077       754      2662      2665
 -1      2124    3    0    1
 -2      1222       136      3751      3791
 -1      2125    3    0    2
 -2      2710      2420      1598      2421
 -1      2126    3    0    1
 -2      1099      3772      3829      3637
 -1      2127    3    0    2
 -2      2625      1644      2777      1643
 -1      2128    3    0    1
 -2      2223      2158      3192      3335
 -1      2129    3    0    2
 -2      2718      2719      2720      2725
 -1      2130    3    0    1
 -2       266      2187      2253      2871
 -1      2131    3    0    2
 -2       702      2532      2609      2610
 -1      2132    3    0    2
 -2      2270      2249      1278      2271
 -1      2133    3    0    2
 -2      2532      2533      2754      1274
 -1      2134    3    0    2
 -2      2609      2532      1273      1274
 -1      2135    3    0    2
 -2      2497       843       989       990
 -1      2136    3    0    2
 -2      2361      2359      2365      2368
 -1      2137    3    0    2
 -2      2779      2424      1513      2425
 -1      2138    3    0    2
 -2      2498      2424      1513      1514
 -1      2139    3    0    2
 -2      2617      2755      1183      1184
 -1      2140    3    0    1
 -2      1578       422      2548      3729
 -1      2141    3    0    2
 -2       660      1278      1277      2271
 -1      2142    3    0    2
 -2      2873      2250      1518      2251
 -1      2143    3    0    1
 -2      2361       668      2360      3745
 -1      2144    3    0    1
 -2      3454      3270      3455      3840
 -1      2145    3    0    1
 -2      1749       660       859      3234
 -1      2146    3    0    1
 -2      2737      2700      2739      3703
 -1      2147    3    0    2
 -2       382      2286      2688      2689
 -1      2148    3    0    1
 -2      3690      3188      3713      3720
 -1      2149    3    0    2
 -2       656      2393      2611      2612
 -1      2150    3    0    1
 -2      2079       661       925      2612
 -1      2151    3    0    2
 -2      3093      3092      3094      3105
 -1      2152    3    0    1
 -2      2997      3687      3461      3779
 -1      2153    3    0    2
 -2      3092      3093      3102      3105
 -1      2154    3    0    2
 -2      2542      2323      2551      2552
 -1      2155    3    0    1
 -2      2903      3687      3779      3780
 -1      2156    3    0    1
 -2      2159      2109      2998      3198
 -1      2157    3    0    2
 -2      1452      3310      3311      3312
 -1      2158    3    0    1
 -2      3282      1840      3346      3626
 -1      2159    3    0    2
 -2      2341      2342      2784      1587
 -1      2160    3    0    1
 -2        70       949      2860      3710
 -1      2161    3    0    2
 -2      2536      2537      2540      2545
 -1      2162    3    0    2
 -2       272       293      3024      3025
 -1      2163    3    0    2
 -2      3296      3294      3301      3303
 -1      2164    3    0    2
 -2      3295      3294      3299      3300
 -1      2165    3    0    1
 -2      2016      2328      3117      1584
 -1      2166    3    0    1
 -2      3322      3321      3705      3777
 -1      2167    3    0    2
 -2      1111      2470      2451      1112
 -1      2168    3    0    1
 -2      3097       695      1462      3915
 -1      2169    3    0    1
 -2      3809      1355      3812      3610
 -1      2170    3    0    1
 -2      2628      2656      2658      3683
 -1      2171    3    0    2
 -2      2266      2267      2647      2649
 -1      2172    3    0    1
 -2      3198      2109      3774      3526
 -1      2173    3    0    1
 -2      1724      1929      1931      3332
 -1      2174    3    0    2
 -2      2336      2335      2828      1595
 -1      2175    3    0    2
 -2      2878      2879      2880      2882
 -1      2176    3    0    2
 -2       400       792      2275      2298
 -1      2177    3    0    1
 -2      1976       163      2050      3851
 -1      2178    3    0    1
 -2      1890      2281      2749      1263
 -1      2179    3    0    2
 -2      2286      3097      3104      3106
 -1      2180    3    0    2
 -2      2463      1260       648      2464
 -1      2181    3    0    2
 -2      1113      1376      1375      2990
 -1      2182    3    0    1
 -2       504      2184       957      3123
 -1      2183    3    0    2
 -2      1456      3098      3101      3103
 -1      2184    3    0    2
 -2      2512      2294      1133      1134
 -1      2185    3    0    1
 -2      3267      1899      3865      3633
 -1      2186    3    0    2
 -2      2252       740      2695      2696
 -1      2187    3    0    2
 -2      2876      2243      1390      2877
 -1      2188    3    0    2
 -2       648      1260       737      2464
 -1      2189    3    0    1
 -2      2076      2463      1259      3319
 -1      2190    3    0    1
 -2      2518      2515      2522      3753
 -1      2191    3    0    2
 -2      2879      2882      2889      2894
 -1      2192    3    0    1
 -2      1173      1171      2767      3693
 -1      2193    3    0    1
 -2      3122      3464      3806      3614
 -1      2194    3    0    2
 -2      2701      2302      1181      1182
 -1      2195    3    0    2
 -2      2302      2422      1181      1182
 -1      2196    3    0    2
 -2      2405      2442      1535      2406
 -1      2197    3    0    1
 -2      2832       645      2831      3794
 -1      2198    3    0    1
 -2       379      2163       993      2779
 -1      2199    3    0    2
 -2      1296       757      2903      2904
 -1      2200    3    0    2
 -2      2775      2279      1070      2776
 -1      2201    3    0    1
 -2       681      2798      2801      3682
 -1      2202    3    0    2
 -2       692      2333      2710      2711
 -1      2203    3    0    2
 -2      2333      2775       964      2776
 -1      2204    3    0    2
 -2       260      2243      2876      2877
 -1      2205    3    0    2
 -2      3010       895      2338       896
 -1      2206    3    0    2
 -2      2243      2422      1250      2244
 -1      2207    3    0    1
 -2       260      2053      2243      2877
 -1      2208    3    0    2
 -2      1180      1179      2278      2775
 -1      2209    3    0    1
 -2       682      2162      2354      1312
 -1      2210    3    0    2
 -2      2321       243      2446      2447
 -1      2211    3    0    2
 -2      2896      2897      2898      2901
 -1      2212    3    0    1
 -2      3453      1978      3797      3879
 -1      2213    3    0    2
 -2       669      1430      1429      2531
 -1      2214    3    0    2
 -2      2237      2238      2631      2632
 -1      2215    3    0    2
 -2       638       756      2654      2657
 -1      2216    3    0    1
 -2      3115      3194      3697      3741
 -1      2217    3    0    1
 -2       941      2452       258      2056
 -1      2218    3    0    1
 -2       635      2162      2321      2354
 -1      2219    3    0    2
 -2      2469      2451      1111      2470
 -1      2220    3    0    1
 -2      2344      1443      3080      3689
 -1      2221    3    0    1
 -2      2162       246      2247      2447
 -1      2222    3    0    1
 -2       682      2025      2202      1312
 -1      2223    3    0    2
 -2      2227      2353      1062      2354
 -1      2224    3    0    2
 -2      2274       940       939       364
 -1      2225    3    0    2
 -2      2245      2703      1396      2246
 -1      2226    3    0    1
 -2      2321      2162      2447      1312
 -1      2227    3    0    2
 -2      1368       531       621      3183
 -1      2228    3    0    2
 -2       959      1358      2944      1357
 -1      2229    3    0    2
 -2      3207       861      3211      3216
 -1      2230    3    0    1
 -2      1658      1193      3918      3679
 -1      2231    3    0    2
 -2       586      2605      1309      1310
 -1      2232    3    0    1
 -2      3744      1924      3438      3807
 -1      2233    3    0    2
 -2      3349      3348      3352      3359
 -1      2234    3    0    1
 -2      1569      3733      3451      3759
 -1      2235    3    0    2
 -2      2391       909       910      2748
 -1      2236    3    0    1
 -2       648      1406      3538      3924
 -1      2237    3    0    2
 -2      1473      1474      3145      3146
 -1      2238    3    0    1
 -2      2391      1811       910      2598
 -1      2239    3    0    2
 -2       392      2455      1557      1558
 -1      2240    3    0    2
 -2      2707      2708      2804      1315
 -1      2241    3    0    2
 -2      2597      2392      1055      1056
 -1      2242    3    0    1
 -2      2209       503      2606      3388
 -1      2243    3    0    2
 -2      3128      3127      3133      3137
 -1      2244    3    0    2
 -2      2694       696      2697      1625
 -1      2245    3    0    1
 -2       555      2344      2534      3689
 -1      2246    3    0    2
 -2      2493      2494      1497       677
 -1      2247    3    0    1
 -2      1483       852      3162      3855
 -1      2248    3    0    1
 -2      1936       637      2997      3503
 -1      2249    3    0    1
 -2        69      1523      1530      3788
 -1      2250    3    0    1
 -2      1261      3019      3023      3811
 -1      2251    3    0    1
 -2      1826      3640      3673      3925
 -1      2252    3    0    2
 -2       640       802      2377      2385
 -1      2253    3    0    1
 -2      3684      3787      3528      3843
 -1      2254    3    0    2
 -2      2913      2918      2919      2921
 -1      2255    3    0    1
 -2       933      3068      1434      3750
 -1      2256    3    0    2
 -2      2230       242      2290      2291
 -1      2257    3    0    2
 -2      2239       593      2411      2412
 -1      2258    3    0    1
 -2      3444      1953      3770      3782
 -1      2259    3    0    1
 -2      2411       360      1235      3828
 -1      2260    3    0    1
 -2      3703      2867      3711      3844
 -1      2261    3    0    2
 -2      2226      2225      3009      1430
 -1      2262    3    0    2
 -2      2458      2457      1332       314
 -1      2263    3    0    2
 -2      3207      3206      3212      3214
 -1      2264    3    0    2
 -2      2515      2514       999      2518
 -1      2265    3    0    2
 -2      1333      2329      2330       251
 -1      2266    3    0    2
 -2      3153      3157      3161      3165
 -1      2267    3    0    2
 -2      2417      1185      2262      1186
 -1      2268    3    0    2
 -2      2442       644      1505      1506
 -1      2269    3    0    1
 -2      2878      2884      2891      3716
 -1      2270    3    0    1
 -2       271      2016      2393      1189
 -1      2271    3    0    1
 -2      1818       191       917      3277
 -1      2272    3    0    1
 -2      2563      2573      3712      3871
 -1      2273    3    0    2
 -2      2528      2527      1007      1008
 -1      2274    3    0    2
 -2       707       814      3591      1657
 -1      2275    3    0    2
 -2       293      3014      3024      3025
 -1      2276    3    0    1
 -2      3240      3239      3248      3704
 -1      2277    3    0    2
 -2      2316      2691      1068      2315
 -1      2278    3    0    1
 -2       156      1893      3715      3654
 -1      2279    3    0    2
 -2      2329      2304       916      2330
 -1      2280    3    0    1
 -2      1811       629      2381      2598
 -1      2281    3    0    1
 -2       841       267      3003      3089
 -1      2282    3    0    1
 -2      1171      1163      2767      3693
 -1      2283    3    0    1
 -2      3733      2073      3451      3759
 -1      2284    3    0    1
 -2       398      2312      2571      3746
 -1      2285    3    0    1
 -2      1064      3397      3740      3527
 -1      2286    3    0    2
 -2      2339      2449      1573      1574
 -1      2287    3    0    1
 -2      2304       251      2306      2330
 -1      2288    3    0    2
 -2      2308      2307      2512      1053
 -1      2289    3    0    2
 -2      1032      1030      2567      1029
 -1      2290    3    0    1
 -2       432      1987      3149      3229
 -1      2291    3    0    1
 -2      2096      1968      3649      3659
 -1      2292    3    0    1
 -2       365      3263      3700      3712
 -1      2293    3    0    2
 -2      2607       639      1605      1606
 -1      2294    3    0    1
 -2      3180      1711      3515      3839
 -1      2295    3    0    2
 -2       641      2376      3315      3316
 -1      2296    3    0    2
 -2      2455      2456      1335       509
 -1      2297    3    0    1
 -2       643      1676      2034      2449
 -1      2298    3    0    1
 -2      2081       670       901      2386
 -1      2299    3    0    2
 -2      2608      2335      1604      2336
 -1      2300    3    0    1
 -2      2091      2440      2608      1601
 -1      2301    3    0    1
 -2      1942       508      2440      2713
 -1      2302    3    0    2
 -2       260      1598      2876       297
 -1      2303    3    0    2
 -2      2441      2440      2607      1605
 -1      2304    3    0    2
 -2      2608      2335      1595      1596
 -1      2305    3    0    2
 -2       364      2274      2407      2408
 -1      2306    3    0    1
 -2      2219      2158      2222      2355
 -1      2307    3    0    1
 -2      2342      3311      3313      3708
 -1      2308    3    0    1
 -2       384      2356      2357      1339
 -1      2309    3    0    2
 -2      2359      2361      2364      2368
 -1      2310    3    0    1
 -2      2714      3235      3764      3772
 -1      2311    3    0    1
 -2       529      1153      3711      3802
 -1      2312    3    0    1
 -2      3450      3808      3836      3916
 -1      2313    3    0    2
 -2       933      3068      1433      1434
 -1      2314    3    0    2
 -2      1437      1438      3082      3083
 -1      2315    3    0    1
 -2      1177      3131       630      3820
 -1      2316    3    0    1
 -2       284      1986      2436      2458
 -1      2317    3    0    1
 -2       436      1986      2225      2531
 -1      2318    3    0    1
 -2       426       700      2098      1339
 -1      2319    3    0    2
 -2      2531      2530      1128       808
 -1      2320    3    0    1
 -2      1618      1124      3719      3796
 -1      2321    3    0    2
 -2       242      2231      2290      2291
 -1      2322    3    0    2
 -2      2518       945      2519      2520
 -1      2323    3    0    2
 -2      2417       520       596      1627
 -1      2324    3    0    2
 -2      2956      2957      2962      2971
 -1      2325    3    0    1
 -2      3910      3087      1778      3268
 -1      2326    3    0    2
 -2      2936      2935       873       280
 -1      2327    3    0    2
 -2      2399      2715      1341      1342
 -1      2328    3    0    1
 -2      1117      1288      3725      3759
 -1      2329    3    0    2
 -2       706       813      3213      3218
 -1      2330    3    0    1
 -2      2039      1973      2400      1341
 -1      2331    3    0    2
 -2      2870      2869      1013       388
 -1      2332    3    0    1
 -2      3797       955      1085      3887
 -1      2333    3    0    1
 -2       949       114      3768      3854
 -1      2334    3    0    2
 -2       284      1540      2457       313
 -1      2335    3    0    2
 -2      2345       283      1607      2460
 -1      2336    3    0    2
 -2      2292      2293      2935      1343
 -1      2337    3    0    2
 -2      3213      3215      3219      3220
 -1      2338    3    0    2
 -2      1582      2351      2325      1581
 -1      2339    3    0    1
 -2      3699      2059      3721      3530
 -1      2340    3    0    2
 -2      2430      3595      3597      3599
 -1      2341    3    0    2
 -2      2388      2387      2452      1623
 -1      2342    3    0    2
 -2      2345       315      2459      2460
 -1      2343    3    0    1
 -2      2022      2018      3191      3893
 -1      2344    3    0    2
 -2      2254      1013      2255      2352
 -1      2345    3    0    1
 -2       140      1158      3771      3774
 -1      2346    3    0    1
 -2       426      2015      2098      1344
 -1      2347    3    0    1
 -2      1676       643      2165      1573
 -1      2348    3    0    2
 -2      2935      2296       873      2297
 -1      2349    3    0    1
 -2      2288      2991      3698      3814
 -1      2350    3    0    2
 -2      2356      2426       619      2358
 -1      2351    3    0    2
 -2      2716      2715      1563       612
 -1      2352    3    0    1
 -2      2364      2360      2370      3707
 -1      2353    3    0    1
 -2        53      1754      1135      2724
 -1      2354    3    0    1
 -2      2356       384      2357      2427
 -1      2355    3    0    2
 -2      2427       386      1359      1360
 -1      2356    3    0    2
 -2      2304       916       915       398
 -1      2357    3    0    2
 -2       541      2308      1571      1572
 -1      2358    3    0    2
 -2      1023      1028      2554      1027
 -1      2359    3    0    2
 -2      2455      2285      1557      1558
 -1      2360    3    0    1
 -2      2174      2079      2612      3327
 -1      2361    3    0    2
 -2      2749      2280      1556      2750
 -1      2362    3    0    2
 -2       961       420       962      3240
 -1      2363    3    0    2
 -2      3237      3238      3242      3245
 -1      2364    3    0    1
 -2       694      3201      3481      3898
 -1      2365    3    0    1
 -2       380      1960      2031      1132
 -1      2366    3    0    1
 -2      2015       426      2955      1344
 -1      2367    3    0    2
 -2       541      1188       623      3184
 -1      2368    3    0    2
 -2      2959       880      2962      2970
 -1      2369    3    0    1
 -2      1728      1701      1898      1904
 -1      2370    3    0    1
 -2      1759      1679      1834      1947
 -1      2371    3    0    2
 -2       697      2723      2719      2729
 -1      2372    3    0    2
 -2      3208      3206      3214      3215
 -1      2373    3    0    2
 -2       977      2439       978      2488
 -1      2374    3    0    1
 -2      1781      1721      3524      3906
 -1      2375    3    0    1
 -2      1736      1666      1770      1827
 -1      2376    3    0    1
 -2       904      1509      3203      3831
 -1      2377    3    0    1
 -2      2469      2450      3441      3752
 -1      2378    3    0    2
 -2       671      1602      2608       799
 -1      2379    3    0    2
 -2       625      2264      2265      2510
 -1      2380    3    0    1
 -2      1786      1824      2029      2116
 -1      2381    3    0    1
 -2      2115       629      1055      3436
 -1      2382    3    0    1
 -2      1701      1883      1919      1980
 -1      2383    3    0    2
 -2       427      2296      2432      2433
 -1      2384    3    0    1
 -2      1799      1689      1857      2067
 -1      2385    3    0    1
 -2      1165       126      2765      3869
 -1      2386    3    0    2
 -2       829      2512      2513      1054
 -1      2387    3    0    1
 -2      1731      1900      2077      2191
 -1      2388    3    0    1
 -2      3159      3760      3763      3900
 -1      2389    3    0    1
 -2      3386      1953      3770      3634
 -1      2390    3    0    1
 -2      1827      1816      1876      2085
 -1      2391    3    0    1
 -2       625       688      2138      2977
 -1      2392    3    0    1
 -2        85        39       343      1877
 -1      2393    3    0    2
 -2      2978      2345      1191      2346
 -1      2394    3    0    1
 -2      2626      1948      2749      1565
 -1      2395    3    0    1
 -2      1707      1862      2100      2123
 -1      2396    3    0    1
 -2      2023       442      2070      2172
 -1      2397    3    0    1
 -2      1697      1750      1824      2029
 -1      2398    3    0    1
 -2      1690      1712      1940      1961
 -1      2399    3    0    1
 -2      1761      1762      1773      1916
 -1      2400    3    0    1
 -2      1666      1662      1736      1770
 -1      2401    3    0    1
 -2      1672      1665      1828      1949
 -1      2402    3    0    1
 -2      2813      1220      2819      3751
 -1      2403    3    0    1
 -2        10       538        60      2198
 -1      2404    3    0    2
 -2      3224      2389      3225      3226
 -1      2405    3    0    2
 -2      2848       949      2852      2855
 -1      2406    3    0    1
 -2      1988      1974      3125      3402
 -1      2407    3    0    1
 -2      1767       338      1822      2026
 -1      2408    3    0    1
 -2        24       355       329      1904
 -1      2409    3    0    1
 -2      1922      1920      3497      3498
 -1      2410    3    0    2
 -2      2635      2639      2640      2642
 -1      2411    3    0    1
 -2       945      1005      2525      3843
 -1      2412    3    0    1
 -2       522      2010       963      2776
 -1      2413    3    0    1
 -2      1764      1694      1789      2049
 -1      2414    3    0    1
 -2       216       333      2100      2123
 -1      2415    3    0    1
 -2      1703      1800      2049      2168
 -1      2416    3    0    1
 -2      2010       646      2086       963
 -1      2417    3    0    1
 -2       389      1067      3823      3919
 -1      2418    3    0    1
 -2      1755      1757      1798      3609
 -1      2419    3    0    1
 -2      1701      1883      1898      1919
 -1      2420    3    0    1
 -2        12       540       331      1684
 -1      2421    3    0    1
 -2      1838      1683      1903      1939
 -1      2422    3    0    1
 -2      1672      1665      1699      1763
 -1      2423    3    0    2
 -2      2848      2846      2850      2852
 -1      2424    3    0    1
 -2      1144      2737      1148      3703
 -1      2425    3    0    1
 -2       136      2410      3751      3791
 -1      2426    3    0    1
 -2       684      2245      2247      1057
 -1      2427    3    0    1
 -2       354       519      1857      1918
 -1      2428    3    0    1
 -2      1892      1858      1935      2129
 -1      2429    3    0    1
 -2      1750      1697      1780      2029
 -1      2430    3    0    2
 -2      1486      1485      3158      3164
 -1      2431    3    0    1
 -2      1701      1954      1964      1980
 -1      2432    3    0    1
 -2       225       514       253      1772
 -1      2433    3    0    1
 -2       366      1959      2211      2868
 -1      2434    3    0    1
 -2      1936      2753      3000      3425
 -1      2435    3    0    1
 -2      1814      1725      1815      1876
 -1      2436    3    0    1
 -2      1762      1799      1916      2023
 -1      2437    3    0    1
 -2      1665      1699      1723      1841
 -1      2438    3    0    1
 -2      2998      2159      3198      3639
 -1      2439    3    0    1
 -2       545       546      1749      2192
 -1      2440    3    0    1
 -2      1695      1674      1805      1884
 -1      2441    3    0    1
 -2       220       391       337      1956
 -1      2442    3    0    2
 -2       374      1630      1629      2461
 -1      2443    3    0    2
 -2       412      1516      1515      2695
 -1      2444    3    0    2
 -2       973       800      2476      2478
 -1      2445    3    0    2
 -2      2967      2466      2974      2975
 -1      2446    3    0    1
 -2      1483       189      3509      3855
 -1      2447    3    0    2
 -2       879      1364       880      2962
 -1      2448    3    0    1
 -2       214       540       274      1905
 -1      2449    3    0    1
 -2       215       492       473      1914
 -1      2450    3    0    1
 -2      1867      1714      1884      1914
 -1      2451    3    0    2
 -2       872      3295      3299      3309
 -1      2452    3    0    1
 -2        39       513      1850      1877
 -1      2453    3    0    1
 -2      1851      1762      1896      2118
 -1      2454    3    0    1
 -2       543       474      1814      1815
 -1      2455    3    0    1
 -2      1680      1666      1704      1871
 -1      2456    3    0    1
 -2      1982      3703      3711      3458
 -1      2457    3    0    2
 -2      1109      1110      2686      2687
 -1      2458    3    0    1
 -2      1733      1913      1937      2030
 -1      2459    3    0    1
 -2       517       230       256      1913
 -1      2460    3    0    1
 -2      1694      1704      1717      1871
 -1      2461    3    0    1
 -2      1798      1789      2049      3680
 -1      2462    3    0    2
 -2      2449      2320      1333      1334
 -1      2463    3    0    1
 -2       464        12       465      1684
 -1      2464    3    0    1
 -2      1722      1698      1740      1884
 -1      2465    3    0    1
 -2       428      1757      1801      2005
 -1      2466    3    0    1
 -2      1682      1668      1847      1903
 -1      2467    3    0    1
 -2       495       239      1908      2044
 -1      2468    3    0    1
 -2      1701      1790      1954      1980
 -1      2469    3    0    1
 -2      1823      1873      1894      2774
 -1      2470    3    0    2
 -2      2444      3390      1108      2445
 -1      2471    3    0    1
 -2      1706      1691      1922      3497
 -1      2472    3    0    2
 -2      2468      2467      3247      3253
 -1      2473    3    0    1
 -2      1704      1694      1717      1747
 -1      2474    3    0    1
 -2      1757      1801      2005      2064
 -1      2475    3    0    1
 -2      3207       861      3222      3788
 -1      2476    3    0    1
 -2      1650      1651      3856      3586
 -1      2477    3    0    1
 -2      2126       378      2461      3896
 -1      2478    3    0    1
 -2        61       383      1832      1933
 -1      2479    3    0    2
 -2       286      1332      2458      1331
 -1      2480    3    0    1
 -2      1669      1803      1822      1870
 -1      2481    3    0    1
 -2       393      1994      3006      3196
 -1      2482    3    0    1
 -2      1700      1965      2000      2140
 -1      2483    3    0    1
 -2       514       225       346      1772
 -1      2484    3    0    1
 -2       929      2131      3473      3916
 -1      2485    3    0    1
 -2       191      1770      1827      1885
 -1      2486    3    0    1
 -2        42        88       483      2030
 -1      2487    3    0    1
 -2       497      2115      2391      1055
 -1      2488    3    0    1
 -2      1663      1767      1803      2137
 -1      2489    3    0    2
 -2       731      1578      2548      1577
 -1      2490    3    0    1
 -2       270       533      1837      1852
 -1      2491    3    0    1
 -2      1233       688      2976      2977
 -1      2492    3    0    1
 -2       214       383       330      1933
 -1      2493    3    0    1
 -2       362       224       247      1848
 -1      2494    3    0    1
 -2      3094      3093      3105      3706
 -1      2495    3    0    1
 -2        40       151      3684      3787
 -1      2496    3    0    1
 -2       636      2184      2208      3182
 -1      2497    3    0    1
 -2       362       247      1829      1848
 -1      2498    3    0    1
 -2      3901      2200      2599      3205
 -1      2499    3    0    2
 -2       807       437      2370      2373
 -1      2500    3    0    2
 -2      1110      1107      1108      2687
 -1      2501    3    0    1
 -2      1809      1756      1344      3265
 -1      2502    3    0    1
 -2      1954      1727      1957      1997
 -1      2503    3    0    1
 -2      1710      1713      1768      1845
 -1      2504    3    0    2
 -2      2581      2580      2582      2587
 -1      2505    3    0    1
 -2      1714      1722      1884      1914
 -1      2506    3    0    1
 -2       217       356       235      1868
 -1      2507    3    0    1
 -2      2069      2186      1534      3399
 -1      2508    3    0    1
 -2      1781      1673      1839      1912
 -1      2509    3    0    2
 -2      3131      3137      3139      3143
 -1      2510    3    0    1
 -2       978       392      3415      3783
 -1      2511    3    0    1
 -2      2128      3405      3812      3857
 -1      2512    3    0    1
 -2      1700      1831      2000      2113
 -1      2513    3    0    1
 -2      1714       215      1867      2125
 -1      2514    3    0    1
 -2      1687      1681      1833      1984
 -1      2515    3    0    1
 -2      1263       542      3564      3864
 -1      2516    3    0    1
 -2      1887      1963      2080      3396
 -1      2517    3    0    1
 -2      1966      1749      2258       859
 -1      2518    3    0    1
 -2      1784      1722      1868      1914
 -1      2519    3    0    1
 -2       494       229       238      1745
 -1      2520    3    0    1
 -2      1878      1923      1939      2083
 -1      2521    3    0    1
 -2      3703      1145      3778      3839
 -1      2522    3    0    1
 -2       352        46       518      1930
 -1      2523    3    0    1
 -2      2209       682      1061      3407
 -1      2524    3    0    2
 -2       730      2327      1580      3409
 -1      2525    3    0    1
 -2      1734      1710      1779      1931
 -1      2526    3    0    2
 -2       780      2514      2515      2516
 -1      2527    3    0    1
 -2      1702      1957      1965      1997
 -1      2528    3    0    1
 -2      1211      2825      3789      2314
 -1      2529    3    0    1
 -2        44      1208      2823      3792
 -1      2530    3    0    1
 -2       383      1747      1832      1933
 -1      2531    3    0    1
 -2       390      1974      3341      3342
 -1      2532    3    0    1
 -2       835      1323      3822      3660
 -1      2533    3    0    1
 -2       466       207       208      1725
 -1      2534    3    0    1
 -2      1408      3035       650      3876
 -1      2535    3    0    1
 -2      1685      2130      2149      2158
 -1      2536    3    0    1
 -2       226       480      1786      1866
 -1      2537    3    0    2
 -2       878       877      3251      1551
 -1      2538    3    0    1
 -2      1817      3696      3718      3806
 -1      2539    3    0    2
 -2      1282      1281      2980      2985
 -1      2540    3    0    1
 -2      1700      1831      1941      2000
 -1      2541    3    0    1
 -2      1768       218      1845      1977
 -1      2542    3    0    1
 -2       254      1786      1824      1866
 -1      2543    3    0    1
 -2      1687      1753      1772      1866
 -1      2544    3    0    1
 -2      2057       949      2471      3768
 -1      2545    3    0    1
 -2      2929      1323      1330      3822
 -1      2546    3    0    1
 -2        27        29      1868      1914
 -1      2547    3    0    2
 -2       636       710      2445      1635
 -1      2548    3    0    1
 -2        22       494        34      1793
 -1      2549    3    0    1
 -2       219       491       477      1769
 -1      2550    3    0    1
 -2      1678      1752      1932      2173
 -1      2551    3    0    2
 -2      2288      2289      2991      2993
 -1      2552    3    0    1
 -2      1695      1739      1760      2008
 -1      2553    3    0    1
 -2      1848         8      1858      1892
 -1      2554    3    0    1
 -2      1683      1719      1847      1903
 -1      2555    3    0    1
 -2       896       390      3341      3342
 -1      2556    3    0    2
 -2      3041      3042      3046      3048
 -1      2557    3    0    1
 -2       489        28       475      1875
 -1      2558    3    0    1
 -2       539       212       328      1764
 -1      2559    3    0    1
 -2      1681      1686      1743      1843
 -1      2560    3    0    1
 -2      3723      2918      3805      3822
 -1      2561    3    0    1
 -2      1799      1762      1916      2068
 -1      2562    3    0    2
 -2       781       687      3161      3165
 -1      2563    3    0    2
 -2      2333      2334      2775      1600
 -1      2564    3    0    1
 -2       394      2916      2922      3723
 -1      2565    3    0    2
 -2      3160       784      3163      3168
 -1      2566    3    0    1
 -2       427      1756      2014      1011
 -1      2567    3    0    1
 -2      1858      1675      1892      1935
 -1      2568    3    0    1
 -2      2591      2580      3722      3877
 -1      2569    3    0    1
 -2      1917      2094      3403      3475
 -1      2570    3    0    1
 -2      1728      1932      1991      1998
 -1      2571    3    0    1
 -2      1767      1663      1803      1822
 -1      2572    3    0    2
 -2      2633      2627      2636      2637
 -1      2573    3    0    2
 -2      2688      2620       568      2621
 -1      2574    3    0    1
 -2        89        61       328      1933
 -1      2575    3    0    1
 -2      1303      1297      3780      3898
 -1      2576    3    0    1
 -2         8       325       458      1892
 -1      2577    3    0    1
 -2        29       356      1868      1914
 -1      2578    3    0    1
 -2      1685      2110      2130      2206
 -1      2579    3    0    1
 -2      2381      1811      2598      1613
 -1      2580    3    0    1
 -2      1993      1685      2149      2182
 -1      2581    3    0    1
 -2      1666      1680      1684      1725
 -1      2582    3    0    1
 -2      2859      2384      1569      3732
 -1      2583    3    0    1
 -2      1923      1793      1939      2083
 -1      2584    3    0    1
 -2       214       274      1747      1905
 -1      2585    3    0    1
 -2        65        56      3754      3857
 -1      2586    3    0    1
 -2      1720      1821      1868      1875
 -1      2587    3    0    1
 -2      1749       545      2249      1277
 -1      2588    3    0    2
 -2       373      1570       578      2702
 -1      2589    3    0    1
 -2      3564      1553      3570      3864
 -1      2590    3    0    1
 -2      1929      3339      3341      3867
 -1      2591    3    0    1
 -2      3467      2009      3801      3680
 -1      2592    3    0    1
 -2       490        48      1821      1875
 -1      2593    3    0    1
 -2      1820      1797      1887      1908
 -1      2594    3    0    1
 -2      2619      2154      3684      3528
 -1      2595    3    0    1
 -2      2999      3122      3521      3806
 -1      2596    3    0    1
 -2      1687      1786      1823      1873
 -1      2597    3    0    1
 -2      2479      2476      2484      3748
 -1      2598    3    0    1
 -2        79        16       449      2026
 -1      2599    3    0    2
 -2      2804      2805      1223       361
 -1      2600    3    0    1
 -2       495       227       239      2044
 -1      2601    3    0    2
 -2      2605       501       586      1309
 -1      2602    3    0    1
 -2      1844      1696      2020      2021
 -1      2603    3    0    1
 -2      2017      1783      2171      3625
 -1      2604    3    0    1
 -2      1707      1677      1776      3615
 -1      2605    3    0    2
 -2       817      3595      3596      3598
 -1      2606    3    0    1
 -2      1416       182      1419      3709
 -1      2607    3    0    1
 -2       558        82      1854      1989
 -1      2608    3    0    2
 -2      2241       521      2412      1392
 -1      2609    3    0    2
 -2       944       653      2960      2961
 -1      2610    3    0    2
 -2      2463      2464      3027      3031
 -1      2611    3    0    2
 -2       431       817      3596      3598
 -1      2612    3    0    2
 -2      2361      2364      2368      2371
 -1      2613    3    0    1
 -2      2281      1890      2749      3261
 -1      2614    3    0    2
 -2      2231      2290      1234      2232
 -1      2615    3    0    1
 -2      1738       438      2003      3472
 -1      2616    3    0    1
 -2      1097       415      2658      3683
 -1      2617    3    0    1
 -2      1697      1750      1823      1824
 -1      2618    3    0    2
 -2       609       390       895      3010
 -1      2619    3    0    1
 -2      2169       690      2243      1389
 -1      2620    3    0    2
 -2      2844      1179      1247      2845
 -1      2621    3    0    1
 -2      1913       518      1930      1937
 -1      2622    3    0    2
 -2       121      1086      1085      2637
 -1      2623    3    0    2
 -2      2387      2452       941      2388
 -1      2624    3    0    1
 -2      1708      1901      2071      2201
 -1      2625    3    0    2
 -2       267      2258      2873      2874
 -1      2626    3    0    1
 -2      1686      1681      1687      1984
 -1      2627    3    0    2
 -2      2617      3052      3057      3060
 -1      2628    3    0    1
 -2      1693      1686      2012      2103
 -1      2629    3    0    2
 -2       392       605      2455       977
 -1      2630    3    0    1
 -2      2683      2445      2687      3878
 -1      2631    3    0    2
 -2      2279      2775      1070      2278
 -1      2632    3    0    1
 -2      1155        33      3434      3853
 -1      2633    3    0    1
 -2      1696      1771      1795      1844
 -1      2634    3    0    1
 -2      1745       494      1788      1793
 -1      2635    3    0    1
 -2      2209       501      1309      3495
 -1      2636    3    0    2
 -2      2359      2361      2360      2364
 -1      2637    3    0    1
 -2      1703      1834      1947      2002
 -1      2638    3    0    1
 -2      1762      2023      2070      2172
 -1      2639    3    0    1
 -2      1705      1696      1712      1979
 -1      2640    3    0    1
 -2       215       357       237      1867
 -1      2641    3    0    2
 -2      3048       651      3051      3056
 -1      2642    3    0    1
 -2      2613      3144      3146      3849
 -1      2643    3    0    1
 -2      1578      2555       381      3729
 -1      2644    3    0    1
 -2       205       462       459      1950
 -1      2645    3    0    1
 -2        63      1717      1770      1836
 -1      2646    3    0    1
 -2       230       518       256      1937
 -1      2647    3    0    1
 -2       494       482      1788      1793
 -1      2648    3    0    1
 -2      1857      1689      1918      2067
 -1      2649    3    0    1
 -2       494       482      1745      1788
 -1      2650    3    0    1
 -2      1904        24       488      1919
 -1      2651    3    0    2
 -2      2385       837       901      2386
 -1      2652    3    0    1
 -2      1752      1739      1991      1998
 -1      2653    3    0    1
 -2       152      1731      1879      1894
 -1      2654    3    0    1
 -2      2086      2089      3398      1646
 -1      2655    3    0    1
 -2       203       458       325      1892
 -1      2656    3    0    1
 -2      1697      1750      1780      1900
 -1      2657    3    0    1
 -2      2561       365      3700      3712
 -1      2658    3    0    2
 -2      3041      3043      3044      3049
 -1      2659    3    0    1
 -2      2283      2671      2675      3764
 -1      2660    3    0    1
 -2      2454      1721      3496      3906
 -1      2661    3    0    1
 -2      1722      1698      1884      1914
 -1      2662    3    0    1
 -2      3321      3320      3705      3818
 -1      2663    3    0    1
 -2      1683      1745      1788      1793
 -1      2664    3    0    1
 -2      1718      1729      2032      2205
 -1      2665    3    0    1
 -2      2130      2149      2158      2217
 -1      2666    3    0    1
 -2       226       254      1786      1824
 -1      2667    3    0    1
 -2       263       376      2071      2104
 -1      2668    3    0    2
 -2      2778       320      1565      1566
 -1      2669    3    0    1
 -2      1683      1765      1923      1939
 -1      2670    3    0    1
 -2       355        24        58      1904
 -1      2671    3    0    1
 -2       444       195       196      1916
 -1      2672    3    0    2
 -2      2987       738      2991      1383
 -1      2673    3    0    1
 -2      1798      1717      1836      1871
 -1      2674    3    0    1
 -2         8       362        74      1848
 -1      2675    3    0    1
 -2      1921      1830      2022      2094
 -1      2676    3    0    1
 -2       559       342      1737      1874
 -1      2677    3    0    2
 -2      3237      3241      3248      3252
 -1      2678    3    0    1
 -2      1686      1687      1753      1772
 -1      2679    3    0    1
 -2      1934      1944      2074      2082
 -1      2680    3    0    1
 -2      3238      3240      3704      3728
 -1      2681    3    0    1
 -2      1694      1764      1800      2049
 -1      2682    3    0    1
 -2      1841      1708      1950      2104
 -1      2683    3    0    1
 -2       492        27       473      1914
 -1      2684    3    0    1
 -2        39        85       479      1877
 -1      2685    3    0    2
 -2       860      2258       859      2874
 -1      2686    3    0    1
 -2      1453      1459      3100      3688
 -1      2687    3    0    2
 -2      1413      1428      3060      1427
 -1      2688    3    0    1
 -2      1803      1664      3337      3623
 -1      2689    3    0    1
 -2      2618      2755      3062      3810
 -1      2690    3    0    1
 -2      1565      1756      3265      3377
 -1      2691    3    0    1
 -2      1679      1759      1861      1907
 -1      2692    3    0    2
 -2      2428      2691      1540      2692
 -1      2693    3    0    1
 -2       321       440      1735      1865
 -1      2694    3    0    1
 -2      2331      2230      2493      1499
 -1      2695    3    0    1
 -2      1671       466      1725      1815
 -1      2696    3    0    1
 -2       487        25      1865      1880
 -1      2697    3    0    1
 -2      2192       662      1588      3818
 -1      2698    3    0    1
 -2        18        73      1737      2224
 -1      2699    3    0    1
 -2      3517       185      3815      3893
 -1      2700    3    0    1
 -2       390       896      3010      3819
 -1      2701    3    0    1
 -2       177        54      3736      3612
 -1      2702    3    0    1
 -2      1883      1701      1964      1980
 -1      2703    3    0    1
 -2      2006      2620      3540      3876
 -1      2704    3    0    1
 -2      1769      1712      1787      1940
 -1      2705    3    0    1
 -2      1713      1734      1945      1956
 -1      2706    3    0    1
 -2      1829      1848      1858      1892
 -1      2707    3    0    1
 -2      1803      1767      1870      2137
 -1      2708    3    0    1
 -2      1829        74      1848      1892
 -1      2709    3    0    1
 -2       898      1419      3525      3847
 -1      2710    3    0    1
 -2      1697      1780      2029      2116
 -1      2711    3    0    2
 -2       393      1504       773      3195
 -1      2712    3    0    1
 -2      1944      2811      3284      3790
 -1      2713    3    0    1
 -2      1364       880      3713      3857
 -1      2714    3    0    1
 -2      1785      1689      1922      2067
 -1      2715    3    0    1
 -2      1974      1988      2119      3402
 -1      2716    3    0    1
 -2      1790      1727      1954      2164
 -1      2717    3    0    2
 -2      2239      2240      2411      1235
 -1      2718    3    0    1
 -2       431      3421      3874      3875
 -1      2719    3    0    1
 -2       472      1728      1991      1998
 -1      2720    3    0    1
 -2      1785      1706      1791      2067
 -1      2721    3    0    2
 -2       843       844      2497       989
 -1      2722    3    0    1
 -2       461       205       460      1950
 -1      2723    3    0    1
 -2      1715      1702      1965      2164
 -1      2724    3    0    1
 -2      2003       392      2145      3415
 -1      2725    3    0    1
 -2      1740      1810      3516      3517
 -1      2726    3    0    1
 -2      1971      1766      2063      2099
 -1      2727    3    0    1
 -2      2158      2217      2223      3192
 -1      2728    3    0    1
 -2       457       203       456      2129
 -1      2729    3    0    1
 -2      1935      1858      2051      2129
 -1      2730    3    0    1
 -2       457        20      2051      2129
 -1      2731    3    0    1
 -2      1954      1727      1997      2164
 -1      2732    3    0    1
 -2      1921      1678      1932      2173
 -1      2733    3    0    1
 -2      2071       263      2104      2201
 -1      2734    3    0    2
 -2       931      2478      2481      2489
 -1      2735    3    0    1
 -2      1241      1243      3793      3902
 -1      2736    3    0    1
 -2       663      2016      2328      3409
 -1      2737    3    0    2
 -2      2289      2288      1380      2993
 -1      2738    3    0    1
 -2      2767      2758      3693      3891
 -1      2739    3    0    1
 -2      1731       152      1823      1894
 -1      2740    3    0    1
 -2      3737      3260      3479      3803
 -1      2741    3    0    1
 -2       512      1999      2054       855
 -1      2742    3    0    1
 -2      2115       497      2391      2748
 -1      2743    3    0    1
 -2      1764      1703      1800      2049
 -1      2744    3    0    1
 -2      1709      1742      1854      2117
 -1      2745    3    0    1
 -2       658      1809      1565      3377
 -1      2746    3    0    2
 -2      2445      2444      3390      1635
 -1      2747    3    0    1
 -2       226       254      1824      2116
 -1      2748    3    0    2
 -2      2697      2402      1149      2401
 -1      2749    3    0    1
 -2      3223       967      1530      3788
 -1      2750    3    0    1
 -2      1782      1721      2012      3496
 -1      2751    3    0    1
 -2       515        19        41      2116
 -1      2752    3    0    1
 -2      2599      2223      3889      3901
 -1      2753    3    0    2
 -2      2274       856       642      2275
 -1      2754    3    0    1
 -2       213       355       233      1898
 -1      2755    3    0    1
 -2       233       355      1728      1898
 -1      2756    3    0    1
 -2      1747      1680      1704      1905
 -1      2757    3    0    1
 -2      3234      3429      3476      3562
 -1      2758    3    0    1
 -2       540       331      1684      1905
 -1      2759    3    0    1
 -2      1691      1922      3497      3498
 -1      2760    3    0    1
 -2      1853       427      2297      2432
 -1      2761    3    0    1
 -2      1676       643      2134      2165
 -1      2762    3    0    1
 -2      1727      1715      1735      1965
 -1      2763    3    0    1
 -2      1917      1856      1968      2075
 -1      2764    3    0    1
 -2      1920       136      3497      3498
 -1      2765    3    0    1
 -2      1261      3811      3866      3890
 -1      2766    3    0    1
 -2      1677      1862      1876      2085
 -1      2767    3    0    2
 -2      1367      1368      2466      3183
 -1      2768    3    0    1
 -2      2010       692      3317      2144
 -1      2769    3    0    2
 -2      2772      2288      1380      2289
 -1      2770    3    0    1
 -2      2230       242      2331      1497
 -1      2771    3    0    1
 -2      1835      1847      2027      3482
 -1      2772    3    0    1
 -2       231       496       484      2083
 -1      2773    3    0    1
 -2      1663      1724      1931      2137
 -1      2774    3    0    1
 -2      2149      1685      2158      2219
 -1      2775    3    0    1
 -2      1966       277       859      2874
 -1      2776    3    0    1
 -2       503      3388      3407      3848
 -1      2777    3    0    1
 -2       631      2047      1313      3173
 -1      2778    3    0    1
 -2      1758      1825      2013      2035
 -1      2779    3    0    1
 -2       523      2010      1599      3317
 -1      2780    3    0    1
 -2      1618      3719      3761      3796
 -1      2781    3    0    2
 -2      2350      2349      2611      1071
 -1      2782    3    0    2
 -2       242      2230      2290      1497
 -1      2783    3    0    2
 -2      2328       271      3116      1579
 -1      2784    3    0    1
 -2      2144      2420      1119      2877
 -1      2785    3    0    1
 -2      2086       646      2089       963
 -1      2786    3    0    1
 -2      1767      1663      1945      2137
 -1      2787    3    0    1
 -2      1883      1701      1891      1964
 -1      2788    3    0    1
 -2      3040      2150      3692      3452
 -1      2789    3    0    2
 -2      2420       692      2710      2711
 -1      2790    3    0    2
 -2      2325      1582      1581      2459
 -1      2791    3    0    2
 -2       530      1272      2755      1271
 -1      2792    3    0    1
 -2       188       140      3774      3639
 -1      2793    3    0    1
 -2      2050      3337      3492      3550
 -1      2794    3    0    1
 -2       259      1994      1233      2977
 -1      2795    3    0    1
 -2       504      3390      1636      3765
 -1      2796    3    0    2
 -2      1177      1178      3133      3140
 -1      2797    3    0    2
 -2      1037      1038      2592      2594
 -1      2798    3    0    1
 -2      1941      2000      2107      2140
 -1      2799    3    0    1
 -2      1360      3808      3560      3836
 -1      2800    3    0    2
 -2      2254      2351       929       930
 -1      2801    3    0    2
 -2      1481        43      3155      3159
 -1      2802    3    0    2
 -2      2428      2691      1331      1332
 -1      2803    3    0    2
 -2      2320      2449       864      2448
 -1      2804    3    0    2
 -2      3602      2715      3604      3605
 -1      2805    3    0    2
 -2      2470      1228      2404      1227
 -1      2806    3    0    1
 -2      3418      2011      3755      3824
 -1      2807    3    0    1
 -2      1856      1917      1385      3773
 -1      2808    3    0    1
 -2      1733      1706      1791      1930
 -1      2809    3    0    2
 -2      3011      3014      3021      3024
 -1      2810    3    0    1
 -2      1706      1733      1913      1930
 -1      2811    3    0    2
 -2      2477      2484      2487      2490
 -1      2812    3    0    2
 -2      2781      2620      2782      1447
 -1      2813    3    0    2
 -2      2778      2777      1565       275
 -1      2814    3    0    1
 -2      1223      2804       361      3838
 -1      2815    3    0    1
 -2      2303      2169      1269      3733
 -1      2816    3    0    1
 -2      1904      1790      1919      1975
 -1      2817    3    0    1
 -2      1706      1785      1791      1930
 -1      2818    3    0    2
 -2      2327      2328      1579      3409
 -1      2819    3    0    1
 -2       394      1320      3723      3742
 -1      2820    3    0    1
 -2      2004      2250      1051      2610
 -1      2821    3    0    1
 -2      3699      1421      3782      3810
 -1      2822    3    0    1
 -2      1775      1688      2030      2037
 -1      2823    3    0    1
 -2      1775       228      1780      2037
 -1      2824    3    0    1
 -2      1714       215      1722      1914
 -1      2825    3    0    1
 -2      1722        27      1868      1914
 -1      2826    3    0    1
 -2      1938      1902      3442      3870
 -1      2827    3    0    2
 -2      2512      2307      2513      1054
 -1      2828    3    0    2
 -2      1003      1006      2520      1004
 -1      2829    3    0    1
 -2       195       444       323      1916
 -1      2830    3    0    2
 -2      3195      2241      1503      1504
 -1      2831    3    0    2
 -2       557      1602       604      2713
 -1      2832    3    0    1
 -2       632      2247      2704      1395
 -1      2833    3    0    1
 -2      1663      1767      1945      1956
 -1      2834    3    0    1
 -2      1291       695      1455      3775
 -1      2835    3    0    2
 -2      3245      3238      3249      3254
 -1      2836    3    0    1
 -2       444         2       323      1918
 -1      2837    3    0    1
 -2       323         2      1799      1918
 -1      2838    3    0    2
 -2       694      1298      2896       752
 -1      2839    3    0    1
 -2       488        24       470      1919
 -1      2840    3    0    1
 -2        24      1904       488        58
 -1      2841    3    0    2
 -2      1149      2744       375      2743
 -1      2842    3    0    2
 -2      2618      3060      3062      3063
 -1      2843    3    0    1
 -2      1920       136      2410      3792
 -1      2844    3    0    1
 -2      1894       152      3830      3831
 -1      2845    3    0    1
 -2      1690      1769      1787      1940
 -1      2846    3    0    2
 -2      2440      2607      1602      2441
 -1      2847    3    0    1
 -2      1689      1762      1773      2068
 -1      2848    3    0    1
 -2      1689      1922      2067      2068
 -1      2849    3    0    1
 -2      1762      1689      1916      2068
 -1      2850    3    0    1
 -2      1689      1799      1916      2068
 -1      2851    3    0    1
 -2       949      2057      3118      3854
 -1      2852    3    0    1
 -2      1750      1823      1873      2191
 -1      2853    3    0    1
 -2       692      2144      1119      3573
 -1      2854    3    0    1
 -2      1902      3704      3813      3870
 -1      2855    3    0    1
 -2      2548      2324      1578      3729
 -1      2856    3    0    1
 -2       186       840      3113      3725
 -1      2857    3    0    1
 -2      1777      1751      1907      2072
 -1      2858    3    0    1
 -2       340         4       525      1925
 -1      2859    3    0    1
 -2       221       525       263      1925
 -1      2860    3    0    1
 -2        75         4       340      1925
 -1      2861    3    0    1
 -2       525       221       340      1925
 -1      2862    3    0    1
 -2       340       221      1911      1925
 -1      2863    3    0    1
 -2        75       340      1911      1925
 -1      2864    3    0    1
 -2         4       446       445      1925
 -1      2865    3    0    1
 -2       446         4        75      1925
 -1      2866    3    0    1
 -2       446        75      1911      1925
 -1      2867    3    0    1
 -2      1771       446      1911      1925
 -1      2868    3    0    2
 -2       421       730      1579      3409
 -1      2869    3    0    1
 -2      1565      2777      2626      1948
 -1      2870    3    0    2
 -2      2983       734      1377      2989
 -1      2871    3    0    1
 -2      1702      1952      1953      1957
 -1      2872    3    0    1
 -2        84      1945       337      1956
 -1      2873    3    0    1
 -2      3483      2028      3817      3678
 -1      2874    3    0    2
 -2      2551      1023      2552      2553
 -1      2875    3    0    1
 -2      1765      1838      1882      1958
 -1      2876    3    0    1
 -2       391       220       285      1956
 -1      2877    3    0    2
 -2      3092      3094      3098      3101
 -1      2878    3    0    1
 -2      1834      1759      1947      2002
 -1      2879    3    0    1
 -2       685      3000      3744      3840
 -1      2880    3    0    1
 -2      1675      1820      1935      2080
 -1      2881    3    0    1
 -2      1565      2777      1948       275
 -1      2882    3    0    1
 -2      2006      3399      3546      3672
 -1      2883    3    0    2
 -2      2241      2411      1503      1504
 -1      2884    3    0    1
 -2      1847        33      1882      2027
 -1      2885    3    0    1
 -2      1789      1703      2049      2168
 -1      2886    3    0    1
 -2      1719       351      1745      2143
 -1      2887    3    0    1
 -2      1706      1785      1922      2067
 -1      2888    3    0    1
 -2      1679      1759      1907      1947
 -1      2889    3    0    1
 -2      1773      1762      1851      2118
 -1      2890    3    0    1
 -2      1761      1762      2070      2172
 -1      2891    3    0    1
 -2       411       410      1569      3759
 -1      2892    3    0    1
 -2      1714      1867      2088      2125
 -1      2893    3    0    1
 -2       447       197       198      2020
 -1      2894    3    0    1
 -2       554        16        79      2026
 -1      2895    3    0    1
 -2      1208      2818      2823      3792
 -1      2896    3    0    1
 -2       413      1145      3336      3839
 -1      2897    3    0    1
 -2      1767      1822      1870      2026
 -1      2898    3    0    1
 -2      1706      1691      1791      2067
 -1      2899    3    0    1
 -2      1798      1755      2049      2176
 -1      2900    3    0    1
 -2      1832      1800      1933      2176
 -1      2901    3    0    1
 -2       338       554      1822      2026
 -1      2902    3    0    1
 -2      1411       651      3721      3525
 -1      2903    3    0    1
 -2      1999       512      2054      2165
 -1      2904    3    0    1
 -2      1551        64      1549      3803
 -1      2905    3    0    1
 -2      1843      1681      1984      2122
 -1      2906    3    0    2
 -2      2300       711      2653      1308
 -1      2907    3    0    1
 -2       418      3333      3735      3419
 -1      2908    3    0    1
 -2      3695       272      3756      3539
 -1      2909    3    0    1
 -2      2146      2492      3004      3572
 -1      2910    3    0    1
 -2       438      1738      1229      3472
 -1      2911    3    0    2
 -2      2478       931      2482      2483
 -1      2912    3    0    1
 -2      1032       363      3533      3861
 -1      2913    3    0    2
 -2       774       678      2808      2809
 -1      2914    3    0    2
 -2       150       849      1015      1016
 -1      2915    3    0    2
 -2       668      2361      2359       883
 -1      2916    3    0    2
 -2       815       666      2978      1563
 -1      2917    3    0    2
 -2      2869      2254      1013      2255
 -1      2918    3    0    1
 -2       495       348      1908      2212
 -1      2919    3    0    1
 -2      1720      1821      1875      1940
 -1      2920    3    0    1
 -2      1797      1887      1908      1962
 -1      2921    3    0    1
 -2      1751      1777      3432      3433
 -1      2922    3    0    1
 -2      1889       187      2171      3292
 -1      2923    3    0    1
 -2      1746      1967      1979      2001
 -1      2924    3    0    1
 -2      1082       899      2632      3795
 -1      2925    3    0    2
 -2      1162      2463      1161      3031
 -1      2926    3    0    1
 -2      2889      2893      3716      3775
 -1      2927    3    0    1
 -2      2161       635      2162      2196
 -1      2928    3    0    1
 -2      1181      2169      3447      3912
 -1      2929    3    0    1
 -2      2242       521      1391      3828
 -1      2930    3    0    1
 -2      2139      3194      3750      3440
 -1      2931    3    0    1
 -2       216       548       279      2100
 -1      2932    3    0    1
 -2      2419      1294      2895      3896
 -1      2933    3    0    2
 -2      3046      2618      3052      3057
 -1      2934    3    0    1
 -2      1942       639      2046      2061
 -1      2935    3    0    1
 -2       408      3751      3789      3790
 -1      2936    3    0    1
 -2       377      2639      2684      3714
 -1      2937    3    0    1
 -2       493        21        35      2212
 -1      2938    3    0    2
 -2      2263      1185      3161      3166
 -1      2939    3    0    2
 -2      1212      2313      1211      2815
 -1      2940    3    0    1
 -2         5         6      2088      2125
 -1      2941    3    0    1
 -2      2077      2709      1900      3233
 -1      2942    3    0    1
 -2      3247      2467      3728      3813
 -1      2943    3    0    1
 -2      1790      1701      1904      1980
 -1      2944    3    0    2
 -2       877      3251      1551      1552
 -1      2945    3    0    1
 -2       454       201       453      2007
 -1      2946    3    0    1
 -2      2875      1955      3086      3544
 -1      2947    3    0    1
 -2       163      1778      1976      2050
 -1      2948    3    0    1
 -2      3384      3753      3528      3843
 -1      2949    3    0    2
 -2       572      2379      2461      1516
 -1      2950    3    0    2
 -2       833      2720      2721      2728
 -1      2951    3    0    1
 -2      1696      1746      1795      1979
 -1      2952    3    0    1
 -2      1984       149      2122      3518
 -1      2953    3    0    1
 -2       263       221      1911      2071
 -1      2954    3    0    2
 -2      1549      3251      1550      1552
 -1      2955    3    0    1
 -2      1670       499      2167      1210
 -1      2956    3    0    1
 -2      1251      1125      2855      3768
 -1      2957    3    0    1
 -2       949        70      2471      3768
 -1      2958    3    0    1
 -2      3772      2025      3829      3637
 -1      2959    3    0    1
 -2      3734      3400      3837      3922
 -1      2960    3    0    1
 -2      2054      1676      2134      2165
 -1      2961    3    0    1
 -2      1964      1955      2875      3007
 -1      2962    3    0    1
 -2       501      2209      2606      3495
 -1      2963    3    0    2
 -2      2757      2760      2769      2770
 -1      2964    3    0    1
 -2      1696      1705      1746      1979
 -1      2965    3    0    1
 -2      1726      1696      1771      1979
 -1      2966    3    0    1
 -2      3550      3337      3851      3650
 -1      2967    3    0    1
 -2      1994       688      2977      3006
 -1      2968    3    0    1
 -2      1675      1718      1829      2166
 -1      2969    3    0    1
 -2      1693      1686      1782      2012
 -1      2970    3    0    2
 -2       584      2451      2469      2470
 -1      2971    3    0    1
 -2      3001      3715      3424      3748
 -1      2972    3    0    1
 -2       201       454       202      2007
 -1      2973    3    0    1
 -2      1825      1812      2013      2035
 -1      2974    3    0    1
 -2      2537      2539      2543      3696
 -1      2975    3    0    1
 -2      1917      1385      1968       537
 -1      2976    3    0    1
 -2      2580      2586      2591      3722
 -1      2977    3    0    1
 -2      2238      2630      2632      3724
 -1      2978    3    0    1
 -2       380      1960      1132      3859
 -1      2979    3    0    2
 -2       648      2463      2464      2622
 -1      2980    3    0    1
 -2      1664      1803      2137      3332
 -1      2981    3    0    1
 -2      1735      1700      2000      2113
 -1      2982    3    0    2
 -2      2438      2456       981       982
 -1      2983    3    0    1
 -2      2615      3712      3746      3493
 -1      2984    3    0    1
 -2      2007       452      1739      1998
 -1      2985    3    0    2
 -2      2294       700      2295      1567
 -1      2986    3    0    1
 -2      2043      2274      2299      3393
 -1      2987    3    0    1
 -2       410      1254      2859      3710
 -1      2988    3    0    2
 -2       686       796      2487      2490
 -1      2989    3    0    1
 -2      3322      2492      3738      3834
 -1      2990    3    0    1
 -2       151       966      3684      3747
 -1      2991    3    0    2
 -2       656      2350      2611      1071
 -1      2992    3    0    1
 -2      2138       688      1391      3006
 -1      2993    3    0    2
 -2       846      2264       845      2511
 -1      2994    3    0    1
 -2      1624       252      3392      3426
 -1      2995    3    0    1
 -2      1721      1693      2012      2155
 -1      2996    3    0    1
 -2      3813      3442      3864      3907
 -1      2997    3    0    2
 -2       702      1274      2609      1273
 -1      2998    3    0    1
 -2      1951      1846      1990      2215
 -1      2999    3    0    1
 -2      2022      1917      2094      3403
 -1      3000    3    0    2
 -2      1280      2286      2688      1279
 -1      3001    3    0    2
 -2      1338      2225      1337      3010
 -1      3002    3    0    2
 -2       654      1054      1053      2512
 -1      3003    3    0    1
 -2      2153      3722      3816      3877
 -1      3004    3    0    1
 -2       441        77      1849      2113
 -1      3005    3    0    1
 -2        66      1594      3777      3834
 -1      3006    3    0    2
 -2      2873      2874       860       289
 -1      3007    3    0    2
 -2       669      1128      2531      1127
 -1      3008    3    0    1
 -2       625      2056      2138      2211
 -1      3009    3    0    1
 -2       945      2518      2523      3843
 -1      3010    3    0    2
 -2       401      2579      2583      2587
 -1      3011    3    0    1
 -2       517        42      2030      2037
 -1      3012    3    0    1
 -2      1721      1781      2803      3906
 -1      3013    3    0    1
 -2      1831      1700      1849      2113
 -1      3014    3    0    1
 -2       418      2496      2498      3735
 -1      3015    3    0    1
 -2      3383      2028      3776      3817
 -1      3016    3    0    1
 -2      1900      1775      2040      2077
 -1      3017    3    0    1
 -2      2717      3685      3696      3729
 -1      3018    3    0    1
 -2      2136      3752      3807      3891
 -1      3019    3    0    2
 -2      2539       704      2542      2551
 -1      3020    3    0    1
 -2      3010      1774      3344      3819
 -1      3021    3    0    2
 -2      2328       663      1583      1584
 -1      3022    3    0    1
 -2       682      2162      2209      2354
 -1      3023    3    0    2
 -2      2322      2321      2353      1575
 -1      3024    3    0    1
 -2      2174       656      3281      3883
 -1      3025    3    0    1
 -2      3432      1751      3433      3847
 -1      3026    3    0    2
 -2      2739      2738      2740      2743
 -1      3027    3    0    1
 -2       234       487      1790      1975
 -1      3028    3    0    1
 -2      1688      1733      1886      2040
 -1      3029    3    0    1
 -2       487       327      1880      1975
 -1      3030    3    0    2
 -2       741       697      2723      2726
 -1      3031    3    0    2
 -2      2366       807      2370      2373
 -1      3032    3    0    2
 -2      2356      1340      1339      2426
 -1      3033    3    0    1
 -2       470       488      1919      1975
 -1      3034    3    0    1
 -2       420      1960      1132      3408
 -1      3035    3    0    1
 -2        82      1742      1854      1989
 -1      3036    3    0    1
 -2       288       222      1874      1989
 -1      3037    3    0    1
 -2       487       211       327      1975
 -1      3038    3    0    1
 -2       211       488       470      1975
 -1      3039    3    0    1
 -2       488      1790      1904      1975
 -1      3040    3    0    1
 -2       553      1713      1845      1977
 -1      3041    3    0    1
 -2        14       553       335      1977
 -1      3042    3    0    1
 -2       218       553       282      1977
 -1      3043    3    0    1
 -2       282       553      1845      1977
 -1      3044    3    0    1
 -2       553        84      1713      1977
 -1      3045    3    0    1
 -2       553        14        84      1977
 -1      3046    3    0    1
 -2      1713        84      1956      1977
 -1      3047    3    0    1
 -2       359       353      1793      2083
 -1      3048    3    0    1
 -2      1522       433      3219      3832
 -1      3049    3    0    1
 -2       554        79      1822      2026
 -1      3050    3    0    1
 -2      1813      2043      2299      3393
 -1      3051    3    0    1
 -2      1814      1725      1876      2085
 -1      3052    3    0    1
 -2      1743      1686      1850      2103
 -1      3053    3    0    1
 -2      3260      3325      3704      3737
 -1      3054    3    0    2
 -2      2338      2360      2363      2369
 -1      3055    3    0    2
 -2      2603      2604      2813      2817
 -1      3056    3    0    1
 -2      2245       243      2247      2447
 -1      3057    3    0    1
 -2      1724      1663      1803      2137
 -1      3058    3    0    1
 -2      2806      2813      3717      3789
 -1      3059    3    0    1
 -2      1676       643      2034      2134
 -1      3060    3    0    1
 -2      1955      1964      2999      3007
 -1      3061    3    0    1
 -2      3040      2150      3199      3692
 -1      3062    3    0    1
 -2       449        16       450      2026
 -1      3063    3    0    1
 -2      1881      1851      1896      2118
 -1      3064    3    0    1
 -2       680      2062      3757      3482
 -1      3065    3    0    2
 -2      2250      1052      2251      2873
 -1      3066    3    0    1
 -2      1673      1781      1839      2155
 -1      3067    3    0    1
 -2      1888      2308      1053      3183
 -1      3068    3    0    1
 -2      1954      1955      1980      1997
 -1      3069    3    0    1
 -2       520      1185      3276      3785
 -1      3070    3    0    1
 -2       904      2122      2602      3628
 -1      3071    3    0    2
 -2       417      2249      2270      2271
 -1      3072    3    0    2
 -2      2532      2609      1272      2533
 -1      3073    3    0    2
 -2       680       765      3130      3136
 -1      3074    3    0    2
 -2       580       526      1107      3391
 -1      3075    3    0    2
 -2      2458      2428      1331      1332
 -1      3076    3    0    2
 -2      3009      2225      1429      1430
 -1      3077    3    0    2
 -2       556      2225      3009      3010
 -1      3078    3    0    1
 -2      2098       384      2357      1339
 -1      3079    3    0    1
 -2       194       193      1735      2113
 -1      3080    3    0    2
 -2      1155      3128      3132      3140
 -1      3081    3    0    2
 -2      2225      2531      1429      1430
 -1      3082    3    0    2
 -2      2361       881      2362      2367
 -1      3083    3    0    1
 -2      1986       436      2436      2531
 -1      3084    3    0    1
 -2       322       441      1849      2113
 -1      3085    3    0    1
 -2      2915      1158      2928      3723
 -1      3086    3    0    1
 -2      1742      1673      1839      1989
 -1      3087    3    0    1
 -2      1742      1839      1854      1989
 -1      3088    3    0    1
 -2      1839      1673      1874      1989
 -1      3089    3    0    1
 -2       341       558      1854      1989
 -1      3090    3    0    1
 -2       558       222       288      1989
 -1      3091    3    0    1
 -2       222       558       341      1989
 -1      3092    3    0    1
 -2      1854      1839      1874      1989
 -1      3093    3    0    1
 -2       341      1854      1874      1989
 -1      3094    3    0    1
 -2       222       341      1874      1989
 -1      3095    3    0    1
 -2      2048      2095      2177      2218
 -1      3096    3    0    1
 -2      1740      1698      1748      2157
 -1      3097    3    0    1
 -2      2155      1693      2214      2224
 -1      3098    3    0    1
 -2      1698      1740      1810      2157
 -1      3099    3    0    1
 -2      1075      3016      1401      3695
 -1      3100    3    0    2
 -2      2720       833      2721      2722
 -1      3101    3    0    1
 -2      1829      1718      1763      2166
 -1      3102    3    0    1
 -2      1739       453      2007      2088
 -1      3103    3    0    1
 -2      2147      3378      3771      3774
 -1      3104    3    0    1
 -2      2811       372      2825      3789
 -1      3105    3    0    1
 -2      1247      2842      2845      3784
 -1      3106    3    0    1
 -2      2130      2149      2217      2223
 -1      3107    3    0    1
 -2      1762      1761      1878      2172
 -1      3108    3    0    1
 -2      2015       426      2098      2357
 -1      3109    3    0    1
 -2        32        20       456      2129
 -1      3110    3    0    1
 -2      1891      1883      1964      2142
 -1      3111    3    0    2
 -2      1078      1077      2662      2665
 -1      3112    3    0    1
 -2      1522       388      3863      3894
 -1      3113    3    0    2
 -2      2473       380      1131      1132
 -1      3114    3    0    1
 -2      1862      1814      1876      2085
 -1      3115    3    0    1
 -2      1755      1798      1871      2176
 -1      3116    3    0    1
 -2      2194       177      3372      3736
 -1      3117    3    0    1
 -2       679      2183      2193       910
 -1      3118    3    0    1
 -2      2580      2585      3722      3877
 -1      3119    3    0    1
 -2      2624      3375      3718      3833
 -1      3120    3    0    2
 -2      3206      3208      3213      3215
 -1      3121    3    0    2
 -2      3042      3041      3046      3058
 -1      3122    3    0    2
 -2       400      2298      2299       904
 -1      3123    3    0    2
 -2      3011      3014      3018      3021
 -1      3124    3    0    2
 -2      2254       613      2869      2870
 -1      3125    3    0    1
 -2       244      2196      3406      1642
 -1      3126    3    0    1
 -2      1734      1663      1931      2137
 -1      3127    3    0    1
 -2      1911      1692      1925      2201
 -1      3128    3    0    1
 -2      1901      1783      1972      2201
 -1      3129    3    0    1
 -2      3882      2039      3662      3923
 -1      3130    3    0    2
 -2      2620      2621      2688      1447
 -1      3131    3    0    1
 -2      2047       393      2177      1503
 -1      3132    3    0    1
 -2      2999      3375      3718      3806
 -1      3133    3    0    2
 -2      3062      3060      1427      3063
 -1      3134    3    0    1
 -2       203       457       204      2129
 -1      3135    3    0    1
 -2      1883      1955      1964      2142
 -1      3136    3    0    1
 -2       452      2007       201       455
 -1      3137    3    0    1
 -2      1715      1735      1965      2000
 -1      3138    3    0    1
 -2      1703      1834      2101      2108
 -1      3139    3    0    1
 -2      1936      1924      3000      3270
 -1      3140    3    0    1
 -2      1735      1700      1965      2000
 -1      3141    3    0    1
 -2      1746      1795      1967      2001
 -1      3142    3    0    1
 -2      2836      1239      2837      3903
 -1      3143    3    0    2
 -2      2377      2712      1231      2378
 -1      3144    3    0    1
 -2        71      1929      3331      3726
 -1      3145    3    0    1
 -2       656      2065      1071      1447
 -1      3146    3    0    2
 -2      2360      2366      2370      2373
 -1      3147    3    0    2
 -2      2438      2477      2479      2485
 -1      3148    3    0    1
 -2       549      1804      1971      1129
 -1      3149    3    0    1
 -2       905      2828      2112       248
 -1      3150    3    0    2
 -2       549      1130      2272       616
 -1      3151    3    0    1
 -2      1833      1823      3557      3830
 -1      3152    3    0    1
 -2      1013      2869      3894       388
 -1      3153    3    0    1
 -2      3309      3295      3705      3834
 -1      3154    3    0    2
 -2      3251      1549      1551      1552
 -1      3155    3    0    2
 -2       620      2280      2472      1264
 -1      3156    3    0    1
 -2      1751      2036      3151      3200
 -1      3157    3    0    1
 -2      1916      1762      2023      2070
 -1      3158    3    0    1
 -2      1878      1761      1923      2070
 -1      3159    3    0    1
 -2      1730       684      2202      3182
 -1      3160    3    0    1
 -2      1976      2050      3492      3851
 -1      3161    3    0    1
 -2       631      2047      2177      1313
 -1      3162    3    0    1
 -2       442       443      2023      2070
 -1      3163    3    0    1
 -2      1382      2990      1282      3815
 -1      3164    3    0    1
 -2      1886      1691      1897      2133
 -1      3165    3    0    1
 -2      1752      1760      2008      2173
 -1      3166    3    0    1
 -2      1718      1675      1729      2166
 -1      3167    3    0    2
 -2      2620       568      1559      2689
 -1      3168    3    0    1
 -2      2122      1813       904      2602
 -1      3169    3    0    2
 -2       982      2490      2438      2491
 -1      3170    3    0    2
 -2       815      2399      2978      2979
 -1      3171    3    0    1
 -2       885        71      2371      3726
 -1      3172    3    0    2
 -2      2539      2538      2542      2549
 -1      3173    3    0    1
 -2       197       447       324      2020
 -1      3174    3    0    1
 -2      1993      1685      2159      2206
 -1      3175    3    0    1
 -2       198       197      1844      2020
 -1      3176    3    0    1
 -2      1267      1528      3560      3836
 -1      3177    3    0    1
 -2      1696      1771      1844      2020
 -1      3178    3    0    1
 -2       249      1812      2034      2046
 -1      3179    3    0    2
 -2       908       907      2561      2565
 -1      3180    3    0    1
 -2      1863      3281      3537      3908
 -1      3181    3    0    1
 -2      2087      1869      3003      3089
 -1      3182    3    0    1
 -2      2218      2381      1226      3119
 -1      3183    3    0    1
 -2      1774       668       891      3318
 -1      3184    3    0    2
 -2      1376      1375      2990      1381
 -1      3185    3    0    1
 -2      3756      3511      3536      3866
 -1      3186    3    0    2
 -2      2420      2710      1598      2711
 -1      3187    3    0    2
 -2      2623      2622      3016      3017
 -1      3188    3    0    1
 -2       239       358      1908      2044
 -1      3189    3    0    1
 -2      1781      1673      1912      2093
 -1      3190    3    0    1
 -2      1428      1414      3810      3880
 -1      3191    3    0    1
 -2       548       216       333      2100
 -1      3192    3    0    1
 -2      3421      1766      3888      3675
 -1      3193    3    0    1
 -2      1902      3467      3803      3609
 -1      3194    3    0    2
 -2      2348      2347       919      2493
 -1      3195    3    0    1
 -2      1797      1820      1887      2080
 -1      3196    3    0    1
 -2      1675      1935      2032      2080
 -1      3197    3    0    1
 -2       496       484      2083      2172
 -1      3198    3    0    1
 -2      1952      3002      3272      3731
 -1      3199    3    0    1
 -2      1708      1783      1970      3625
 -1      3200    3    0    1
 -2      1820      1935      2051      2129
 -1      3201    3    0    1
 -2      1853      2297       873      2432
 -1      3202    3    0    1
 -2      1743      1850      1877      2120
 -1      3203    3    0    1
 -2      2216      2157      3197      3531
 -1      3204    3    0    1
 -2      1254       411      1288      3759
 -1      3205    3    0    1
 -2       427      1853      2235      2432
 -1      3206    3    0    1
 -2       259      2291      2331      1499
 -1      3207    3    0    1
 -2         3       477       491      2021
 -1      3208    3    0    1
 -2        15       447      2020      2021
 -1      3209    3    0    1
 -2         3       447        15      2021
 -1      3210    3    0    1
 -2       477        15      1726      2021
 -1      3211    3    0    1
 -2         3        15       477      2021
 -1      3212    3    0    1
 -2       477      1726      1787      2021
 -1      3213    3    0    1
 -2       447         3       324      2021
 -1      3214    3    0    2
 -2       112      1244      2833      1243
 -1      3215    3    0    1
 -2      1831      1732      1861      2105
 -1      3216    3    0    2
 -2      2270      2248      1275      1276
 -1      3217    3    0    1
 -2       443       195       442      2023
 -1      3218    3    0    1
 -2      1732      1831      1849      2105
 -1      3219    3    0    1
 -2       196       443      1916      2023
 -1      3220    3    0    1
 -2       195       443       196      2023
 -1      3221    3    0    1
 -2       209       534       468      2105
 -1      3222    3    0    1
 -2       263      1911      1925      2071
 -1      3223    3    0    1
 -2       221       376       339      2071
 -1      3224    3    0    1
 -2      3200      1751      3721      3847
 -1      3225    3    0    2
 -2      3315      2376      1230      3316
 -1      3226    3    0    1
 -2       149      1806      1984      2122
 -1      3227    3    0    1
 -2      1729      1910      2032      2205
 -1      3228    3    0    1
 -2      1783      1901      1972      2171
 -1      3229    3    0    1
 -2      1800      1694      2049      2176
 -1      3230    3    0    1
 -2      1738       287      2061      2112
 -1      3231    3    0    1
 -2      1733      1691      1886      2133
 -1      3232    3    0    1
 -2      1737      2155      2214      2224
 -1      3233    3    0    1
 -2       929      2352      2255      1987
 -1      3234    3    0    1
 -2      1733      1886      2040      2133
 -1      3235    3    0    1
 -2      2161      1201      1223      3495
 -1      3236    3    0    2
 -2      2584       966      2590      2595
 -1      3237    3    0    1
 -2      1783      1708      1901      2171
 -1      3238    3    0    1
 -2      1622      3361       676      3743
 -1      3239    3    0    1
 -2      2274       855      2408      3393
 -1      3240    3    0    1
 -2      1961      1748      3178      3460
 -1      3241    3    0    2
 -2      2653      2654      2657      2659
 -1      3242    3    0    1
 -2      1357        65      3754      3812
 -1      3243    3    0    2
 -2       529      1154      2742      1153
 -1      3244    3    0    1
 -2       450       449      2026      2117
 -1      3245    3    0    1
 -2       449        79      2026      2117
 -1      3246    3    0    1
 -2      1709      1669      1742      2117
 -1      3247    3    0    1
 -2      1742       199      1854      2117
 -1      3248    3    0    1
 -2      1669      1709      2026      2117
 -1      3249    3    0    1
 -2      1531       550      3850      3916
 -1      3250    3    0    1
 -2        42       483       517      2030
 -1      3251    3    0    1
 -2      1816      1827      1872      2085
 -1      3252    3    0    2
 -2      2532       702      2609      1273
 -1      3253    3    0    1
 -2       228       255      1780      2037
 -1      3254    3    0    1
 -2      3505      3793      3519      3554
 -1      3255    3    0    2
 -2      2264      1538       625      2265
 -1      3256    3    0    1
 -2       399      1812      1825      2034
 -1      3257    3    0    2
 -2      2785      2784      3312      3313
 -1      3258    3    0    2
 -2      2320      2330      1333      2329
 -1      3259    3    0    1
 -2      3241      3238      3248      3704
 -1      3260    3    0    1
 -2      1715      1735      2000      2113
 -1      3261    3    0    1
 -2      1986       436      2225      1337
 -1      3262    3    0    1
 -2      3158      1477      1486      3900
 -1      3263    3    0    2
 -2       720       659      3046      3052
 -1      3264    3    0    1
 -2      1816      1827      1885      3277
 -1      3265    3    0    1
 -2      1966       277      1517      3429
 -1      3266    3    0    1
 -2       350      1775      2030      2037
 -1      3267    3    0    1
 -2       350        42       516      2037
 -1      3268    3    0    1
 -2       228       516       255      2037
 -1      3269    3    0    1
 -2       350       228      1775      2037
 -1      3270    3    0    1
 -2       516       228       350      2037
 -1      3271    3    0    1
 -2        88       350      2030      2037
 -1      3272    3    0    1
 -2        88        42       350      2037
 -1      3273    3    0    1
 -2       873      2935      2297      2015
 -1      3274    3    0    1
 -2      1141      1951      3373      3458
 -1      3275    3    0    2
 -2      3095      3093      3097      3112
 -1      3276    3    0    2
 -2      2260      2261       957      2906
 -1      3277    3    0    1
 -2       216       279      1814      2100
 -1      3278    3    0    1
 -2      1858       204      2051      2129
 -1      3279    3    0    1
 -2      2134      2034      2306      1333
 -1      3280    3    0    1
 -2       656      2065      2174      1071
 -1      3281    3    0    1
 -2      2847      2859      3710      3732
 -1      3282    3    0    2
 -2      2849      2847      2857      2859
 -1      3283    3    0    2
 -2      2716      3600      3602      3604
 -1      3284    3    0    1
 -2       203       204      1892      2129
 -1      3285    3    0    1
 -2      1675      1892      1935      2129
 -1      3286    3    0    1
 -2       204      1858      1892      2129
 -1      3287    3    0    1
 -2       949      2057      3113      3118
 -1      3288    3    0    1
 -2      1964      2142      3007      3122
 -1      3289    3    0    1
 -2      3011      3018      3024      3811
 -1      3290    3    0    2
 -2      2380      2379      2695      1515
 -1      3291    3    0    1
 -2       442       443      2070      2172
 -1      3292    3    0    1
 -2       861      3207      3223      3788
 -1      3293    3    0    1
 -2      1509       149      3557      3830
 -1      3294    3    0    1
 -2      1704      1832      1933      2176
 -1      3295    3    0    1
 -2      1798      1694      1871      2176
 -1      3296    3    0    1
 -2      2745      1151      3711      3802
 -1      3297    3    0    1
 -2      2279       523      1179      3784
 -1      3298    3    0    1
 -2      1457       103      3099      3686
 -1      3299    3    0    2
 -2      2347       592      2825      2826
 -1      3300    3    0    2
 -2       645      1242      2830       747
 -1      3301    3    0    1
 -2      1879      1926      1999      2054
 -1      3302    3    0    1
 -2      3396      3740      3527      3869
 -1      3303    3    0    2
 -2      1210      1209      2808      2812
 -1      3304    3    0    2
 -2       277       860       859      2874
 -1      3305    3    0    2
 -2      3310      2341      3311      3312
 -1      3306    3    0    1
 -2      1158      1320      1372      3742
 -1      3307    3    0    2
 -2      1650       169      1649      3585
 -1      3308    3    0    2
 -2      2916      1157      1319      2925
 -1      3309    3    0    1
 -2      1750      1900      2191      2077
 -1      3310    3    0    2
 -2      2804      2707      1315      1316
 -1      3311    3    0    1
 -2      1856      1968      2075      2096
 -1      3312    3    0    1
 -2      1992      1749      2163      2249
 -1      3313    3    0    1
 -2      1548       180      1543      3737
 -1      3314    3    0    1
 -2      1789      1694      1798      2049
 -1      3315    3    0    1
 -2      1703      1764      1789      2049
 -1      3316    3    0    1
 -2      2134      3392      3401      3426
 -1      3317    3    0    1
 -2      1778      1741      1976      2050
 -1      3318    3    0    1
 -2      3263      3700      3712      3493
 -1      3319    3    0    1
 -2      1664      1859      1870      2050
 -1      3320    3    0    1
 -2      1741      1859      1976      2050
 -1      3321    3    0    1
 -2       358      1820      2044      2051
 -1      3322    3    0    1
 -2       349       358      2044      2051
 -1      3323    3    0    1
 -2      1941      1700      2000      2140
 -1      3324    3    0    1
 -2      3274      3732      3758      3837
 -1      3325    3    0    1
 -2      2907      2261      2909      3687
 -1      3326    3    0    1
 -2       358        20        32      2051
 -1      3327    3    0    1
 -2        20       358       349      2051
 -1      3328    3    0    2
 -2      2285       438      1557      1558
 -1      3329    3    0    1
 -2       849       152      1015      3831
 -1      3330    3    0    1
 -2       981      2455      2439      3783
 -1      3331    3    0    2
 -2      2814      2604      2816      2818
 -1      3332    3    0    1
 -2      2240      2931      2933      3691
 -1      3333    3    0    2
 -2      2629      2630      1081      2631
 -1      3334    3    0    1
 -2      1793      1788      1939      2083
 -1      3335    3    0    1
 -2      2016       663      2328      1584
 -1      3336    3    0    2
 -2      2260      3390       526      3391
 -1      3337    3    0    1
 -2      1761      1762      1916      2070
 -1      3338    3    0    2
 -2      2274       940       364      2275
 -1      3339    3    0    2
 -2       295      2252      2871      1533
 -1      3340    3    0    1
 -2       443      1916      2023      2070
 -1      3341    3    0    1
 -2      1869       652      1271      2004
 -1      3342    3    0    1
 -2      2103      2012      2155      2214
 -1      3343    3    0    1
 -2      1685      1993      2055      2182
 -1      3344    3    0    2
 -2      2620       650      2781      2782
 -1      3345    3    0    1
 -2       351      1745      2143      2212
 -1      3346    3    0    1
 -2      1901      1911      2071      2201
 -1      3347    3    0    1
 -2        99      2875      3345      3833
 -1      3348    3    0    1
 -2      1707      1814      1862      2085
 -1      3349    3    0    1
 -2      3187      1915      3279      3763
 -1      3350    3    0    2
 -2       241      1314      1313      3119
 -1      3351    3    0    1
 -2       951      2871      2253      2187
 -1      3352    3    0    1
 -2       418       985      2496      3735
 -1      3353    3    0    2
 -2      2639       377      2644      2646
 -1      3354    3    0    1
 -2      1879       152      1894      1015
 -1      3355    3    0    2
 -2      2318       705       917      3288
 -1      3356    3    0    1
 -2      2650      1097      2656      3724
 -1      3357    3    0    1
 -2      1970      1783      3624      3625
 -1      3358    3    0    1
 -2       835      1323      2929      3822
 -1      3359    3    0    2
 -2      2262      2416      1185      2417
 -1      3360    3    0    1
 -2       531       379      2163      1367
 -1      3361    3    0    2
 -2      2820       914      2823      2824
 -1      3362    3    0    1
 -2      2403      2469      3423      3441
 -1      3363    3    0    1
 -2      1731      1879      1999      1015
 -1      3364    3    0    1
 -2       999      2518      2525      3753
 -1      3365    3    0    1
 -2      1891      1921      1932      2142
 -1      3366    3    0    1
 -2      3394      3275      3742      3743
 -1      3367    3    0    1
 -2      3088      1976      3492      3851
 -1      3368    3    0    1
 -2      2848      2855      3710      3768
 -1      3369    3    0    1
 -2      2024      2082      2141      2188
 -1      3370    3    0    1
 -2      1987      2326      2352      1387
 -1      3371    3    0    1
 -2      2122      1806      2602      3628
 -1      3372    3    0    1
 -2      3230      2124      3779      3897
 -1      3373    3    0    1
 -2      1740      1810      2157      2216
 -1      3374    3    0    1
 -2      2056       625      2138      2977
 -1      3375    3    0    1
 -2      2981      1113      2988      3702
 -1      3376    3    0    2
 -2      2341      2342      3310      3311
 -1      3377    3    0    1
 -2      1165       633      3752      3891
 -1      3378    3    0    1
 -2      2017      1783      2038      2171
 -1      3379    3    0    1
 -2      1783      1972      2038      2171
 -1      3380    3    0    1
 -2      1549      1265      3803      3670
 -1      3381    3    0    1
 -2      2563      2561      2564      3712
 -1      3382    3    0    1
 -2      2633      2628      2662      3683
 -1      3383    3    0    1
 -2      2183      3328      3406      3568
 -1      3384    3    0    1
 -2      2361       881      2367      3745
 -1      3385    3    0    1
 -2      1812       641      2112       905
 -1      3386    3    0    2
 -2      3075      2344      1443      3080
 -1      3387    3    0    1
 -2      3006      2135      1503      3828
 -1      3388    3    0    1
 -2      2082      1792      2141      2188
 -1      3389    3    0    1
 -2      2069       627      2253      2695
 -1      3390    3    0    2
 -2      1014       388       615      2870
 -1      3391    3    0    1
 -2       896       437      3819      3867
 -1      3392    3    0    2
 -2      2313      2314      2806      2808
 -1      3393    3    0    1
 -2      2344      3066      3078      3689
 -1      3394    3    0    2
 -2      3210      3207      3212      3214
 -1      3395    3    0    2
 -2      2303      2422      1270      2423
 -1      3396    3    0    1
 -2      2016      2174      2393      1189
 -1      3397    3    0    2
 -2      2806      2603      2807      2809
 -1      3398    3    0    1
 -2       535       209       467      2105
 -1      3399    3    0    1
 -2       269       535      1732      2105
 -1      3400    3    0    1
 -2      1679      1732      1837      2105
 -1      3401    3    0    1
 -2      1732       535      1837      2105
 -1      3402    3    0    1
 -2        64      1551      3801      3803
 -1      3403    3    0    1
 -2      1806      1758      1843      2122
 -1      3404    3    0    1
 -2      3191      3403      1917      2022
 -1      3405    3    0    1
 -2      1806      1843      1984      2122
 -1      3406    3    0    2
 -2      2419       411      2890      1629
 -1      3407    3    0    1
 -2       242      1994      2331      1397
 -1      3408    3    0    1
 -2      1994      2177      2331      1397
 -1      3409    3    0    1
 -2      3726      3851      3623      3650
 -1      3410    3    0    1
 -2      1863       271      2174      2190
 -1      3411    3    0    1
 -2       390      1974      3342      3819
 -1      3412    3    0    2
 -2       242      1398       305      2290
 -1      3413    3    0    1
 -2      1994       242      2231      1397
 -1      3414    3    0    2
 -2       395       672      2751      1647
 -1      3415    3    0    1
 -2      1493       498      3275      3437
 -1      3416    3    0    2
 -2      2706      3361      3363      3364
 -1      3417    3    0    2
 -2      2751      2600      1313      2752
 -1      3418    3    0    1
 -2      2360      3008      3707      3745
 -1      3419    3    0    1
 -2      3295      3297      3305      3705
 -1      3420    3    0    2
 -2       969      2540      2546      2547
 -1      3421    3    0    2
 -2      2322      2446      1575      1576
 -1      3422    3    0    2
 -2        94       183      2499       991
 -1      3423    3    0    1
 -2      3747       153      3865      3633
 -1      3424    3    0    2
 -2       842      2258      2259      2873
 -1      3425    3    0    1
 -2      1283      2983      2988      3702
 -1      3426    3    0    2
 -2      2271      2270       860       719
 -1      3427    3    0    1
 -2      1935      1797      1963      2080
 -1      3428    3    0    1
 -2      1897      1691      1934      2133
 -1      3429    3    0    1
 -2      3583       185      3618      3893
 -1      3430    3    0    1
 -2      3508      3407      3829      3848
 -1      3431    3    0    1
 -2       681      1195      3682      3858
 -1      3432    3    0    1
 -2      3551      3473      3850      3894
 -1      3433    3    0    1
 -2       395       635      2161      2196
 -1      3434    3    0    1
 -2      2997       957      3123      3687
 -1      3435    3    0    1
 -2      2187      2694      2871      1625
 -1      3436    3    0    1
 -2       273       212      1764      2198
 -1      3437    3    0    1
 -2         6       454      2088      2125
 -1      3438    3    0    1
 -2      1695      1714      2088      2125
 -1      3439    3    0    1
 -2       640      2195       865      2386
 -1      3440    3    0    2
 -2       670      2377      2385      2386
 -1      3441    3    0    1
 -2       240      1793      1923      2083
 -1      3442    3    0    1
 -2       496       231       240      2083
 -1      3443    3    0    1
 -2       231       359       240      2083
 -1      3444    3    0    1
 -2       240       359      1793      2083
 -1      3445    3    0    1
 -2       496       240      1923      2083
 -1      3446    3    0    1
 -2      3440      3205      3885      3901
 -1      3447    3    0    2
 -2      2751      2601      1641      1642
 -1      3448    3    0    2
 -2      3044      3043      3047      3049
 -1      3449    3    0    1
 -2       634      2787      2792      3682
 -1      3450    3    0    1
 -2      3035      3032      3756      3876
 -1      3451    3    0    1
 -2         5       454       453      2088
 -1      3452    3    0    1
 -2       454         5         6      2088
 -1      3453    3    0    1
 -2       669      1986      1996      1127
 -1      3454    3    0    1
 -2      2035       509      3001      3376
 -1      3455    3    0    1
 -2      1811       679      2598      1613
 -1      3456    3    0    1
 -2      1942       557      2713      1601
 -1      3457    3    0    1
 -2      1616        31      1618      3761
 -1      3458    3    0    2
 -2      1016      1015      2298      3204
 -1      3459    3    0    1
 -2       538        10       471      2198
 -1      3460    3    0    1
 -2      2102      1210      3542      3826
 -1      3461    3    0    1
 -2        59      2022      3191      3893
 -1      3462    3    0    1
 -2       972      1893      3001      3715
 -1      3463    3    0    1
 -2      2209       682      2354      1061
 -1      3464    3    0    1
 -2      1792      2416      3276      3411
 -1      3465    3    0    1
 -2      2101      1703      2108      2198
 -1      3466    3    0    1
 -2        10        60      2101      2198
 -1      3467    3    0    2
 -2       260      2420      2876      1597
 -1      3468    3    0    1
 -2       523      2010      2333      1599
 -1      3469    3    0    1
 -2      3379      3275      3743      3838
 -1      3470    3    0    1
 -2      1955      1997      2875      3086
 -1      3471    3    0    1
 -2      1995      3264      3282      3880
 -1      3472    3    0    1
 -2      3698      3175      3702      3773
 -1      3473    3    0    1
 -2      2202       684      1057      3182
 -1      3474    3    0    1
 -2      1859      1860      2050      2093
 -1      3475    3    0    1
 -2      1741      1859      2050      2093
 -1      3476    3    0    1
 -2      1254      1117      3710      3759
 -1      3477    3    0    1
 -2       704      1023      2551      3685
 -1      3478    3    0    1
 -2      1673      1839      1912      2093
 -1      3479    3    0    1
 -2      1839      1673      1860      2093
 -1      3480    3    0    1
 -2      1859      1839      1860      2093
 -1      3481    3    0    1
 -2      1839      1741      1912      2093
 -1      3482    3    0    1
 -2      1741      1839      1859      2093
 -1      3483    3    0    2
 -2      2274       856       855       642
 -1      3484    3    0    1
 -2      1703      1834      2108      2168
 -1      3485    3    0    2
 -2      2806      2807      2810      2815
 -1      3486    3    0    2
 -2      2752      2600      1313      1314
 -1      3487    3    0    1
 -2      2628      2658      2662      3683
 -1      3488    3    0    1
 -2      1952      2152      3272      3282
 -1      3489    3    0    1
 -2      1952      1953      2152      3282
 -1      3490    3    0    1
 -2      1926       405      1490      3881
 -1      3491    3    0    1
 -2      2286      3097      3106      3842
 -1      3492    3    0    2
 -2      2388       625       674      2510
 -1      3493    3    0    2
 -2      2715       612      2716      3605
 -1      3494    3    0    1
 -2      2267      2645      2649      3714
 -1      3495    3    0    1
 -2       204       457      2051      2129
 -1      3496    3    0    1
 -2       358      1820      2051      2129
 -1      3497    3    0    1
 -2      1820      1675      1935      2129
 -1      3498    3    0    1
 -2      2708      2804      1315      3838
 -1      3499    3    0    1
 -2      2187      2086      3398      1646
 -1      3500    3    0    2
 -2       414      1308      2653       711
 -1      3501    3    0    2
 -2      2468      3242      3249      3255
 -1      3502    3    0    2
 -2      2956      2958      2966      2968
 -1      3503    3    0    1
 -2      1069       522      2912      3519
 -1      3504    3    0    2
 -2      2293       317      2935      1343
 -1      3505    3    0    1
 -2       249      2034      2306       915
 -1      3506    3    0    2
 -2       565       547      2474      2555
 -1      3507    3    0    1
 -2        10       536       326      2101
 -1      3508    3    0    2
 -2      2465      1368      2972      2973
 -1      3509    3    0    2
 -2      2245      2446      1058      2246
 -1      3510    3    0    1
 -2       326       210      1834      2101
 -1      3511    3    0    1
 -2       536       210       326      2101
 -1      3512    3    0    1
 -2      1834       210      1837      2101
 -1      3513    3    0    1
 -2      2434      2801      3682      1467
 -1      3514    3    0    1
 -2       949      2848      2860      3710
 -1      3515    3    0    1
 -2       259      2331      2977      1499
 -1      3516    3    0    1
 -2      2532      2755      1271      3443
 -1      3517    3    0    1
 -2      1414      1421      3810      3880
 -1      3518    3    0    2
 -2       695       732      3097      1461
 -1      3519    3    0    1
 -2      1911      1925      2071      2201
 -1      3520    3    0    2
 -2       528       568      2689      1559
 -1      3521    3    0    1
 -2      2580       401      2586      3722
 -1      3522    3    0    1
 -2       462        50       459      2104
 -1      3523    3    0    1
 -2        76      1950      2071      2104
 -1      3524    3    0    1
 -2       339        76      2071      2104
 -1      3525    3    0    1
 -2        50       462        76      2104
 -1      3526    3    0    1
 -2        76       462      1950      2104
 -1      3527    3    0    1
 -2       534      1732      1849      2105
 -1      3528    3    0    1
 -2       534       269      1732      2105
 -1      3529    3    0    1
 -2      2240      2411      1235      3828
 -1      3530    3    0    2
 -2      2345      1191      1192      2979
 -1      3531    3    0    2
 -2       642      2274      2275      2298
 -1      3532    3    0    2
 -2       984       729      3298      3300
 -1      3533    3    0    1
 -2      1672      1828      2114      2205
 -1      3534    3    0    1
 -2       653       418      2163      2199
 -1      3535    3    0    1
 -2      1763      2114      2166      2205
 -1      3536    3    0    1
 -2       384       541      3799      3653
 -1      3537    3    0    1
 -2      2400      2716      1564      3923
 -1      3538    3    0    2
 -2      2393       656      2611      1189
 -1      3539    3    0    1
 -2        63      1662      1770       857
 -1      3540    3    0    1
 -2       266      2186      2187      1625
 -1      3541    3    0    1
 -2      2025      3177      3471      3637
 -1      3542    3    0    1
 -2      3186      3703      3839      3844
 -1      3543    3    0    2
 -2      2538      2536      2542      2549
 -1      3544    3    0    1
 -2      1952      1953      1957      2152
 -1      3545    3    0    1
 -2       852      1481      3159      3763
 -1      3546    3    0    2
 -2       291       278      3117      1583
 -1      3547    3    0    1
 -2      2180      1685      2182      2222
 -1      3548    3    0    2
 -2      3044       898      1411      3049
 -1      3549    3    0    2
 -2      2292      2954      1343      2955
 -1      3550    3    0    1
 -2      1700      1735      1849      2113
 -1      3551    3    0    1
 -2      1735       322      1849      2113
 -1      3552    3    0    1
 -2       441       193       194      2113
 -1      3553    3    0    1
 -2       193       322      1735      2113
 -1      3554    3    0    1
 -2       193       441       322      2113
 -1      3555    3    0    1
 -2       454      2007      2088      2125
 -1      3556    3    0    1
 -2      1699      1723      1829      2114
 -1      3557    3    0    1
 -2      1699      1665      1723      2114
 -1      3558    3    0    2
 -2      1474       765      3144      3145
 -1      3559    3    0    1
 -2       246      2202      2247      1057
 -1      3560    3    0    1
 -2      2149      1685      2219      2222
 -1      3561    3    0    2
 -2      3127      3131      3137      3139
 -1      3562    3    0    1
 -2        41        19       369      2116
 -1      3563    3    0    1
 -2        19       515       347      2116
 -1      3564    3    0    1
 -2       226       515       254      2116
 -1      3565    3    0    1
 -2       369        19       481      2116
 -1      3566    3    0    1
 -2       347      1786      2029      2116
 -1      3567    3    0    1
 -2        19       347      2029      2116
 -1      3568    3    0    1
 -2       515       226       347      2116
 -1      3569    3    0    1
 -2       481        19      2029      2116
 -1      3570    3    0    1
 -2       347       226      1786      2116
 -1      3571    3    0    1
 -2      1709       200      2026      2117
 -1      3572    3    0    1
 -2       200      1709      1854      2117
 -1      3573    3    0    1
 -2       913      1920      2827      3792
 -1      3574    3    0    1
 -2        44      2118      3501      3792
 -1      3575    3    0    1
 -2        44      1773      1851      2118
 -1      3576    3    0    2
 -2      1577      2324      2544      2323
 -1      3577    3    0    2
 -2      2625      2777      1565      2778
 -1      3578    3    0    2
 -2      2794      1195      2798      2799
 -1      3579    3    0    1
 -2       511       343      1877      2120
 -1      3580    3    0    1
 -2      1850       511      1877      2120
 -1      3581    3    0    1
 -2      1132      1960      3728      3859
 -1      3582    3    0    2
 -2      3014      3012      3021      3024
 -1      3583    3    0    1
 -2       511       223       343      2120
 -1      3584    3    0    1
 -2       694      3481      3780      3898
 -1      3585    3    0    1
 -2       250       511      2103      2120
 -1      3586    3    0    1
 -2       223       511       250      2120
 -1      3587    3    0    1
 -2       511      1850      2103      2120
 -1      3588    3    0    2
 -2      1089      1090      2645      2647
 -1      3589    3    0    1
 -2       552       476      1845      2123
 -1      3590    3    0    1
 -2        13       548       333      2123
 -1      3591    3    0    1
 -2       552        13       476      2123
 -1      3592    3    0    1
 -2      1845      1707      2100      2123
 -1      3593    3    0    1
 -2        68      1845      2100      2123
 -1      3594    3    0    1
 -2       548        13        68      2123
 -1      3595    3    0    1
 -2        13       552        68      2123
 -1      3596    3    0    1
 -2       548        68      2100      2123
 -1      3597    3    0    1
 -2        68       552      1845      2123
 -1      3598    3    0    1
 -2      1001       945      2523      3843
 -1      3599    3    0    1
 -2      1685      1993      2110      2206
 -1      3600    3    0    1
 -2       215       332      1867      2125
 -1      3601    3    0    1
 -2       332       357      1867      2125
 -1      3602    3    0    1
 -2         6         5       332      2125
 -1      3603    3    0    1
 -2       332         5       357      2125
 -1      3604    3    0    1
 -2       357         5      2088      2125
 -1      3605    3    0    1
 -2      1867       357      2088      2125
 -1      3606    3    0    1
 -2      2675       245      2678      3772
 -1      3607    3    0    2
 -2      2244      2243      2422      1390
 -1      3608    3    0    2
 -2      2316      2315      1009      2691
 -1      3609    3    0    1
 -2      1899      3747      3865      3633
 -1      3610    3    0    2
 -2       505       582      2642      2645
 -1      3611    3    0    1
 -2      2132      2434      3682      3388
 -1      3612    3    0    1
 -2      1724      1929      3331      3339
 -1      3613    3    0    2
 -2      1324      2923      2929      1329
 -1      3614    3    0    1
 -2      1694      1798      2049      2176
 -1      3615    3    0    2
 -2      2272      2269       867      2273
 -1      3616    3    0    2
 -2      2248      2779      1275      1276
 -1      3617    3    0    2
 -2       616      2269      2272      2273
 -1      3618    3    0    2
 -2       798      2377      2378      2385
 -1      3619    3    0    1
 -2      3375      1817      3718      3806
 -1      3620    3    0    2
 -2      2240      1235      2920      2922
 -1      3621    3    0    2
 -2       628      2356      2954      2955
 -1      3622    3    0    1
 -2      2031      1777      2072      3151
 -1      3623    3    0    1
 -2       243      2162      2247      2447
 -1      3624    3    0    1
 -2        36       114      3854      3879
 -1      3625    3    0    2
 -2      2775      2333       964      2334
 -1      3626    3    0    1
 -2      1724      2137      3331      3332
 -1      3627    3    0    2
 -2      2465      1188      1187      3184
 -1      3628    3    0    1
 -2       502      2058      2183      2193
 -1      3629    3    0    2
 -2       562      2754      3062      3063
 -1      3630    3    0    1
 -2      3271      3422      3884      3903
 -1      3631    3    0    2
 -2      3049      3044      3042      3055
 -1      3632    3    0    2
 -2       593      2241      2411      2412
 -1      3633    3    0    2
 -2      2858       693      1255      1256
 -1      3634    3    0    2
 -2       425      1350      2938       822
 -1      3635    3    0    1
 -2      1980      1954      1997      2164
 -1      3636    3    0    1
 -2       641      2112      2285      1335
 -1      3637    3    0    1
 -2      1425      1410      3699      3770
 -1      3638    3    0    2
 -2      2353      2227      1062      2228
 -1      3639    3    0    1
 -2      1942       557      2091      2197
 -1      3640    3    0    1
 -2      2162       682      2202      1312
 -1      3641    3    0    1
 -2      1185      2416      2263      3785
 -1      3642    3    0    1
 -2       244      1811      2196      3173
 -1      3643    3    0    2
 -2      2754      2532      1272      2533
 -1      3644    3    0    1
 -2      2905      2897      2909      3687
 -1      3645    3    0    1
 -2       625      2056       941      2977
 -1      3646    3    0    1
 -2      2623      3027      3695      3890
 -1      3647    3    0    2
 -2       769       396      3353      3365
 -1      3648    3    0    1
 -2      2797      2434      3682      3495
 -1      3649    3    0    1
 -2      2215      2076      1259      3924
 -1      3650    3    0    1
 -2      1708      2071      2104      2201
 -1      3651    3    0    1
 -2      3586      3587      3874      3921
 -1      3652    3    0    1
 -2        21       495        35      2212
 -1      3653    3    0    1
 -2      1908       348      2143      2212
 -1      3654    3    0    1
 -2      1682      1908      1962      2212
 -1      3655    3    0    2
 -2      2884      1288      1290      2885
 -1      3656    3    0    1
 -2      3015       265      3029      3756
 -1      3657    3    0    1
 -2       265      1400      3029      3811
 -1      3658    3    0    1
 -2      1692      1901      1972      2201
 -1      3659    3    0    2
 -2      2260       526      2261      1302
 -1      3660    3    0    1
 -2      3813      1073      3864      3870
 -1      3661    3    0    1
 -2      1434      3068      3694      3750
 -1      3662    3    0    2
 -2       419       675      2750      1555
 -1      3663    3    0    2
 -2       418       986       724      2495
 -1      3664    3    0    2
 -2      3009      2225      1338      3010
 -1      3665    3    0    2
 -2       542      1264      2472      1263
 -1      3666    3    0    1
 -2      2159      2109      2206      2413
 -1      3667    3    0    1
 -2      3592       707      1658      3882
 -1      3668    3    0    2
 -2       931       980       979      2481
 -1      3669    3    0    2
 -2      2439      2438      2479      2485
 -1      3670    3    0    1
 -2      1996      1985      2003      2145
 -1      3671    3    0    2
 -2      3094      3092      3096      3108
 -1      3672    3    0    1
 -2      1738       438      2112      2145
 -1      3673    3    0    1
 -2      1738      1996      2003      2145
 -1      3674    3    0    1
 -2       438      1738      2003      2145
 -1      3675    3    0    1
 -2      3271      3317      3784      3884
 -1      3676    3    0    1
 -2      1693      2103      2155      2214
 -1      3677    3    0    2
 -2      2313      1212      1211      2826
 -1      3678    3    0    1
 -2      1682      1962      2143      2212
 -1      3679    3    0    1
 -2      1993      2055      2084      2181
 -1      3680    3    0    1
 -2      1874      1737      2155      2214
 -1      3681    3    0    1
 -2        18      1737      1874      2214
 -1      3682    3    0    1
 -2      2187       626      2086      1646
 -1      3683    3    0    1
 -2      1993      2084      2151      2181
 -1      3684    3    0    1
 -2      3407      3347      3508      3829
 -1      3685    3    0    1
 -2      1993      2151      2159      2181
 -1      3686    3    0    1
 -2      1295        52      2908      3779
 -1      3687    3    0    1
 -2      2055      1993      2159      2181
 -1      3688    3    0    1
 -2      2084      2151      2276      2277
 -1      3689    3    0    1
 -2      1925       263      2071      2201
 -1      3690    3    0    2
 -2       251      1334      2329       310
 -1      3691    3    0    1
 -2       641      2013      2035      1335
 -1      3692    3    0    2
 -2       139      2924      1325      1326
 -1      3693    3    0    2
 -2      2239      2240      2931      2932
 -1      3694    3    0    1
 -2      1926       367      3411      3881
 -1      3695    3    0    1
 -2       696      1864      2694      2698
 -1      3696    3    0    2
 -2       401       794      2586      1043
 -1      3697    3    0    1
 -2      2897      2907      2909      3687
 -1      3698    3    0    2
 -2      2587      2586      1043      2590
 -1      3699    3    0    1
 -2      1781      1721      1912      2155
 -1      3700    3    0    1
 -2      1737      1839      1874      2155
 -1      3701    3    0    2
 -2       848      2588      2593      1045
 -1      3702    3    0    1
 -2      1839      1781      1912      2155
 -1      3703    3    0    2
 -2      1043      2586      1044      2590
 -1      3704    3    0    1
 -2      2012      1693      2103      2155
 -1      3705    3    0    2
 -2      2514       402      2515       999
 -1      3706    3    0    1
 -2      3501        44      3792      3542
 -1      3707    3    0    2
 -2      2578      1036      2579      1040
 -1      3708    3    0    2
 -2      3287       922      2415       921
 -1      3709    3    0    2
 -2       402      1000       999      2514
 -1      3710    3    0    1
 -2      1737      1693      1781      2155
 -1      3711    3    0    1
 -2      1673      1737      1781      2155
 -1      3712    3    0    1
 -2      1740      1748      1802      2216
 -1      3713    3    0    1
 -2      1846      1951      1990      2216
 -1      3714    3    0    1
 -2      1888      2308      2512      1053
 -1      3715    3    0    1
 -2      2081        72      3694      3909
 -1      3716    3    0    2
 -2      2586       794      2587      1043
 -1      3717    3    0    2
 -2       245       300      2670      2676
 -1      3718    3    0    1
 -2       921      1007      3762      3845
 -1      3719    3    0    1
 -2      1103       245      3772      3638
 -1      3720    3    0    1
 -2        18      1737      2214      2224
 -1      3721    3    0    1
 -2      2832       869      2838      3902
 -1      3722    3    0    2
 -2      3218      1267      1528      3224
 -1      3723    3    0    1
 -2       664      1853      2099       873
 -1      3724    3    0    1
 -2      2103       250      2120      2224
 -1      3725    3    0    1
 -2      1125       693      2850      3837
 -1      3726    3    0    1
 -2      3186      3703      3553      3839
 -1      3727    3    0    1
 -2      1812       249      2034       864
 -1      3728    3    0    1
 -2      2012      2103      2120      2214
 -1      3729    3    0    2
 -2      2443       673       953       954
 -1      3730    3    0    2
 -2      1202       634      1201      2797
 -1      3731    3    0    1
 -2      1124       188      3362      3719
 -1      3732    3    0    1
 -2       241      2177      2218      1313
 -1      3733    3    0    2
 -2      2228      2353      1309      1310
 -1      3734    3    0    2
 -2       501      1202      2605       586
 -1      3735    3    0    1
 -2       635      2161      2162      2209
 -1      3736    3    0    1
 -2      2704      1159      2247      2403
 -1      3737    3    0    1
 -2      1813       400      2602      3393
 -1      3738    3    0    1
 -2      3570      3563      3864      3870
 -1      3739    3    0    2
 -2       872        55      3304      3306
 -1      3740    3    0    2
 -2      2496      2495      2498      2504
 -1      3741    3    0    1
 -2      2850       693      2858      3837
 -1      3742    3    0    1
 -2      2390      1522      3219      3894
 -1      3743    3    0    2
 -2      1101      1102      2672      2677
 -1      3744    3    0    2
 -2      2806      2604      2809      2814
 -1      3745    3    0    2
 -2       629      1056      2597      1055
 -1      3746    3    0    1
 -2      1968      2463      3027      1161
 -1      3747    3    0    2
 -2      2294      2295      1133      2777
 -1      3748    3    0    1
 -2      1902      3803      3870      3669
 -1      3749    3    0    1
 -2      1677      2085      3566      3615
 -1      3750    3    0    1
 -2       688       625      2138      1537
 -1      3751    3    0    1
 -2      2010       646       963      2711
 -1      3752    3    0    1
 -2       857       917      3289      3290
 -1      3753    3    0    2
 -2      2698      1149      2402      1150
 -1      3754    3    0    2
 -2      2422      2243      1389      1390
 -1      3755    3    0    2
 -2      2302       576      2701      2702
 -1      3756    3    0    1
 -2      1660      1633      3875      3888
 -1      3757    3    0    2
 -2      2434      2787      2790      2797
 -1      3758    3    0    1
 -2      1869       419      2087      1644
 -1      3759    3    0    2
 -2      2249      2270      1278      2248
 -1      3760    3    0    2
 -2       409      1270      2423      1269
 -1      3761    3    0    1
 -2      2169       690      2303      2423
 -1      3762    3    0    1
 -2      3750       161      3885      3901
 -1      3763    3    0    1
 -2       867      2272      1801      2268
 -1      3764    3    0    1
 -2      1878      1761      2070      2172
 -1      3765    3    0    1
 -2       496        23       484      2172
 -1      3766    3    0    1
 -2       496      1923      2070      2172
 -1      3767    3    0    1
 -2        30       496      2070      2172
 -1      3768    3    0    1
 -2        23       496        30      2172
 -1      3769    3    0    1
 -2        23       443       442      2172
 -1      3770    3    0    1
 -2       443        30      2070      2172
 -1      3771    3    0    1
 -2       443        23        30      2172
 -1      3772    3    0    2
 -2       620      2472      2473      3258
 -1      3773    3    0    1
 -2       636      2208      1105      3182
 -1      3774    3    0    1
 -2       671       708      2091      1601
 -1      3775    3    0    1
 -2       152       849      3557      3830
 -1      3776    3    0    2
 -2      2302      2303      2701      1181
 -1      3777    3    0    1
 -2      2053       260      2243      1249
 -1      3778    3    0    1
 -2      2585       397      3816      3877
 -1      3779    3    0    1
 -2      2939       425      3124      3754
 -1      3780    3    0    1
 -2       393       631      2047      2177
 -1      3781    3    0    1
 -2      1986       284       937      3389
 -1      3782    3    0    2
 -2       621      2465      3183      3184
 -1      3783    3    0    1
 -2      2001      1746      2090      3180
 -1      3784    3    0    1
 -2      2981      1282      2990      3702
 -1      3785    3    0    2
 -2      2307       621      3183      3184
 -1      3786    3    0    1
 -2      3611      3655      3671      3681
 -1      3787    3    0    2
 -2      2722      2720      2724      2725
 -1      3788    3    0    1
 -2      1032      1029      3746      3861
 -1      3789    3    0    2
 -2      1107      2444      1108      2687
 -1      3790    3    0    1
 -2      2146      2180      2332      3548
 -1      3791    3    0    2
 -2       505      1088      1087      2635
 -1      3792    3    0    2
 -2      2618      2617      3046      3052
 -1      3793    3    0    1
 -2       671      2091      2608      1601
 -1      3794    3    0    1
 -2      2091       708      1009      1601
 -1      3795    3    0    1
 -2       547      1585      3730      3627
 -1      3796    3    0    2
 -2      2406      2405      2416      1535
 -1      3797    3    0    1
 -2       690      2121      1181      3873
 -1      3798    3    0    1
 -2      1685      2055      2180      2182
 -1      3799    3    0    1
 -2      2498       418      3735      3419
 -1      3800    3    0    1
 -2      1117        70      3710      3725
 -1      3801    3    0    1
 -2       439       978      3087      3415
 -1      3802    3    0    1
 -2       557       555      2091      2197
 -1      3803    3    0    1
 -2      1936      2184       957      2753
 -1      3804    3    0    1
 -2      2200      3324      3541      3909
 -1      3805    3    0    1
 -2      1394       680      3130      3757
 -1      3806    3    0    2
 -2      2227       635      2353      2354
 -1      3807    3    0    1
 -2      1964      2142      2999      3007
 -1      3808    3    0    2
 -2      2874      2873      1518       289
 -1      3809    3    0    1
 -2      3210      3207      3214      3832
 -1      3810    3    0    1
 -2      3193      3438      3807      3891
 -1      3811    3    0    1
 -2      1730      2184      2753      3182
 -1      3812    3    0    2
 -2      2463      2772      1260      2464
 -1      3813    3    0    2
 -2       531      1054       621      3183
 -1      3814    3    0    1
 -2       360      1235      3275      3437
 -1      3815    3    0    1
 -2      1613      3119      2381      1811
 -1      3816    3    0    1
 -2      3719      2802      3761      3796
 -1      3817    3    0    1
 -2      2185      3695      3756      3539
 -1      3818    3    0    1
 -2      1890      3442      3859      3907
 -1      3819    3    0    2
 -2      3017      1402      3022      3026
 -1      3820    3    0    1
 -2      1909       435      3228      3229
 -1      3821    3    0    2
 -2       432      1388      2352       818
 -1      3822    3    0    2
 -2      2325      2459      1387      2326
 -1      3823    3    0    2
 -2       952       951      2252      2695
 -1      3824    3    0    1
 -2      3271      3784      3507      3800
 -1      3825    3    0    1
 -2      1612      2126      3546       378
 -1      3826    3    0    2
 -2       897      3044      1411      1412
 -1      3827    3    0    1
 -2      2240      1235      3691      3828
 -1      3828    3    0    2
 -2      1079      1080      2636      2638
 -1      3829    3    0    1
 -2       521      2242      2411      3828
 -1      3830    3    0    1
 -2      3161       687      1488      3785
 -1      3831    3    0    1
 -2      3448       687      3899      3644
 -1      3832    3    0    1
 -2      1873      1823      1894      2191
 -1      3833    3    0    1
 -2      1823      1731      1894      2191
 -1      3834    3    0    1
 -2      1731      1697      1900      2191
 -1      3835    3    0    1
 -2      1697      1731      1823      2191
 -1      3836    3    0    1
 -2      2161       395      2196      3173
 -1      3837    3    0    2
 -2       410      1570      2859       749
 -1      3838    3    0    2
 -2      3237      3238      3240      3248
 -1      3839    3    0    1
 -2       410      1254      3710      3759
 -1      3840    3    0    2
 -2       418      2498      2501      2505
 -1      3841    3    0    1
 -2      3270      2032      3454      3455
 -1      3842    3    0    1
 -2      2505      2163       418      3419
 -1      3843    3    0    1
 -2      2114      1729      2166      2205
 -1      3844    3    0    2
 -2      3070      2343      3078      3082
 -1      3845    3    0    2
 -2      3195      3196      1392       778
 -1      3846    3    0    1
 -2      1718      1763      2166      2205
 -1      3847    3    0    2
 -2       243      1576      2446       302
 -1      3848    3    0    1
 -2      2107      1941      2140      3781
 -1      3849    3    0    1
 -2      2081       670      2195      2197
 -1      3850    3    0    1
 -2      3194      3694      3741      3750
 -1      3851    3    0    1
 -2      2492      2222      3326      3632
 -1      3852    3    0    1
 -2       212       538       471      2198
 -1      3853    3    0    1
 -2       471        10      2108      2198
 -1      3854    3    0    1
 -2       212       471      2108      2198
 -1      3855    3    0    1
 -2      3737      3801      3543      3661
 -1      3856    3    0    2
 -2       880       879      2962      2970
 -1      3857    3    0    1
 -2       702      1983      3429      3562
 -1      3858    3    0    2
 -2      2520       945      1005      2525
 -1      3859    3    0    2
 -2      3119      2600       244      3120
 -1      3860    3    0    2
 -2      2243      2876      1390      2244
 -1      3861    3    0    1
 -2      2066      2203      1301      3687
 -1      3862    3    0    1
 -2       526      2042      2078      3766
 -1      3863    3    0    1
 -2      2095       241      2177      2218
 -1      3864    3    0    2
 -2      1237      2899      2900      2908
 -1      3865    3    0    1
 -2      2216      1846      3516      3531
 -1      3866    3    0    1
 -2      1690      1712      1961      3178
 -1      3867    3    0    1
 -2      2211       366      2264       845
 -1      3868    3    0    2
 -2      2353      2322      1575      1576
 -1      3869    3    0    1
 -2      2204      3335      3405      3857
 -1      3870    3    0    1
 -2      2445      1108      2687      3765
 -1      3871    3    0    1
 -2      1582      2352       665      1987
 -1      3872    3    0    1
 -2      1099      1103      2667      3772
 -1      3873    3    0    1
 -2      3760      3279      3763      3900
 -1      3874    3    0    1
 -2      2163      2505       418       993
 -1      3875    3    0    1
 -2      2075      1856      1578      3729
 -1      3876    3    0    1
 -2      3189      2200      3324      3541
 -1      3877    3    0    2
 -2      1012      1011      2296      2935
 -1      3878    3    0    1
 -2      3015      3011      3024      3811
 -1      3879    3    0    1
 -2      2034       249      2046       915
 -1      3880    3    0    1
 -2      2110      1993      2151      2206
 -1      3881    3    0    1
 -2      2109      2110      2151      2206
 -1      3882    3    0    2
 -2      2384      2847      2851      2858
 -1      3883    3    0    2
 -2       676       766      3351      3357
 -1      3884    3    0    1
 -2      3007      2999      3718      3614
 -1      3885    3    0    1
 -2      2238      2640      2646      3724
 -1      3886    3    0    2
 -2      3238      3237      3242      3246
 -1      3887    3    0    2
 -2       631      1314      2752      1313
 -1      3888    3    0    2
 -2      2944      1351      1352      2949
 -1      3889    3    0    1
 -2       417       654      1992       841
 -1      3890    3    0    1
 -2       664      2063      2099      1496
 -1      3891    3    0    1
 -2      2263      2416      3411      3785
 -1      3892    3    0    1
 -2      3161      3153      3165      3785
 -1      3893    3    0    2
 -2       404      1536      2443      1535
 -1      3894    3    0    2
 -2       856       512       602      2407
 -1      3895    3    0    2
 -2      2274       856      2275      2407
 -1      3896    3    0    1
 -2      2079      2016       925      3234
 -1      3897    3    0    2
 -2      3153      3160      3168      3170
 -1      3898    3    0    1
 -2       367      1926      1999      1490
 -1      3899    3    0    1
 -2        21       493       351      2212
 -1      3900    3    0    1
 -2       348        21      2143      2212
 -1      3901    3    0    1
 -2        21       351      2143      2212
 -1      3902    3    0    1
 -2      2410      1920      3498      3791
 -1      3903    3    0    2
 -2      2225      3009      1338      2226
 -1      3904    3    0    2
 -2      2337      2338       891      3009
 -1      3905    3    0    2
 -2       556      1430      3009      1429
 -1      3906    3    0    2
 -2      2493      2229      1497      2494
 -1      3907    3    0    2
 -2      2343      2344      3070      3078
 -1      3908    3    0    2
 -2      3066      3065      3069      3075
 -1      3909    3    0    1
 -2      2449       864       399      2034
 -1      3910    3    0    2
 -2      2321      2353      1311      2322
 -1      3911    3    0    1
 -2       896       437      2374      3819
 -1      3912    3    0    1
 -2      3227      2390      3850      3894
 -1      3913    3    0    1
 -2      1802      1748      1961      2216
 -1      3914    3    0    1
 -2      1748      1754      1961      2216
 -1      3915    3    0    1
 -2      1740      1674      1810      3517
 -1      3916    3    0    1
 -2      3713      2128      3812      3857
 -1      3917    3    0    1
 -2      3764      2208      3765      3878
 -1      3918    3    0    1
 -2       250       223      2120      2224
 -1      3919    3    0    1
 -2      1737      1693      2155      2224
 -1      3920    3    0    1
 -2      2481      2476      2482      3748
 -1      3921    3    0    1
 -2      2476      2481      2486      3748
 -1      3922    3    0    1
 -2      1145      2732      3778      3839
 -1      3923    3    0    1
 -2      1825      1758      2013      2602
 -1      3924    3    0    2
 -2       709      2404      2704      1227
 -1      3925    3    0    2
 -2       881      2361      2365      2371
 -1      3926    3    0    2
 -2      2954      2292      1343      2293
 -1      3927    3    0    1
 -2      2200      2130      2217      2223
 -1      3928    3    0    1
 -2      2149      2158      2217      2223
 -1      3929    3    0    1
 -2      1685      2149      2182      2222
 -1      3930    3    0    1
 -2      2158      2149      2219      2222
 -1      3931    3    0    2
 -2      2231      1234      1233      3196
 -1      3932    3    0    2
 -2      3093      3095      3107      3112
 -1      3933    3    0    1
 -2      2024       407      2331      2493
 -1      3934    3    0    1
 -2      2496       985      2500      3735
 -1      3935    3    0    1
 -2      2146      2180      2182      2222
 -1      3936    3    0    2
 -2       655       726      3308      1591
 -1      3937    3    0    1
 -2      1685      2180      2219      2222
 -1      3938    3    0    1
 -2       266      2187      2871      1625
 -1      3939    3    0    1
 -2      2158      2149      2204      2223
 -1      3940    3    0    1
 -2      2755       530      1271      3443
 -1      3941    3    0    1
 -2        70      2057       949      2471
 -1      3942    3    0    1
 -2      3047      3050      3061      3841
 -1      3943    3    0    1
 -2      1951      1990      3197      3373
 -1      3944    3    0    1
 -2       510       223       250      2224
 -1      3945    3    0    1
 -2        18       510        73      2224
 -1      3946    3    0    1
 -2       223       510       478      2224
 -1      3947    3    0    1
 -2       510        18       478      2224
 -1      3948    3    0    1
 -2       223       478      2214      2224
 -1      3949    3    0    1
 -2      2120       223      2214      2224
 -1      3950    3    0    1
 -2       478        18      2214      2224
 -1      3951    3    0    2
 -2      2605      2434      1468      2435
 -1      3952    3    0    2
 -2      2494      2229      1497      1498
 -1      3953    3    0    1
 -2      3702      2018      3532      3815
 -1      3954    3    0    1
 -2      1419       182      3433      3847
 -1      3955    3    0    2
 -2       758      2354      1061      1062
 -1      3956    3    0    2
 -2      2321      2446      1311      2447
 -1      3957    3    0    2
 -2      2447      2446      1311       301
 -1      3958    3    0    1
 -2       546      1749      2192      1065
 -1      3959    3    0    2
 -2       703      1514       716      2498
 -1      3960    3    0    1
 -2      2041      2409      3688      3706
 -1      3961    3    0    2
 -2       729      3298      3302      3307
 -1      3962    3    0    1
 -2      2146      2180      2219      2332
 -1      3963    3    0    2
 -2      3295      3297      3304      3305
 -1      3964    3    0    2
 -2       782      2233      2442      1505
 -1      3965    3    0    2
 -2      2718      2719      2725      2726
 -1      3966    3    0    2
 -2      2722      2718      2725      2726
 -1      3967    3    0    2
 -2       830      1131      3249      3255
 -1      3968    3    0    2
 -2       833       834      2721      2722
 -1      3969    3    0    1
 -2      3494      3640      3918      3925
 -1      3970    3    0    1
 -2      2151      2276      2277      3198
 -1      3971    3    0    1
 -2       140      1325      3774      3639
 -1      3972    3    0    1
 -2       664      1853      2432      1496
 -1      3973    3    0    1
 -2       657      2967      1370      3690
 -1      3974    3    0    1
 -2      2052      2058      3752      3487
 -1      3975    3    0    1
 -2       688      2138      2977      3006
 -1      3976    3    0    2
 -2       941      2387       674       942
 -1      3977    3    0    2
 -2      2416      2262      1185      2263
 -1      3978    3    0    2
 -2       504      3390      1635      1636
 -1      3979    3    0    1
 -2      1507      2272      2235      2014
 -1      3980    3    0    2
 -2      2233      2452       258      2453
 -1      3981    3    0    2
 -2      2233       258      1505      2453
 -1      3982    3    0    2
 -2      2923      1318      2929      1329
 -1      3983    3    0    2
 -2      2924      2915      2923      2927
 -1      3984    3    0    1
 -2      3901      2200      3324      2599
 -1      3985    3    0    1
 -2       637      2903      2905      3687
 -1      3986    3    0    2
 -2      2706      3350      3357      3361
 -1      3987    3    0    2
 -2      1100      2660      2663      2664
 -1      3988    3    0    1
 -2      1986       436      1337      3389
 -1      3989    3    0    2
 -2      2697       696       742      1625
 -1      3990    3    0    2
 -2      1157      1320      1158      2916
 -1      3991    3    0    1
 -2      1305      1237      3727      3780
 -1      3992    3    0    1
 -2       425      1353      2946      3124
 -1      3993    3    0    1
 -2      1902      3260      3704      3803
 -1      3994    3    0    1
 -2      2056       625      2388      2511
 -1      3995    3    0    2
 -2      2628      2652      2655      2658
 -1      3996    3    0    2
 -2      1084      1083      2634      2641
 -1      3997    3    0    1
 -2      3349      3719      3749      3761
 -1      3998    3    0    2
 -2      2630      1082      2631      2632
 -1      3999    3    0    2
 -2      2650      1092      2652      1098
 -1      4000    3    0    1
 -2      1934      1897      2133      3187
 -1      4001    3    0    2
 -2      2267      2645      2647      2649
 -1      4002    3    0    2
 -2      2231      3195      1234      3196
 -1      4003    3    0    1
 -2      2159      2109      2413      2998
 -1      4004    3    0    1
 -2      2242       393      3006      3196
 -1      4005    3    0    2
 -2      1509       903      3203      3204
 -1      4006    3    0    1
 -2      1994      2231      1233      3196
 -1      4007    3    0    1
 -2      1994       393      2231      3196
 -1      4008    3    0    1
 -2      1994       688      3006      3196
 -1      4009    3    0    1
 -2       393      2242      3006      1503
 -1      4010    3    0    1
 -2      2177       393      3006      1503
 -1      4011    3    0    2
 -2      3348      3349      3356      3360
 -1      4012    3    0    2
 -2      2269      2272       867      2268
 -1      4013    3    0    1
 -2      2563      2312      2573      3871
 -1      4014    3    0    2
 -2        38       866       838       155
 -1      4015    3    0    1
 -2       632      2111      2183      1228
 -1      4016    3    0    1
 -2        53      1754      2724      3846
 -1      4017    3    0    2
 -2      1374      1373      3077      3081
 -1      4018    3    0    2
 -2      2258      2873       860      2259
 -1      4019    3    0    1
 -2      2053      2144      2169      2243
 -1      4020    3    0    1
 -2      1960       420      1132      3728
 -1      4021    3    0    2
 -2       546       566      2784      1587
 -1      4022    3    0    1
 -2       833      2720      2728      3846
 -1      4023    3    0    2
 -2       871       872      3299      3309
 -1      4024    3    0    1
 -2      2031       530      2036      1271
 -1      4025    3    0    2
 -2      2248       545      1278      2249
 -1      4026    3    0    1
 -2       659      1425      3699      3782
 -1      4027    3    0    1
 -2      2714      2170      3772      3911
 -1      4028    3    0    2
 -2      2246      2245      2446      1396
 -1      4029    3    0    1
 -2      2138       371      1391      1537
 -1      4030    3    0    1
 -2       425      1353      3124      3799
 -1      4031    3    0    1
 -2      2162       246      2202      2247
 -1      4032    3    0    1
 -2       684      1730      2202      2247
 -1      4033    3    0    1
 -2      2245       684      2247      2704
 -1      4034    3    0    1
 -2      1497      2493      2331      2230
 -1      4035    3    0    2
 -2      2404      2703      1159      1160
 -1      4036    3    0    2
 -2      2446      2245      1395      1396
 -1      4037    3    0    1
 -2       981      2490      3413      3783
 -1      4038    3    0    1
 -2      2138       625      2211      1537
 -1      4039    3    0    1
 -2       386      2427      1203      3371
 -1      4040    3    0    1
 -2      3004      2492      3834      3572
 -1      4041    3    0    2
 -2      2250      2873      1518      2874
 -1      4042    3    0    2
 -2      1538       371       599      3287
 -1      4043    3    0    2
 -2      3208      3213      3215      3219
 -1      4044    3    0    2
 -2       702      1518      2609       715
 -1      4045    3    0    1
 -2      1655       707      3925      3679
 -1      4046    3    0    1
 -2      2069      2186      2187      2253
 -1      4047    3    0    1
 -2       627      2069      2253      1534
 -1      4048    3    0    1
 -2       642      1879      2043      1015
 -1      4049    3    0    1
 -2      1731       152      1879      1015
 -1      4050    3    0    1
 -2      1853       549      1971      2272
 -1      4051    3    0    1
 -2       654       417      1992      1053
 -1      4052    3    0    2
 -2      2258       417      2270      2271
 -1      4053    3    0    1
 -2       641      2035      2112      1335
 -1      4054    3    0    2
 -2      2561       365      2566      2575
 -1      4055    3    0    2
 -2      2578      2579      1039      1040
 -1      4056    3    0    2
 -2      2311      2312      2569      2571
 -1      4057    3    0    1
 -2      1987       432      1013      3229
 -1      4058    3    0    1
 -2       652      2004      2610      1271
 -1      4059    3    0    1
 -2      3218       706      1528      3701
 -1      4060    3    0    2
 -2      2584       847      2588      2593
 -1      4061    3    0    2
 -2      1130      2268      2272      2269
 -1      4062    3    0    2
 -2      2283      2678      2679      2680
 -1      4063    3    0    2
 -2      2960      2956      2961      2966
 -1      4064    3    0    2
 -2       581       377      2644      2681
 -1      4065    3    0    2
 -2      2280       620      2472      2473
 -1      4066    3    0    2
 -2      2396      2397      2426      1354
 -1      4067    3    0    1
 -2      1966      1749      1992      2258
 -1      4068    3    0    2
 -2       757       637      2905      2906
 -1      4069    3    0    2
 -2      2664      2300      2666      2669
 -1      4070    3    0    1
 -2      1746      1981      2001      1979
 -1      4071    3    0    1
 -2      2541       970      2547      3696
 -1      4072    3    0    1
 -2      1746      1795      2001      3793
 -1      4073    3    0    1
 -2      1026       184      3718      3806
 -1      4074    3    0    1
 -2      1185      2263      3161      3785
 -1      4075    3    0    2
 -2      2442      2233       953      2234
 -1      4076    3    0    2
 -2      2262       598      2416      2417
 -1      4077    3    0    1
 -2      3272      3002      3346      3731
 -1      4078    3    0    1
 -2      3695      3027      3319      3890
 -1      4079    3    0    2
 -2      2263      2416      1489      1490
 -1      4080    3    0    1
 -2      2016       278       925      3234
 -1      4081    3    0    2
 -2      2381      1225      1226      3119
 -1      4082    3    0    2
 -2      2238      2646      2648      2650
 -1      4083    3    0    1
 -2      1751      2036      2072      3151
 -1      4084    3    0    1
 -2      2042       526      1301      3462
 -1      4085    3    0    2
 -2      3286      2415       922      2414
 -1      4086    3    0    2
 -2      2479      2439      2485      2488
 -1      4087    3    0    2
 -2      2634      1077      2641      2665
 -1      4088    3    0    2
 -2      2272      2273       867       385
 -1      4089    3    0    2
 -2       505      2635      2640      2642
 -1      4090    3    0    2
 -2      2639       505      2640      2642
 -1      4091    3    0    2
 -2      1314       241       304      3119
 -1      4092    3    0    1
 -2      1089       505      3848      3862
 -1      4093    3    0    1
 -2      1294      2461      3896      2419
 -1      4094    3    0    2
 -2      1454      1453      3096      3108
 -1      4095    3    0    2
 -2      2236       616      2272      2273
 -1      4096    3    0    2
 -2       416       743      2892      2894
 -1      4097    3    0    2
 -2      2269       616      2272      1130
 -1      4098    3    0    1
 -2      2881       840      2884      3716
 -1      4099    3    0    2
 -2       958       504       957      3390
 -1      4100    3    0    2
 -2      2250       267      2873      2874
 -1      4101    3    0    1
 -2      1801      1971      2268      2272
 -1      4102    3    0    1
 -2      1749      1992      2258      2271
 -1      4103    3    0    1
 -2      1992      1749      2249      2271
 -1      4104    3    0    1
 -2      1992       417      2258      2271
 -1      4105    3    0    1
 -2       417      1992      2249      2271
 -1      4106    3    0    2
 -2      1278      2271      2249      1277
 -1      4107    3    0    1
 -2      1507      2272      2014       385
 -1      4108    3    0    2
 -2      2270      2271      1278       719
 -1      4109    3    0    1
 -2      1853      2014      2235      2272
 -1      4110    3    0    1
 -2       417      1992      2258       841
 -1      4111    3    0    1
 -2       549      1971      2063      1496
 -1      4112    3    0    1
 -2      1801       385      2014      2272
 -1      4113    3    0    2
 -2      2250      2251      2609      1518
 -1      4114    3    0    1
 -2      1801      1853      1971      2272
 -1      4115    3    0    1
 -2      1853      1801      2014      2272
 -1      4116    3    0    2
 -2       427      1508      2236      1507
 -1      4117    3    0    1
 -2      2102      2028      2167      3439
 -1      4118    3    0    2
 -2      2258       842      2270       841
 -1      4119    3    0    2
 -2       417      2258      2270       841
 -1      4120    3    0    2
 -2       417       842       841      2270
 -1      4121    3    0    1
 -2      3462       526      3765      3766
 -1      4122    3    0    2
 -2       417       842      2270       723
 -1      4123    3    0    1
 -2      2151      2159      2181      2276
 -1      4124    3    0    1
 -2      1967      1795      3504      3793
 -1      4125    3    0    2
 -2      2786      2788      2791      2792
 -1      4126    3    0    1
 -2      3400      2189      3837      3922
 -1      4127    3    0    1
 -2       188      1372      3719      3771
 -1      4128    3    0    1
 -2       708      2106      2316      2692
 -1      4129    3    0    2
 -2      2706      3364      3367      3368
 -1      4130    3    0    1
 -2      3351      3743      3749      3771
 -1      4131    3    0    2
 -2      2377       798      2378      1231
 -1      4132    3    0    2
 -2      2422      2243      1250      2423
 -1      4133    3    0    2
 -2      2915      2924      2923      2928
 -1      4134    3    0    1
 -2      1661      3719      3749      3771
 -1      4135    3    0    2
 -2      2334      2333      2710      1600
 -1      4136    3    0    1
 -2      2161       395      3173      1648
 -1      4137    3    0    2
 -2      2830      2832      2831      2836
 -1      4138    3    0    2
 -2      1265       827      1266      3241
 -1      4139    3    0    1
 -2      2010      2333       963      2776
 -1      4140    3    0    1
 -2       542      1553      3864      3907
 -1      4141    3    0    2
 -2      2266      2677      2681      2684
 -1      4142    3    0    2
 -2      2280      2749      1263      1264
 -1      4143    3    0    1
 -2      3808      3560      3371      1360
 -1      4144    3    0    1
 -2       878      3239      3250      3704
 -1      4145    3    0    2
 -2      2498      2495      2501      2503
 -1      4146    3    0    2
 -2      2648      2237      2650      2652
 -1      4147    3    0    1
 -2       388      2390      2869      3894
 -1      4148    3    0    1
 -2      2511       403      1624      3392
 -1      4149    3    0    2
 -2      1556      2750      2280      1555
 -1      4150    3    0    2
 -2      2430      2431      3592      3606
 -1      4151    3    0    2
 -2      2625       828      2749      2750
 -1      4152    3    0    1
 -2      1191      2978      1973       430
 -1      4153    3    0    1
 -2      2218      1811      2381      3119
 -1      4154    3    0    1
 -2      2057       949      3768      3854
 -1      4155    3    0    2
 -2      2661      2267      2668      2672
 -1      4156    3    0    1
 -2      1959       366      2211       845
 -1      4157    3    0    2
 -2      2307      2512      1053      1054
 -1      4158    3    0    1
 -2      1305       118      3727      3665
 -1      4159    3    0    2
 -2      1392       688       778      3196
 -1      4160    3    0    2
 -2      1099      1100      2663      2667
 -1      4161    3    0    2
 -2      2669      2282      2675      2676
 -1      4162    3    0    2
 -2      2639      2642      2681      2684
 -1      4163    3    0    2
 -2      2676      2282      2678      2679
 -1      4164    3    0    1
 -2      2509      3594      3874      3882
 -1      4165    3    0    2
 -2      3120       303      1613      1614
 -1      4166    3    0    2
 -2      2381       768      1613      2598
 -1      4167    3    0    2
 -2      2264      3286      1538      2265
 -1      4168    3    0    1
 -2      2043      1676       855      3393
 -1      4169    3    0    2
 -2      2242      3195      1392      2241
 -1      4170    3    0    2
 -2      2288      2289      2772      1386
 -1      4171    3    0    1
 -2       287      2061      2828      1595
 -1      4172    3    0    2
 -2      2288       537      2772      2773
 -1      4173    3    0    2
 -2      2376      3315      1230      2375
 -1      4174    3    0    2
 -2       733       650      2621      1559
 -1      4175    3    0    1
 -2      3278      3756      3536      3866
 -1      4176    3    0    1
 -2      1976      1778       883      3318
 -1      4177    3    0    2
 -2      2438       605      2455      2456
 -1      4178    3    0    2
 -2       604       557      2713      1231
 -1      4179    3    0    1
 -2      2003       438      2145      1558
 -1      4180    3    0    1
 -2      2005      1938      2014      3377
 -1      4181    3    0    1
 -2       245      2666      2667      3772
 -1      4182    3    0    2
 -2      2288      2982      2992      2994
 -1      4183    3    0    2
 -2      2288      2772      1380      2773
 -1      4184    3    0    2
 -2      2716       551      1563      1564
 -1      4185    3    0    2
 -2      3102      3092      3105      3108
 -1      4186    3    0    1
 -2      3856      3904      3655      3671
 -1      4187    3    0    1
 -2      3663      3896      3914      3915
 -1      4188    3    0    2
 -2      2461      2379      1515      1516
 -1      4189    3    0    1
 -2       407      2024      2331      1499
 -1      4190    3    0    1
 -2       666      1973      2978      1564
 -1      4191    3    0    2
 -2       280      1562      2936      1561
 -1      4192    3    0    2
 -2      2773      2772      1380       571
 -1      4193    3    0    2
 -2      1282      1281      2985      2990
 -1      4194    3    0    2
 -2      1385      2992      1386      2994
 -1      4195    3    0    2
 -2      2290      2230      1500      2229
 -1      4196    3    0    2
 -2      2290      2291      1234       306
 -1      4197    3    0    1
 -2      2955      2015      1561      2357
 -1      4198    3    0    1
 -2      1193      3494      3918      3679
 -1      4199    3    0    1
 -2      3275      1235      3742      3437
 -1      4200    3    0    2
 -2      2399       815      2978      1563
 -1      4201    3    0    1
 -2      2356      2357      1339      2955
 -1      4202    3    0    2
 -2      2936      2293      1561      1562
 -1      4203    3    0    1
 -2      1948       658      2749      1565
 -1      4204    3    0    2
 -2      2400      2399      2978      1563
 -1      4205    3    0    2
 -2      2978      2979      1341       430
 -1      4206    3    0    1
 -2      3709      3126      3721      3841
 -1      4207    3    0    1
 -2      1948       275      2295      1568
 -1      4208    3    0    2
 -2      2467      3238      3242      3247
 -1      4209    3    0    2
 -2       700      2295      1567      1568
 -1      4210    3    0    1
 -2       524      2701      2865      3758
 -1      4211    3    0    1
 -2      1910      1924      1936      3454
 -1      4212    3    0    1
 -2      3607      1819      3874      3646
 -1      4213    3    0    1
 -2      3511      3756      3811      3866
 -1      4214    3    0    2
 -2       699      2983      1377      1378
 -1      4215    3    0    1
 -2       549      1853      1971      1496
 -1      4216    3    0    2
 -2      2343      2344      3082      3083
 -1      4217    3    0    1
 -2       398       915      3746      3574
 -1      4218    3    0    1
 -2       433      3210      3221      3832
 -1      4219    3    0    1
 -2       149      1806      2122       904
 -1      4220    3    0    1
 -2      3513      3809      3852      3917
 -1      4221    3    0    2
 -2      2294      1133      1134      2777
 -1      4222    3    0    1
 -2      3181      3477      3898      3676
 -1      4223    3    0    2
 -2       524      1182      2701      1181
 -1      4224    3    0    2
 -2      2348      2347      1059      2825
 -1      4225    3    0    2
 -2       642      2274      2298      2299
 -1      4226    3    0    1
 -2       642      2043      2274      2299
 -1      4227    3    0    1
 -2      2219      2146      2332      3572
 -1      4228    3    0    2
 -2      2323      2324      2551      2552
 -1      4229    3    0    1
 -2      2940      3529      3808      3809
 -1      4230    3    0    2
 -2      2303       690      2422      2423
 -1      4231    3    0    1
 -2      1927       414      2170      3873
 -1      4232    3    0    2
 -2      2227      2228      2353      1309
 -1      4233    3    0    1
 -2       690      2169      2243      2423
 -1      4234    3    0    1
 -2      1944      3284      3751      3790
 -1      4235    3    0    1
 -2      1811       244      2196      3568
 -1      4236    3    0    2
 -2       711      2300      2653      2661
 -1      4237    3    0    2
 -2       756      2657      2659      2660
 -1      4238    3    0    2
 -2      2650      2652      1097      1098
 -1      4239    3    0    2
 -2      2707       361      1647      2805
 -1      4240    3    0    1
 -2      1492      3209      3222      3852
 -1      4241    3    0    1
 -2      1963      1668      3559      3579
 -1      4242    3    0    2
 -2      2307      3183       541      3184
 -1      4243    3    0    2
 -2      2851      2383      2858      2862
 -1      4244    3    0    2
 -2      1213      1214      1219      2819
 -1      4245    3    0    1
 -2      2013       509      2035      1335
 -1      4246    3    0    2
 -2      2330      2320      1333      2319
 -1      4247    3    0    2
 -2      2307       541      2308      1571
 -1      4248    3    0    1
 -2      1992       841      3003      3089
 -1      4249    3    0    1
 -2       267      2087      3003      3089
 -1      4250    3    0    2
 -2       643      1334      2449      1333
 -1      4251    3    0    1
 -2      1966      2004      1051      3089
 -1      4252    3    0    1
 -2      1777      1759      1907      3432
 -1      4253    3    0    2
 -2      1076       272       293      3014
 -1      4254    3    0    2
 -2      1120      2420      1119      2710
 -1      4255    3    0    2
 -2      2420      1120      2421      2710
 -1      4256    3    0    1
 -2      2671      2666      2675      3772
 -1      4257    3    0    1
 -2      3047      1416      1419      3709
 -1      4258    3    0    2
 -2      2710      2333      1599      1600
 -1      4259    3    0    1
 -2      3002      2624      3685      3731
 -1      4260    3    0    2
 -2      2262      2263      3161      3166
 -1      4261    3    0    1
 -2      1969      3730      3474      3626
 -1      4262    3    0    2
 -2      2956      2960      2961      2968
 -1      4263    3    0    2
 -2      3152      3153      3158      3164
 -1      4264    3    0    2
 -2      1403      1408      1404      3035
 -1      4265    3    0    1
 -2      2956      2961      2966      3720
 -1      4266    3    0    2
 -2      3013      3019      3028      3033
 -1      4267    3    0    2
 -2      2294      2512       700      2513
 -1      4268    3    0    2
 -2      2308       700      1571      1572
 -1      4269    3    0    1
 -2       700      2098      1339      1572
 -1      4270    3    0    1
 -2      2933      2240      3691      3828
 -1      4271    3    0    2
 -2      3042      3048      3049      3055
 -1      4272    3    0    1
 -2      2256      2578      2583      3700
 -1      4273    3    0    1
 -2       530      2031      2036      1183
 -1      4274    3    0    2
 -2       272      1076      1075      3014
 -1      4275    3    0    1
 -2      3795      2127      3848      3862
 -1      4276    3    0    2
 -2      3032      2310      3034      3035
 -1      4277    3    0    1
 -2      1887      1963      3396      3579
 -1      4278    3    0    2
 -2      3013      3011      3020      3023
 -1      4279    3    0    2
 -2      3044       897      3047      3054
 -1      4280    3    0    2
 -2      3128      1155      3135      3138
 -1      4281    3    0    1
 -2      3168      3163      3760      3881
 -1      4282    3    0    2
 -2      3048      3042      3051      3055
 -1      4283    3    0    2
 -2       791       398      2305      2311
 -1      4284    3    0    2
 -2       398      2304      2305      2311
 -1      4285    3    0    2
 -2       907      2563      2565      2573
 -1      4286    3    0    1
 -2      1029       398      2571      3746
 -1      4287    3    0    1
 -2      1920       136       913      2827
 -1      4288    3    0    2
 -2      2250      2609      1517      1518
 -1      4289    3    0    2
 -2      2577      2257      2578      2579
 -1      4290    3    0    1
 -2      1881      1851      3658      3677
 -1      4291    3    0    1
 -2       499      2102      2167      1210
 -1      4292    3    0    2
 -2       642       856       788      2275
 -1      4293    3    0    1
 -2       408      1220      3751      3790
 -1      4294    3    0    1
 -2      2048       677      2095      1059
 -1      4295    3    0    2
 -2       678      1210      2808      2812
 -1      4296    3    0    2
 -2      1209       678      1210      2808
 -1      4297    3    0    1
 -2      1999       642      2043       855
 -1      4298    3    0    1
 -2      1999      2043      2054       855
 -1      4299    3    0    1
 -2      1676       512      2054       855
 -1      4300    3    0    1
 -2      1702      1953      3386      3634
 -1      4301    3    0    1
 -2      3529      3808      3809      3917
 -1      4302    3    0    2
 -2      2315       608      2534      2535
 -1      4303    3    0    1
 -2      2043      1676      2054       855
 -1      4304    3    0    1
 -2       690      2121      2169      1181
 -1      4305    3    0    2
 -2       820       705      2269      2317
 -1      4306    3    0    1
 -2      3794       645      3800      3554
 -1      4307    3    0    2
 -2      2835      2840      1245      2843
 -1      4308    3    0    2
 -2      2939      2938      2940      2942
 -1      4309    3    0    1
 -2      2106       708      2428      2692
 -1      4310    3    0    1
 -2       276      1756      1809      1011
 -1      4311    3    0    2
 -2      2268       428      2269      2317
 -1      4312    3    0    2
 -2       705      2268      2269      2317
 -1      4313    3    0    1
 -2      1757      1801      1346       428
 -1      4314    3    0    1
 -2        63      1757      1836      1346
 -1      4315    3    0    2
 -2       371      1538      1537      3287
 -1      4316    3    0    1
 -2      1801       428      2268      2318
 -1      4317    3    0    2
 -2      2547       970      1025      1026
 -1      4318    3    0    1
 -2      2312       624      2573      3871
 -1      4319    3    0    2
 -2       705      2268      2317      2318
 -1      4320    3    0    2
 -2      2339      2340      2408      1573
 -1      4321    3    0    1
 -2      1360       429      2953      3808
 -1      4322    3    0    1
 -2      2340      1676      2408      1573
 -1      4323    3    0    1
 -2       705      1818      1971      2318
 -1      4324    3    0    1
 -2      1971      1801      2268      2318
 -1      4325    3    0    1
 -2       705      1971      2268      2318
 -1      4326    3    0    2
 -2       643      1574      1573      2449
 -1      4327    3    0    1
 -2       191      1818      1885      3277
 -1      4328    3    0    1
 -2       643      1676      2449      1573
 -1      4329    3    0    2
 -2      2537      2541      2546      2547
 -1      4330    3    0    1
 -2      2258      1749      2271       859
 -1      4331    3    0    1
 -2      1749       660      2271       859
 -1      4332    3    0    2
 -2      3288      2318      1345      3289
 -1      4333    3    0    1
 -2       278      2016       925      3117
 -1      4334    3    0    2
 -2      2536      2538      2542      2544
 -1      4335    3    0    2
 -2       968       819      3210      3212
 -1      4336    3    0    2
 -2      2304      2329       916      2305
 -1      4337    3    0    1
 -2      2034       249      2306      2330
 -1      4338    3    0    2
 -2      3286      3287      1538       599
 -1      4339    3    0    2
 -2       266       295      2871      1533
 -1      4340    3    0    2
 -2      3207       861      3216      3222
 -1      4341    3    0    2
 -2      2390      3208      3213      3218
 -1      4342    3    0    2
 -2       512      1574      2407      1573
 -1      4343    3    0    2
 -2       635      1576      2353      1575
 -1      4344    3    0    1
 -2      2376      2112      1229      3316
 -1      4345    3    0    2
 -2      3315      2285      1557      2284
 -1      4346    3    0    1
 -2       667      1436      3697      3584
 -1      4347    3    0    1
 -2       901      2081      3694      3697
 -1      4348    3    0    2
 -2      1064      1063      2759      1173
 -1      4349    3    0    1
 -2      1924      3000      3270      3840
 -1      4350    3    0    1
 -2      2038      2017      3181      3676
 -1      4351    3    0    1
 -2      2162       246      2447      1312
 -1      4352    3    0    1
 -2       625      2056      2211      2511
 -1      4353    3    0    1
 -2      1091      1097      3868      3629
 -1      4354    3    0    2
 -2      2257      2579      2582      2583
 -1      4355    3    0    2
 -2      2704      2404      1159      2403
 -1      4356    3    0    1
 -2       187      2038      2171      3292
 -1      4357    3    0    2
 -2       837       866       838        38
 -1      4358    3    0    1
 -2      1801       428      2005       867
 -1      4359    3    0    1
 -2       385      1801      2005       867
 -1      4360    3    0    2
 -2       837       902      2385       901
 -1      4361    3    0    2
 -2       385       868       618      2273
 -1      4362    3    0    1
 -2      3597      2431      3600      3875
 -1      4363    3    0    2
 -2       387      2400      2715      1341
 -1      4364    3    0    2
 -2       385       868      2273       867
 -1      4365    3    0    2
 -2      2831       645      2835      2840
 -1      4366    3    0    1
 -2       847      1046      3747      3633
 -1      4367    3    0    1
 -2      3262      2127      3714      3490
 -1      4368    3    0    1
 -2      1894      2043      1015      3831
 -1      4369    3    0    2
 -2      2323      2555      2557      1577
 -1      4370    3    0    1
 -2      1924      1936      3000      3425
 -1      4371    3    0    1
 -2      1936      1910      2184      3425
 -1      4372    3    0    1
 -2      3323      2152      3444      3782
 -1      4373    3    0    2
 -2      2324      2555      1577      1578
 -1      4374    3    0    2
 -2       896      2373      2338      2374
 -1      4375    3    0    2
 -2      2611      2393       926      2612
 -1      4376    3    0    1
 -2      1754        53      1135      3197
 -1      4377    3    0    2
 -2      2325      2352      1387      1388
 -1      4378    3    0    1
 -2      2160      2396      3124      3808
 -1      4379    3    0    1
 -2      2990      1113      3702      3815
 -1      4380    3    0    1
 -2      1582      2352      1987      2326
 -1      4381    3    0    1
 -2      1927       690      2169      1389
 -1      4382    3    0    1
 -2        53      1754      2157      3197
 -1      4383    3    0    1
 -2      2024      2178      2348      2493
 -1      4384    3    0    1
 -2       241      2095      2177      1313
 -1      4385    3    0    1
 -2      1259      2076      3319      3924
 -1      4386    3    0    2
 -2      2351       665      1581      1582
 -1      4387    3    0    2
 -2      2352      2351      1582       665
 -1      4388    3    0    2
 -2      2325       315      2459      1581
 -1      4389    3    0    2
 -2      3410      3409      1585       663
 -1      4390    3    0    1
 -2       687      3161      3165      3785
 -1      4391    3    0    1
 -2      3111      2286      3842      3927
 -1      4392    3    0    1
 -2      2151      2109      2159      3198
 -1      4393    3    0    1
 -2      2015      1853      2297       873
 -1      4394    3    0    1
 -2       677      2178      2331      2493
 -1      4395    3    0    1
 -2      2010       523      2333      2776
 -1      4396    3    0    2
 -2       259      1500      2291      1499
 -1      4397    3    0    1
 -2      1754      1951      2216      3197
 -1      4398    3    0    1
 -2      1135       697      2725      3478
 -1      4399    3    0    1
 -2      2063       664      2099      3314
 -1      4400    3    0    1
 -2       397      1037      2585      3816
 -1      4401    3    0    1
 -2      1794       873      3314      2099
 -1      4402    3    0    1
 -2      2330      1333       251      2034
 -1      4403    3    0    1
 -2       251      2034      2306      2330
 -1      4404    3    0    1
 -2      2034      2319       864      2330
 -1      4405    3    0    1
 -2       249      2034       864      2330
 -1      4406    3    0    2
 -2       864      2320       863      2330
 -1      4407    3    0    2
 -2      2254      1013      2352      1014
 -1      4408    3    0    2
 -2       309      2320      2329      2330
 -1      4409    3    0    2
 -2      2329      2330       916       309
 -1      4410    3    0    2
 -2       863       249       864      2330
 -1      4411    3    0    2
 -2       309      2320      2330       863
 -1      4412    3    0    2
 -2       309       249       863      2330
 -1      4413    3    0    1
 -2       280      1794      2015       873
 -1      4414    3    0    1
 -2      1853      2015      2099       873
 -1      4415    3    0    1
 -2      1988       551      2119      1564
 -1      4416    3    0    1
 -2      2015      1794      2099       873
 -1      4417    3    0    2
 -2      2493      2347      1059      2348
 -1      4418    3    0    2
 -2      2347       772      2493      2494
 -1      4419    3    0    1
 -2      2230       242      2291      2331
 -1      4420    3    0    1
 -2       242      1994      2291      2331
 -1      4421    3    0    2
 -2       677      1498      2494      1497
 -1      4422    3    0    1
 -2      1994       259      2291      2331
 -1      4423    3    0    1
 -2       260      2144      2420      1597
 -1      4424    3    0    2
 -2      2335       311      2828      1596
 -1      4425    3    0    1
 -2      1890       658      1948      3377
 -1      4426    3    0    1
 -2      2144       646      2711      1597
 -1      4427    3    0    1
 -2      1299      1237      3779      3897
 -1      4428    3    0    2
 -2      2373       896      2338       895
 -1      4429    3    0    1
 -2       644      1792      2210      2442
 -1      4430    3    0    2
 -2      2257      2256      2585      2589
 -1      4431    3    0    2
 -2       508      2377      2712      2713
 -1      4432    3    0    1
 -2      2336      2061      2608      1595
 -1      4433    3    0    2
 -2       508      2440      2712      1606
 -1      4434    3    0    2
 -2      2829       248      1603      1604
 -1      4435    3    0    2
 -2      1604      2335      1603      2829
 -1      4436    3    0    1
 -2      1424      1418      3061      3841
 -1      4437    3    0    1
 -2      3770        57      3634      3636
 -1      4438    3    0    1
 -2      3140      1476      3817      3820
 -1      4439    3    0    2
 -2      2339       364      2407      2408
 -1      4440    3    0    2
 -2       884      2361      2362      2367
 -1      4441    3    0    1
 -2      2034      1676      2340      2449
 -1      4442    3    0    2
 -2      2449      2320       864      2319
 -1      4443    3    0    2
 -2       364      2339      2340      2408
 -1      4444    3    0    2
 -2      3297      3295      3304      3306
 -1      4445    3    0    1
 -2      3115      2197      3689      3697
 -1      4446    3    0    1
 -2      1205       901      3694      3697
 -1      4447    3    0    2
 -2      2339       793      2449      1574
 -1      4448    3    0    1
 -2      3587      1655      3590      3921
 -1      4449    3    0    1
 -2      1756       427      1809      1011
 -1      4450    3    0    1
 -2       406      2522      2527      3895
 -1      4451    3    0    1
 -2      2586       401      1044      3804
 -1      4452    3    0    2
 -2      2343      2344      3078      3082
 -1      4453    3    0    2
 -2      2600      3119       244      2601
 -1      4454    3    0    1
 -2       105       948      3100      3686
 -1      4455    3    0    2
 -2      2349      2784      1071      2350
 -1      4456    3    0    1
 -2      3334      3322      3738      3777
 -1      4457    3    0    2
 -2       532       564      3312      3313
 -1      4458    3    0    1
 -2      2192       662      1513      1588
 -1      4459    3    0    1
 -2      3163       405      3760      3881
 -1      4460    3    0    2
 -2      3296      3294      3303      3305
 -1      4461    3    0    2
 -2       726      1502      3297      3303
 -1      4462    3    0    1
 -2      1490       405      3171      3881
 -1      4463    3    0    2
 -2      3065      3069      3075      3079
 -1      4464    3    0    1
 -2       688      1391      3006      3196
 -1      4465    3    0    1
 -2      1973      2346      3149      1608
 -1      4466    3    0    1
 -2      1997      1952      2875      3086
 -1      4467    3    0    2
 -2      2344       555      2534      2535
 -1      4468    3    0    1
 -2      3295      3298      3309      3705
 -1      4469    3    0    2
 -2      3014      3012      3024      3025
 -1      4470    3    0    2
 -2       656      1190      2611      1189
 -1      4471    3    0    1
 -2      2016      2393       925      3117
 -1      4472    3    0    2
 -2       876      2309       875      3038
 -1      4473    3    0    2
 -2       183      2499       991      2502
 -1      4474    3    0    1
 -2      3297      3295      3306      3705
 -1      4475    3    0    1
 -2      3150      2057      3768      3854
 -1      4476    3    0    2
 -2       421       730      3409      1637
 -1      4477    3    0    1
 -2      1812      2046       915      3574
 -1      4478    3    0    2
 -2      2381       768      2382      1613
 -1      4479    3    0    2
 -2      2347      2494      1059      1060
 -1      4480    3    0    2
 -2      2978       666      1607      1608
 -1      4481    3    0    1
 -2      2434      2209      3388      3495
 -1      4482    3    0    2
 -2      2826      2825       919       372
 -1      4483    3    0    1
 -2      1749      2192      2221      1513
 -1      4484    3    0    1
 -2      2346       283      3149      1608
 -1      4485    3    0    2
 -2       283      2346      1607      1608
 -1      4486    3    0    2
 -2      2345      2459       283      2460
 -1      4487    3    0    1
 -2       649      1282      2984      3702
 -1      4488    3    0    2
 -2      2341       566      2784      2785
 -1      4489    3    0    2
 -2      1469      3141      2613      1470
 -1      4490    3    0    2
 -2      2353       763      1309      1310
 -1      4491    3    0    1
 -2      3087      3910      1778      3558
 -1      4492    3    0    2
 -2       921      1008      2528      1007
 -1      4493    3    0    2
 -2       271      2328      3116      3117
 -1      4494    3    0    1
 -2       661      2079      1065      2612
 -1      4495    3    0    2
 -2      2825      2826      1211       372
 -1      4496    3    0    2
 -2      2313      2825      1211      2314
 -1      4497    3    0    2
 -2      3240      3238      3245      3254
 -1      4498    3    0    1
 -2      1613      3119      1811       244
 -1      4499    3    0    1
 -2       880       177      2959      3329
 -1      4500    3    0    2
 -2      2784      2785      1071       532
 -1      4501    3    0    1
 -2      3460        53      3510      3846
 -1      4502    3    0    2
 -2       177       880      2959      2970
 -1      4503    3    0    2
 -2       943       944      2961      2963
 -1      4504    3    0    2
 -2      2958      2956      2964      2968
 -1      4505    3    0    1
 -2       869       112      2838      3902
 -1      4506    3    0    1
 -2       424      3105      3107      3706
 -1      4507    3    0    1
 -2      3101      3094      3688      3706
 -1      4508    3    0    1
 -2       418      2163      2199      3333
 -1      4509    3    0    2
 -2       432      1014      2352      1013
 -1      4510    3    0    2
 -2      2325       818      2352      1388
 -1      4511    3    0    2
 -2      2352      2325      1582      2351
 -1      4512    3    0    2
 -2      2307       700      1571      2308
 -1      4513    3    0    2
 -2      2325       818      2351      2352
 -1      4514    3    0    1
 -2      2784       546      1588      3708
 -1      4515    3    0    1
 -2      1803      1724      2137      3331
 -1      4516    3    0    1
 -2       246      2162      2202      1312
 -1      4517    3    0    2
 -2      2353      2321      1311      2354
 -1      4518    3    0    1
 -2      2162       635      2209      2354
 -1      4519    3    0    1
 -2      2209       635      2227      2354
 -1      4520    3    0    2
 -2      2353      2354      1311       758
 -1      4521    3    0    1
 -2      1828      2114      2205      3576
 -1      4522    3    0    1
 -2      2415       921      2529      3762
 -1      4523    3    0    1
 -2      1778       163      1976       883
 -1      4524    3    0    1
 -2      3836      1267      3850      3916
 -1      4525    3    0    1
 -2      2895      2886      3786      3896
 -1      4526    3    0    1
 -2      1807      2089      2912      3330
 -1      4527    3    0    1
 -2      1803      1664      1870      3337
 -1      4528    3    0    1
 -2      2204      2194      2222      2355
 -1      4529    3    0    2
 -2      2337      2338      2369      2372
 -1      4530    3    0    2
 -2       881      2361      2362      2365
 -1      4531    3    0    2
 -2       881       894      2365       882
 -1      4532    3    0    1
 -2      2955      2357      1561       628
 -1      4533    3    0    1
 -2      2356       628      2357      2955
 -1      4534    3    0    2
 -2       884       883      2359      2361
 -1      4535    3    0    2
 -2      2426      2396      1359      2397
 -1      4536    3    0    2
 -2      2397      2396      2941      2946
 -1      4537    3    0    2
 -2      2356       619      1203      2358
 -1      4538    3    0    1
 -2       276      2015      1011      2935
 -1      4539    3    0    2
 -2      2297      2296      1011      2935
 -1      4540    3    0    2
 -2      2360      2359      2364      2366
 -1      4541    3    0    2
 -2       892       556       610      3009
 -1      4542    3    0    2
 -2      3009      3010      1338       609
 -1      4543    3    0    2
 -2      2359       884      2361      2362
 -1      4544    3    0    2
 -2       894       893      2365      2371
 -1      4545    3    0    2
 -2      3010      3009       895       609
 -1      4546    3    0    2
 -2      2359      2360      2363      2366
 -1      4547    3    0    1
 -2      1744      1929      3339      3341
 -1      4548    3    0    1
 -2      1291       695      3775      3663
 -1      4549    3    0    2
 -2      2361      2359      2362      2365
 -1      4550    3    0    1
 -2      2106       286      1331      3523
 -1      4551    3    0    2
 -2      2359       668       803      2360
 -1      4552    3    0    2
 -2       881       888       882      2362
 -1      4553    3    0    1
 -2        52      1299      3779      3897
 -1      4554    3    0    2
 -2        71       886       885      2371
 -1      4555    3    0    2
 -2      2364       889      2366      2368
 -1      4556    3    0    1
 -2      2360      3008      3340      3707
 -1      4557    3    0    2
 -2       668       803      2360      2363
 -1      4558    3    0    2
 -2       556       892       891      3009
 -1      4559    3    0    2
 -2      2338      2337       891      2372
 -1      4560    3    0    1
 -2      1655       707      3921      3925
 -1      4561    3    0    1
 -2      1148      2737      2740      3703
 -1      4562    3    0    2
 -2       803      2359      2360      2363
 -1      4563    3    0    2
 -2      2361       668      2359      2360
 -1      4564    3    0    2
 -2       885       886      2368      2371
 -1      4565    3    0    2
 -2      2335      2336      2608      1595
 -1      4566    3    0    2
 -2      2364      2360      2366      2370
 -1      4567    3    0    1
 -2      3339       896      3341      3867
 -1      4568    3    0    1
 -2      2515      2522      3753      3895
 -1      4569    3    0    1
 -2      2350      1071      3327      3708
 -1      4570    3    0    2
 -2       889      2364       890      2368
 -1      4571    3    0    1
 -2       656       423      2065      1447
 -1      4572    3    0    1
 -2      2350      1065      2784      3708
 -1      4573    3    0    2
 -2       892       891      2337      2372
 -1      4574    3    0    2
 -2      2338       556       891      3009
 -1      4575    3    0    2
 -2       881       888      2362       887
 -1      4576    3    0    1
 -2      2065      2011      1071      1447
 -1      4577    3    0    1
 -2       546      1065      3327      3708
 -1      4578    3    0    2
 -2      3014      3011      3018      3024
 -1      4579    3    0    1
 -2      1144      2735      2737      3703
 -1      4580    3    0    2
 -2       882       881      2362      2365
 -1      4581    3    0    1
 -2      1481        43      3763      3613
 -1      4582    3    0    2
 -2      2337      2338      2363      2369
 -1      4583    3    0    2
 -2      2360       668      2363      2369
 -1      4584    3    0    2
 -2       892       803      2369      2372
 -1      4585    3    0    1
 -2      1071      2011      3327      3708
 -1      4586    3    0    1
 -2      1155      3128      3140      3820
 -1      4587    3    0    1
 -2      3223       967      3788      3832
 -1      4588    3    0    2
 -2       894        71       893      2371
 -1      4589    3    0    1
 -2      2342      2784      1588      3708
 -1      4590    3    0    1
 -2      1929        71      3339      3867
 -1      4591    3    0    2
 -2      2364       889       890      2366
 -1      4592    3    0    2
 -2      2365      2361      2368      2371
 -1      4593    3    0    2
 -2      2364       885      2368      2371
 -1      4594    3    0    1
 -2      1071      2784       532      3708
 -1      4595    3    0    2
 -2       893       881      2365      2371
 -1      4596    3    0    2
 -2       890      2364      2366      2370
 -1      4597    3    0    2
 -2      1609      2378       802      1610
 -1      4598    3    0    1
 -2      2735      2700      2737      3703
 -1      4599    3    0    1
 -2       640      2195      2377      1609
 -1      4600    3    0    2
 -2       390      1338      1337      3010
 -1      4601    3    0    2
 -2       888      2362       887      2367
 -1      4602    3    0    2
 -2       884       163       883      2367
 -1      4603    3    0    2
 -2       163       888       887      2367
 -1      4604    3    0    2
 -2       165       884      2362      2367
 -1      4605    3    0    2
 -2       163       884       165      2367
 -1      4606    3    0    2
 -2       165      2362       888      2367
 -1      4607    3    0    2
 -2       888       163       165      2367
 -1      4608    3    0    2
 -2      2364       885       890      2368
 -1      4609    3    0    2
 -2       885       886       889      2368
 -1      4610    3    0    2
 -2       885       889       890      2368
 -1      4611    3    0    2
 -2      2285       438      3316      1557
 -1      4612    3    0    2
 -2      2225      2530      1430      2226
 -1      4613    3    0    2
 -2      2363      2337      2369      2372
 -1      4614    3    0    1
 -2       668      1774       891      2369
 -1      4615    3    0    2
 -2       803      2363      2369      2372
 -1      4616    3    0    2
 -2       668       803      2363      2369
 -1      4617    3    0    2
 -2       892       668       891      2369
 -1      4618    3    0    2
 -2       891       892      2337      3009
 -1      4619    3    0    2
 -2       668       892       803      2369
 -1      4620    3    0    2
 -2       889       890      2366      2370
 -1      4621    3    0    1
 -2      1942       508      2377      1609
 -1      4622    3    0    2
 -2       896       437      2373      2374
 -1      4623    3    0    2
 -2      2370      2360      2373      2374
 -1      4624    3    0    2
 -2       889       437       890      2370
 -1      4625    3    0    2
 -2       807       889      2366      2370
 -1      4626    3    0    2
 -2       807       437       889      2370
 -1      4627    3    0    2
 -2      2360      2338      2363      2374
 -1      4628    3    0    2
 -2       886      2365      2368      2371
 -1      4629    3    0    2
 -2       886       160      2365      2371
 -1      4630    3    0    2
 -2       886        71       160      2371
 -1      4631    3    0    2
 -2      2365       160       894      2371
 -1      4632    3    0    2
 -2        71       894       160      2371
 -1      4633    3    0    1
 -2      3910      1778      3581      3268
 -1      4634    3    0    2
 -2      2480       686      2484      2486
 -1      4635    3    0    2
 -2       797       438      1557      3316
 -1      4636    3    0    1
 -2      2225      1337      3010      3344
 -1      4637    3    0    1
 -2      2850      2847      3732      3837
 -1      4638    3    0    1
 -2      2361      2364      2371      3707
 -1      4639    3    0    1
 -2      1774      2369      3008      3340
 -1      4640    3    0    1
 -2      2369      2360      3008      3340
 -1      4641    3    0    2
 -2       437      2370      2373      2374
 -1      4642    3    0    2
 -2      2285      3315      1557      3316
 -1      4643    3    0    2
 -2       437       807       895      2373
 -1      4644    3    0    2
 -2       437       895       896      2373
 -1      4645    3    0    2
 -2      2363      2338      2373      2374
 -1      4646    3    0    2
 -2      2360      2363      2373      2374
 -1      4647    3    0    2
 -2      2373       895      2338      2337
 -1      4648    3    0    2
 -2      2712      2377      1231      2713
 -1      4649    3    0    2
 -2      1230      3316      2376      1229
 -1      4650    3    0    2
 -2       631      1314       767      2752
 -1      4651    3    0    2
 -2       311      2375      2828      1230
 -1      4652    3    0    2
 -2      1074      3256      1553      1554
 -1      4653    3    0    1
 -2      2056      2976      2141       258
 -1      4654    3    0    2
 -2      2375       311      2828      2829
 -1      4655    3    0    2
 -2      2828      2375       905      2376
 -1      4656    3    0    2
 -2      2878      2879      2886      2887
 -1      4657    3    0    2
 -2      2343      3075      1443      1444
 -1      4658    3    0    2
 -2       740      2379      2695      2696
 -1      4659    3    0    1
 -2       639      1942      2440      2608
 -1      4660    3    0    1
 -2       898      3047      1419      3709
 -1      4661    3    0    1
 -2      3418      3755      3480      3824
 -1      4662    3    0    1
 -2      3234       277      3429      3562
 -1      4663    3    0    2
 -2      2231       393      3195      3196
 -1      4664    3    0    2
 -2      2379       740      2695      1516
 -1      4665    3    0    2
 -2      2613       497      2747      1470
 -1      4666    3    0    1
 -2       130       924      3470      3796
 -1      4667    3    0    2
 -2      2404      1228      2403      2704
 -1      4668    3    0    2
 -2      3120      3119      1613       244
 -1      4669    3    0    1
 -2      1612      2695       627      2069
 -1      4670    3    0    1
 -2      2179      1927      3317      3573
 -1      4671    3    0    1
 -2      3162      3154      3163      3760
 -1      4672    3    0    2
 -2       304      2600      3119      3120
 -1      4673    3    0    1
 -2       692      2144      2420      1119
 -1      4674    3    0    1
 -2      2484      2476      2486      3748
 -1      4675    3    0    2
 -2       745      2851      2858      1255
 -1      4676    3    0    1
 -2      1952      2875      3086      3345
 -1      4677    3    0    1
 -2      1517       702      3429      3562
 -1      4678    3    0    2
 -2      2627      2628      2633      2636
 -1      4679    3    0    1
 -2      3272      3002      3282      3346
 -1      4680    3    0    1
 -2      2847      2849      2853      3710
 -1      4681    3    0    1
 -2      2592      2596      3700      3821
 -1      4682    3    0    1
 -2      2410      1944      3751      3791
 -1      4683    3    0    2
 -2      3041      3042      3048      3049
 -1      4684    3    0    2
 -2      2847      2846      2849      2857
 -1      4685    3    0    2
 -2      3044      3041      3042      3045
 -1      4686    3    0    2
 -2       898       897      3044      1411
 -1      4687    3    0    2
 -2      3043      3050      3059      3061
 -1      4688    3    0    2
 -2      2647      2266      2649      2651
 -1      4689    3    0    2
 -2       659      3046      3052      1421
 -1      4690    3    0    1
 -2      3274      3710      3732      3837
 -1      4691    3    0    2
 -2       683       755      2630      1081
 -1      4692    3    0    2
 -2       755      2629      2630      1081
 -1      4693    3    0    1
 -2      2190      3281      1579      3537
 -1      4694    3    0    1
 -2      1179      1247      3784      3884
 -1      4695    3    0    2
 -2      2847      2384      2851      2857
 -1      4696    3    0    2
 -2       866       837       838      2385
 -1      4697    3    0    2
 -2       837       866       865      2385
 -1      4698    3    0    2
 -2       865       837      2385      2386
 -1      4699    3    0    2
 -2       640       866       802      2385
 -1      4700    3    0    2
 -2       866       640       865      2385
 -1      4701    3    0    1
 -2      2112       438      1229      3316
 -1      4702    3    0    1
 -2       670      2081      2195      2386
 -1      4703    3    0    2
 -2       901       670      2385      2386
 -1      4704    3    0    2
 -2       640       865      2385      2386
 -1      4705    3    0    2
 -2       670       902      2385       798
 -1      4706    3    0    2
 -2       837       902       901        72
 -1      4707    3    0    1
 -2       670      2195      2377      2386
 -1      4708    3    0    1
 -2      2195       640      2377      2386
 -1      4709    3    0    2
 -2       902       837      2385       838
 -1      4710    3    0    2
 -2        72       902       159       838
 -1      4711    3    0    1
 -2      2195      2081       837      2386
 -1      4712    3    0    1
 -2       837      2081       901      2386
 -1      4713    3    0    2
 -2      1511      3352      3354      1615
 -1      4714    3    0    2
 -2      2453      2387       941       942
 -1      4715    3    0    1
 -2      2428      2106      2692      1539
 -1      4716    3    0    1
 -2       907      2561      2563      3712
 -1      4717    3    0    1
 -2      2046      2306       915      3746
 -1      4718    3    0    2
 -2      2298       400       903       904
 -1      4719    3    0    2
 -2       849      1015      1016      3204
 -1      4720    3    0    2
 -2       625      2264      2510      2511
 -1      4721    3    0    2
 -2      2387       941       674      2388
 -1      4722    3    0    1
 -2       399      1812       864      3370
 -1      4723    3    0    1
 -2       939      1825      2602      3393
 -1      4724    3    0    1
 -2      2274      2043       855      3393
 -1      4725    3    0    2
 -2      2452      2388      1623      1624
 -1      4726    3    0    2
 -2      2510       403       846       783
 -1      4727    3    0    1
 -2      2211       403       845      2511
 -1      4728    3    0    2
 -2       849      1509      3203      3204
 -1      4729    3    0    2
 -2      1015       849      3203      3204
 -1      4730    3    0    1
 -2      2564      2560      2568      3712
 -1      4731    3    0    1
 -2       907      2563      2573      3712
 -1      4732    3    0    1
 -2      2563      2564      2568      3712
 -1      4733    3    0    1
 -2      2653       414      2668      3873
 -1      4734    3    0    1
 -2      2016      2190      1579      3474
 -1      4735    3    0    1
 -2       381      2555      1638      3474
 -1      4736    3    0    1
 -2       706      3209      1520      3701
 -1      4737    3    0    1
 -2      3022      2623      3027      3695
 -1      4738    3    0    1
 -2      2097      3620      3921      3925
 -1      4739    3    0    2
 -2      2564      2560      2567      2568
 -1      4740    3    0    2
 -2      2376      1230      2828      2375
 -1      4741    3    0    2
 -2       374      1516      2461      1515
 -1      4742    3    0    1
 -2       698      1401      3022      3695
 -1      4743    3    0    2
 -2      3207      3210      3212      3223
 -1      4744    3    0    2
 -2      2870       388      1521      1522
 -1      4745    3    0    2
 -2      2559      2558      2562      2566
 -1      4746    3    0    2
 -2      2787       634      2792      2796
 -1      4747    3    0    2
 -2       624      2312      2573      2576
 -1      4748    3    0    1
 -2       668      1774      3008      3318
 -1      4749    3    0    2
 -2      2584      2581      2590      2591
 -1      4750    3    0    2
 -2       363       600      2560      1031
 -1      4751    3    0    2
 -2       931       932      2481      2482
 -1      4752    3    0    1
 -2       521      2138      3692      3845
 -1      4753    3    0    2
 -2       629      2391      2597      2598
 -1      4754    3    0    1
 -2       685      3744      3807      3840
 -1      4755    3    0    2
 -2       851       852      3156      1483
 -1      4756    3    0    1
 -2      2560       363      1032      3821
 -1      4757    3    0    1
 -2      2011      3427      3755      3824
 -1      4758    3    0    1
 -2       966      2584      3684      3747
 -1      4759    3    0    2
 -2      3116      2328      1583      3117
 -1      4760    3    0    1
 -2        72      2081       837      2395
 -1      4761    3    0    1
 -2      2393      2079       925      2612
 -1      4762    3    0    1
 -2      2079      2350      1065      2612
 -1      4763    3    0    1
 -2        47       142      3805      3825
 -1      4764    3    0    1
 -2      2130      2110      2200      2395
 -1      4765    3    0    2
 -2      1392      3196      2242      1391
 -1      4766    3    0    1
 -2      2079      2016      2174      2393
 -1      4767    3    0    1
 -2      2502      3735      3736      3738
 -1      4768    3    0    1
 -2      3091      1982      3778      3553
 -1      4769    3    0    1
 -2      3297      3296      3305      3705
 -1      4770    3    0    2
 -2      2345       815      2978      2979
 -1      4771    3    0    1
 -2      1556      2749       419      3261
 -1      4772    3    0    2
 -2      1190      2393      1189      3116
 -1      4773    3    0    1
 -2      1749       661      2079      1065
 -1      4774    3    0    1
 -2      1811       679      2193       910
 -1      4775    3    0    1
 -2      1811      2115      2391       910
 -1      4776    3    0    1
 -2      1141       529      3711      3458
 -1      4777    3    0    2
 -2      2476      2477      2479      2484
 -1      4778    3    0    2
 -2      2476       800       439      2479
 -1      4779    3    0    1
 -2      2110      2130      2206      2398
 -1      4780    3    0    1
 -2      2398      2110      3189      3431
 -1      4781    3    0    1
 -2      2013      1758      2035      3416
 -1      4782    3    0    1
 -2      2866      2121      3868      3912
 -1      4783    3    0    1
 -2      3801      1551      3647      3661
 -1      4784    3    0    2
 -2      2396      2427      1359      1360
 -1      4785    3    0    1
 -2      3114      2409      3686      3688
 -1      4786    3    0    2
 -2      2396      2397      1354      2947
 -1      4787    3    0    1
 -2      2081       837      2395      3552
 -1      4788    3    0    1
 -2      1681      1984      2122      3518
 -1      4789    3    0    1
 -2      2561      2559      2564      3712
 -1      4790    3    0    1
 -2      3268      1912      3581      3910
 -1      4791    3    0    1
 -2       249      1812      2046       915
 -1      4792    3    0    1
 -2       885      2371      3707      3726
 -1      4793    3    0    1
 -2        71       893      2371      3726
 -1      4794    3    0    1
 -2      1408      1404      3035      3876
 -1      4795    3    0    2
 -2      2738       575      2740      2743
 -1      4796    3    0    2
 -2      2698      2697      1149       713
 -1      4797    3    0    1
 -2       662      3298      3307      3705
 -1      4798    3    0    2
 -2       833      2721      1139      2728
 -1      4799    3    0    1
 -2      3709       182      3432      3781
 -1      4800    3    0    2
 -2       685      1164      1163      2756
 -1      4801    3    0    1
 -2      1501      3297      3306      3827
 -1      4802    3    0    2
 -2      2469      2404      1228      2403
 -1      4803    3    0    1
 -2      2111       632      2247      1228
 -1      4804    3    0    2
 -2      2443      2405      1535      1536
 -1      4805    3    0    2
 -2      2666       245      2670      2675
 -1      4806    3    0    2
 -2       364      2274      2275      2407
 -1      4807    3    0    2
 -2       772      2229      2493      2494
 -1      4808    3    0    1
 -2      1228      2469      3441       500
 -1      4809    3    0    1
 -2      2184       504       957      2753
 -1      4810    3    0    1
 -2       684      1730      1159      2753
 -1      4811    3    0    1
 -2       277      1966       859      3234
 -1      4812    3    0    1
 -2      1966      1749       859      3234
 -1      4813    3    0    2
 -2       601       364      2275      2407
 -1      4814    3    0    1
 -2       644      1792      2442      1628
 -1      4815    3    0    2
 -2       856      2274       855      2407
 -1      4816    3    0    2
 -2      2669      2666      2670      2675
 -1      4817    3    0    2
 -2      2416      2405      1628      2417
 -1      4818    3    0    1
 -2      1628      2416       520      1792
 -1      4819    3    0    1
 -2      2141       644      2188      1628
 -1      4820    3    0    1
 -2      1792      2141      2188      1628
 -1      4821    3    0    1
 -2      1792       644      2141      1628
 -1      4822    3    0    1
 -2      2016       271      2174      1189
 -1      4823    3    0    2
 -2       512       856       855      2407
 -1      4824    3    0    1
 -2       277      1966      3234      3429
 -1      4825    3    0    2
 -2      2710      2333       964      2711
 -1      4826    3    0    1
 -2       636      2208      1636      3764
 -1      4827    3    0    1
 -2       531      1888      3183      3767
 -1      4828    3    0    1
 -2      1367       531      3183      3767
 -1      4829    3    0    2
 -2      3098      3092      3101      3103
 -1      4830    3    0    1
 -2      3284      2811      3789      3790
 -1      4831    3    0    1
 -2      1888      1367      3179      3767
 -1      4832    3    0    1
 -2       541      1888      2783      3767
 -1      4833    3    0    2
 -2      1286      1285      2881      2883
 -1      4834    3    0    1
 -2      2061       248      2112      2828
 -1      4835    3    0    1
 -2       287      2061      2112      2828
 -1      4836    3    0    2
 -2       678      2806      2808      2809
 -1      4837    3    0    1
 -2      2806      2810      2813      3789
 -1      4838    3    0    1
 -2      2573      1033      3712      3871
 -1      4839    3    0    1
 -2      1017      2547      1026      3718
 -1      4840    3    0    2
 -2      2604      2603      2820      2823
 -1      4841    3    0    1
 -2      1670      2178      2825      3789
 -1      4842    3    0    1
 -2       136       913      3751      3792
 -1      4843    3    0    2
 -2      2825      2347       919      2348
 -1      4844    3    0    1
 -2      3496      1893      3654      3906
 -1      4845    3    0    2
 -2      2241       521      1392      2242
 -1      4846    3    0    2
 -2      2411      2241       521      2412
 -1      4847    3    0    2
 -2      2412      2411      2932      2933
 -1      4848    3    0    2
 -2      2411      2239      2932      2240
 -1      4849    3    0    1
 -2      2086       646      2144      1597
 -1      4850    3    0    1
 -2      2109      2110      2206      2413
 -1      4851    3    0    1
 -2      2206      2110      2398      2413
 -1      4852    3    0    1
 -2      1809       658      1263      3377
 -1      4853    3    0    1
 -2      3351       676      3361      3743
 -1      4854    3    0    1
 -2      2110      2395      3189      3431
 -1      4855    3    0    1
 -2      2619      2413      3430      3431
 -1      4856    3    0    1
 -2      2003      3087      3415      3575
 -1      4857    3    0    1
 -2      1064      1173      3693      3740
 -1      4858    3    0    1
 -2       957      2184      2997      3123
 -1      4859    3    0    2
 -2      2694      2697      1645      2693
 -1      4860    3    0    1
 -2      2306      2304      2330       915
 -1      4861    3    0    1
 -2       249      2306      2330       915
 -1      4862    3    0    2
 -2      2304       916      2330       915
 -1      4863    3    0    2
 -2       249       916       915      2330
 -1      4864    3    0    2
 -2       249       916      2330       309
 -1      4865    3    0    1
 -2      2034      2046      2306       915
 -1      4866    3    0    2
 -2      2311       398      2312      2571
 -1      4867    3    0    2
 -2       820      3288       705      2317
 -1      4868    3    0    2
 -2       820      3288       918       705
 -1      4869    3    0    2
 -2      3286      2264      1538      3287
 -1      4870    3    0    1
 -2      2162      2321      2354      1312
 -1      4871    3    0    2
 -2       497       591      2747      1469
 -1      4872    3    0    1
 -2      2211       371      1537      3287
 -1      4873    3    0    1
 -2       555       557      2091      1009
 -1      4874    3    0    2
 -2      2405       598      2416      1536
 -1      4875    3    0    1
 -2       407      2024      2188       919
 -1      4876    3    0    1
 -2       361      2161      1201      1223
 -1      4877    3    0    2
 -2      2416      2417      1628       520
 -1      4878    3    0    1
 -2      2115      2391      3457      3849
 -1      4879    3    0    1
 -2      2348      2024      2825      2178
 -1      4880    3    0    2
 -2      2418      1294      2895      2419
 -1      4881    3    0    1
 -2      1729      1675      2032      3381
 -1      4882    3    0    1
 -2      1729      2032      3270      3381
 -1      4883    3    0    1
 -2      1805      1810      3517      3583
 -1      4884    3    0    1
 -2      3067      1373      1432      3741
 -1      4885    3    0    2
 -2       857       175       858      3288
 -1      4886    3    0    1
 -2      1629       374      2461      3786
 -1      4887    3    0    2
 -2      2301      2300      2653      1307
 -1      4888    3    0    2
 -2      2879      2886      2892      2894
 -1      4889    3    0    1
 -2      2081      2197      3697      3584
 -1      4890    3    0    1
 -2       524      1181      3758      3912
 -1      4891    3    0    1
 -2      3405      2207      3812      3889
 -1      4892    3    0    2
 -2       694       752      2896      2897
 -1      4893    3    0    2
 -2      2462       378      1293      1294
 -1      4894    3    0    1
 -2       275      1948      2295      2777
 -1      4895    3    0    2
 -2      2231      1398      2290      2232
 -1      4896    3    0    2
 -2      2461      2418      1294      2462
 -1      4897    3    0    1
 -2       551      2716      3606      3923
 -1      4898    3    0    2
 -2      2422      2303      1270      2302
 -1      4899    3    0    2
 -2      2230      1500      2493      1499
 -1      4900    3    0    1
 -2       261      2187      2694      2871
 -1      4901    3    0    2
 -2       576      2302      2701      1182
 -1      4902    3    0    1
 -2       262      2144      1119      2877
 -1      4903    3    0    2
 -2      2711      2420      1597      1598
 -1      4904    3    0    2
 -2      2422      2423      1250       712
 -1      4905    3    0    2
 -2       625      1538       674      2265
 -1      4906    3    0    1
 -2      3289       428      1346      3290
 -1      4907    3    0    1
 -2       109      2213      2409      3686
 -1      4908    3    0    1
 -2      2079      2016      2393       925
 -1      4909    3    0    1
 -2       948      1457      3099      3686
 -1      4910    3    0    1
 -2      2211       625      2264      1537
 -1      4911    3    0    1
 -2       688      2138      1391      1537
 -1      4912    3    0    1
 -2      1819      3856      3655      3681
 -1      4913    3    0    2
 -2      2451      2469      1111      2450
 -1      4914    3    0    2
 -2      2537      2536      2540      2546
 -1      4915    3    0    1
 -2      2002      1947      2009      3420
 -1      4916    3    0    1
 -2      1987       665      2131       929
 -1      4917    3    0    1
 -2      3516      3618      3648      3926
 -1      4918    3    0    2
 -2       994      2424       993      2507
 -1      4919    3    0    2
 -2      2424      2780      1513      1514
 -1      4920    3    0    1
 -2      2380      2069      2461      1515
 -1      4921    3    0    2
 -2      3068      3065      3074      3081
 -1      4922    3    0    2
 -2      2498      2425      2501      2505
 -1      4923    3    0    2
 -2      2254      2352       929      2351
 -1      4924    3    0    2
 -2      2351      2352       929       665
 -1      4925    3    0    2
 -2       665       930       929      2351
 -1      4926    3    0    1
 -2      2357       426      1339      2955
 -1      4927    3    0    2
 -2      2379      2380      2461      1515
 -1      4928    3    0    1
 -2      1756       275      1809      1565
 -1      4929    3    0    2
 -2       665       930      2351       816
 -1      4930    3    0    1
 -2      1672      1828      3576      3665
 -1      4931    3    0    2
 -2       782       644      2442      1627
 -1      4932    3    0    1
 -2      1523       861      3788      3901
 -1      4933    3    0    2
 -2      2426      2356       619      2427
 -1      4934    3    0    1
 -2       698      1401      3695      3908
 -1      4935    3    0    1
 -2      3704      1902      3803      3870
 -1      4936    3    0    2
 -2      2356      2954      1340      2358
 -1      4937    3    0    2
 -2      2478      2476      2481      2486
 -1      4938    3    0    1
 -2      1235      3275      3742      2135
 -1      4939    3    0    2
 -2      2476      2478      2481      2482
 -1      4940    3    0    1
 -2      2551      1023      2553      3685
 -1      4941    3    0    1
 -2       380      2467      2472      3859
 -1      4942    3    0    2
 -2       800       974       973      2476
 -1      4943    3    0    2
 -2      2691      2428      1540      2429
 -1      4944    3    0    2
 -2      2692      2428      1539      1540
 -1      4945    3    0    2
 -2       387       614      3600      1659
 -1      4946    3    0    1
 -2      2782       650      3035      3876
 -1      4947    3    0    2
 -2      2400       387      2715      2716
 -1      4948    3    0    1
 -2      3172      3266      3722      3877
 -1      4949    3    0    1
 -2      3399      3569      3672      3920
 -1      4950    3    0    1
 -2      2467      3259      3859      3907
 -1      4951    3    0    1
 -2      1888       654      1992      1053
 -1      4952    3    0    1
 -2      2310      3015      3024      3756
 -1      4953    3    0    1
 -2      1541      2449       399      2034
 -1      4954    3    0    1
 -2      3032      2310      3035      3756
 -1      4955    3    0    2
 -2       435      1540      2692      1539
 -1      4956    3    0    1
 -2       664      1853       873      2432
 -1      4957    3    0    2
 -2      2600      2751      1313      2601
 -1      4958    3    0    2
 -2      2715       387       614      3600
 -1      4959    3    0    1
 -2      1766      1804      3421      3655
 -1      4960    3    0    2
 -2      2297      2296       873      2432
 -1      4961    3    0    2
 -2       427      2296      2297      2432
 -1      4962    3    0    2
 -2      3065      3068      3071      3081
 -1      4963    3    0    2
 -2      1437      1438      1441      3082
 -1      4964    3    0    1
 -2      2036      3200      3443      3892
 -1      4965    3    0    2
 -2      3183      2307       541      2308
 -1      4966    3    0    2
 -2       379      1276      2779       563
 -1      4967    3    0    2
 -2       873       664      2432      2433
 -1      4968    3    0    2
 -2       664       874       821      2433
 -1      4969    3    0    2
 -2       874       664       873      2433
 -1      4970    3    0    2
 -2      2981      1113      2986      2988
 -1      4971    3    0    2
 -2      2541      2538      2544      2548
 -1      4972    3    0    2
 -2      2231      1398      2232      3195
 -1      4973    3    0    1
 -2      2310      3037      3756      3883
 -1      4974    3    0    2
 -2      2350      1066      2784      1065
 -1      4975    3    0    1
 -2      2060      3823      3555      3886
 -1      4976    3    0    2
 -2      1373      1374      3071      3081
 -1      4977    3    0    2
 -2      2435      2434      2790      2797
 -1      4978    3    0    1
 -2      1360       429      3808      3836
 -1      4979    3    0    1
 -2       436      1986      2436       937
 -1      4980    3    0    2
 -2       319      2294      2777      2778
 -1      4981    3    0    1
 -2      1629       411      3759      3786
 -1      4982    3    0    2
 -2      2795       761      2798      2801
 -1      4983    3    0    2
 -2      2787      2795      2798      2801
 -1      4984    3    0    2
 -2      2434      2435      2801      1468
 -1      4985    3    0    2
 -2      2382      3119      1613      3120
 -1      4986    3    0    2
 -2       634       762      2790      2797
 -1      4987    3    0    2
 -2      2323      2554      2555      2556
 -1      4988    3    0    2
 -2      2324      2538      2542      2551
 -1      4989    3    0    1
 -2      2209      2227      2606      1061
 -1      4990    3    0    1
 -2      2656      1097      2658      3724
 -1      4991    3    0    2
 -2      2536      2537      2543      2546
 -1      4992    3    0    2
 -2      1454       736      3105      3108
 -1      4993    3    0    2
 -2      2457      2428      1332      2429
 -1      4994    3    0    1
 -2      1986       284      2436       937
 -1      4995    3    0    1
 -2      1235      2922      3691      3723
 -1      4996    3    0    1
 -2      1838      2027      3549      3853
 -1      4997    3    0    1
 -2      3691       689      3692      3723
 -1      4998    3    0    2
 -2      2531      2436      1127      1128
 -1      4999    3    0    2
 -2      2428       284      2457      2458
 -1      5000    3    0    2
 -2       103      1455      3098      3099
 -1      5001    3    0    2
 -2      2455      2438       981      2439
 -1      5002    3    0    2
 -2      2294       700      1567       831
 -1      5003    3    0    1
 -2      1804       705      1971      1129
 -1      5004    3    0    1
 -2       549      1971      2272      1129
 -1      5005    3    0    2
 -2      2530      2225      1430      2531
 -1      5006    3    0    1
 -2      2227      2209      2354      1061
 -1      5007    3    0    2
 -2      2455       392       977       978
 -1      5008    3    0    2
 -2       557      1602      2713      1601
 -1      5009    3    0    2
 -2      2477      2479      2484      2490
 -1      5010    3    0    1
 -2      3734      3868      3629      3912
 -1      5011    3    0    2
 -2      2456      2284      1335      1336
 -1      5012    3    0    1
 -2      1756      1809      2014      3377
 -1      5013    3    0    2
 -2       979       931      2481      2489
 -1      5014    3    0    1
 -2      2608      1604       639      2061
 -1      5015    3    0    2
 -2      2440       508      2712      2713
 -1      5016    3    0    2
 -2      2235       427      2236      1507
 -1      5017    3    0    2
 -2      2444       583      3390      1635
 -1      5018    3    0    2
 -2      3390      2445      1635      1636
 -1      5019    3    0    1
 -2       859       277      3234      3562
 -1      5020    3    0    2
 -2      2440       639      2607      1606
 -1      5021    3    0    2
 -2      2712      2440      1605      1606
 -1      5022    3    0    2
 -2      2677      1101      2681      2684
 -1      5023    3    0    1
 -2      2210      1792      2406      2442
 -1      5024    3    0    2
 -2      2440      2441      2712      1605
 -1      5025    3    0    2
 -2      2442      2443      1535       404
 -1      5026    3    0    2
 -2      2442      2405      1535      2443
 -1      5027    3    0    2
 -2       307      2233      2452       954
 -1      5028    3    0    1
 -2       887       163      2367      3745
 -1      5029    3    0    2
 -2      2320      2448       864       863
 -1      5030    3    0    2
 -2      2446      2245      1058      2447
 -1      5031    3    0    2
 -2      2245      2704      1395      1396
 -1      5032    3    0    1
 -2      2184       636      2208      1636
 -1      5033    3    0    2
 -2      2448      2339      1541      1542
 -1      5034    3    0    2
 -2      2450      2451      2469      1168
 -1      5035    3    0    2
 -2      2404      2704      1159      2703
 -1      5036    3    0    2
 -2      2260       583      3390      3391
 -1      5037    3    0    2
 -2      3390      2260       526      2261
 -1      5038    3    0    2
 -2      3390      2444      1108      3391
 -1      5039    3    0    1
 -2       636      2184      2753      1636
 -1      5040    3    0    2
 -2      2266      2267      2677      2684
 -1      5041    3    0    1
 -2       901      2081      3697      3584
 -1      5042    3    0    2
 -2      2446      2447      1058       301
 -1      5043    3    0    2
 -2      2404       584      2469      2470
 -1      5044    3    0    1
 -2      2210      2056      2234      2452
 -1      5045    3    0    2
 -2      2254      2352      2351      1014
 -1      5046    3    0    2
 -2       864      2448      2449       399
 -1      5047    3    0    2
 -2       399       789       863      2448
 -1      5048    3    0    2
 -2       399       863       864      2448
 -1      5049    3    0    2
 -2      2320      2329      1333      1334
 -1      5050    3    0    2
 -2       793      2320      2449      1334
 -1      5051    3    0    2
 -2      2339       793      2448      2449
 -1      5052    3    0    2
 -2       793      2320      2448      2449
 -1      5053    3    0    2
 -2      2469      2470      1111       500
 -1      5054    3    0    1
 -2       252      2056      2210      2452
 -1      5055    3    0    1
 -2      1812       641       905      3370
 -1      5056    3    0    1
 -2      2056       258      2234      2452
 -1      5057    3    0    1
 -2      1909       283      3125      3402
 -1      5058    3    0    2
 -2      2603      2809      2814      2816
 -1      5059    3    0    2
 -2      2274       940       400       939
 -1      5060    3    0    2
 -2      2451       584      2469      1168
 -1      5061    3    0    2
 -2      1064      2758      2759      2761
 -1      5062    3    0    2
 -2       734       699      2983      1377
 -1      5063    3    0    2
 -2      1063      1064      2759      2761
 -1      5064    3    0    2
 -2      2452      2233       258      2234
 -1      5065    3    0    1
 -2      1335      2455      3376      2285
 -1      5066    3    0    1
 -2      2141       258      2976      1506
 -1      5067    3    0    1
 -2       677      2048      2178      1059
 -1      5068    3    0    2
 -2       364       940       601      2275
 -1      5069    3    0    1
 -2      2384      2847      2858      3732
 -1      5070    3    0    1
 -2      3200      3721      3530      3892
 -1      5071    3    0    1
 -2      1924      3423      3425      3744
 -1      5072    3    0    1
 -2      2361      3707      3726      3745
 -1      5073    3    0    1
 -2      3716      1946      3488      3786
 -1      5074    3    0    1
 -2       881       887      2367      3745
 -1      5075    3    0    2
 -2       400       940      2275       792
 -1      5076    3    0    1
 -2       625      2056      2388       941
 -1      5077    3    0    1
 -2      1059      2493      2348      2178
 -1      5078    3    0    2
 -2       919       920      2347      2826
 -1      5079    3    0    1
 -2      3396      3381      3397      3740
 -1      5080    3    0    1
 -2      1328      1321      3691      3692
 -1      5081    3    0    2
 -2       258       942       308      2453
 -1      5082    3    0    1
 -2       932      3715      3769      3906
 -1      5083    3    0    1
 -2      1721      1693      1781      2454
 -1      5084    3    0    2
 -2       931       980      2481       932
 -1      5085    3    0    1
 -2      1782      1693      2012      2454
 -1      5086    3    0    1
 -2      1721      1782      2012      2454
 -1      5087    3    0    1
 -2      1693      1721      2012      2454
 -1      5088    3    0    2
 -2       644       782      2442      1505
 -1      5089    3    0    1
 -2      1910      1729      2032      3270
 -1      5090    3    0    1
 -2      2395       837      3267      3865
 -1      5091    3    0    1
 -2      2109      2413      2998      3486
 -1      5092    3    0    1
 -2       374      1629      3451      3786
 -1      5093    3    0    1
 -2      3465      2052      3487      3559
 -1      5094    3    0    1
 -2      2091       708      2106      1009
 -1      5095    3    0    1
 -2       389      2534      3085      3823
 -1      5096    3    0    2
 -2      2477       800      2479      2485
 -1      5097    3    0    2
 -2      2514       999      2518      2525
 -1      5098    3    0    2
 -2       570       382      2688      1447
 -1      5099    3    0    1
 -2       526      2261      1301      3765
 -1      5100    3    0    1
 -2      2151      2159      2276      3198
 -1      5101    3    0    1
 -2      3742      1622      3743      3437
 -1      5102    3    0    2
 -2      2455      2284      1335      2456
 -1      5103    3    0    1
 -2       639      2046      2061      3574
 -1      5104    3    0    1
 -2       697      1135      3197      3478
 -1      5105    3    0    2
 -2      1115      1116      3104      3106
 -1      5106    3    0    1
 -2      2613      3129      3144      3776
 -1      5107    3    0    1
 -2       840      2471      3113      3725
 -1      5108    3    0    1
 -2       526      2203      3462      3765
 -1      5109    3    0    2
 -2      2600       244      3120      1641
 -1      5110    3    0    1
 -2      3050      1424      3061      3841
 -1      5111    3    0    2
 -2       781      3157      3161      1487
 -1      5112    3    0    1
 -2      3875      2039      3882      3923
 -1      5113    3    0    1
 -2       378      2126      3546      3914
 -1      5114    3    0    2
 -2      1121      1258      2863      1257
 -1      5115    3    0    2
 -2       950       949      2852      2856
 -1      5116    3    0    1
 -2      2004      2031      2036      1271
 -1      5117    3    0    2
 -2      2695      2252       627      2253
 -1      5118    3    0    2
 -2      2695      2696      1612       627
 -1      5119    3    0    1
 -2       412      2069      2187       951
 -1      5120    3    0    1
 -2      2187      2069      2253       951
 -1      5121    3    0    2
 -2       938      2436      2437      2457
 -1      5122    3    0    1
 -2      3698       649      3702      3814
 -1      5123    3    0    2
 -2      2436       938       937      2457
 -1      5124    3    0    2
 -2       284      2436       937      2457
 -1      5125    3    0    2
 -2       284       938       313      2457
 -1      5126    3    0    2
 -2       938       284       937      2457
 -1      5127    3    0    1
 -2      1986       284      2106      2458
 -1      5128    3    0    1
 -2      2106       284      2428      2458
 -1      5129    3    0    2
 -2      2457      2458      1128       314
 -1      5130    3    0    1
 -2       981      2455      3783       509
 -1      5131    3    0    1
 -2      1959      2615      3712      3872
 -1      5132    3    0    1
 -2      1909      3125      3389      3402
 -1      5133    3    0    1
 -2      3125      1974      3389      3402
 -1      5134    3    0    2
 -2       283      1388      2460      1387
 -1      5135    3    0    2
 -2      2459      2460      1387       283
 -1      5136    3    0    2
 -2      2459      2325      1387      2460
 -1      5137    3    0    2
 -2       673       404      2443       953
 -1      5138    3    0    2
 -2      2233      2442       953      2443
 -1      5139    3    0    2
 -2      2443      2442       953       404
 -1      5140    3    0    2
 -2      2233      2234      2452       953
 -1      5141    3    0    1
 -2      2234      2210      2452       953
 -1      5142    3    0    1
 -2      2210       252      2452       953
 -1      5143    3    0    2
 -2       252       307      2452       953
 -1      5144    3    0    1
 -2      3434        33      3549      3853
 -1      5145    3    0    1
 -2      3334      3333      3735      3736
 -1      5146    3    0    2
 -2      2461      2379      1612      2380
 -1      5147    3    0    1
 -2      1187      3183      3767      2466
 -1      5148    3    0    1
 -2      2084      2276      3470      3796
 -1      5149    3    0    1
 -2      2069       378      2126      1612
 -1      5150    3    0    2
 -2      2532      2610      1271      1272
 -1      5151    3    0    2
 -2      2381      2382      1225      3119
 -1      5152    3    0    1
 -2      2218       241      1313      3119
 -1      5153    3    0    1
 -2      1235       394      2922      3723
 -1      5154    3    0    1
 -2       632      2111      2247      3328
 -1      5155    3    0    1
 -2      1082       899      3795      3578
 -1      5156    3    0    2
 -2      3016      2623      3017      3022
 -1      5157    3    0    1
 -2       522      1807      2912      3519
 -1      5158    3    0    2
 -2      2463      2622      2623      3027
 -1      5159    3    0    2
 -2      2628      2627      2629      2638
 -1      5160    3    0    2
 -2       304       241      1225      3119
 -1      5161    3    0    1
 -2      1110      1108      3456      3766
 -1      5162    3    0    2
 -2      2901       757      2905      2906
 -1      5163    3    0    1
 -2       668       883      3318      3745
 -1      5164    3    0    2
 -2      2241      2411       521      2242
 -1      5165    3    0    1
 -2      1083        36      3854      3879
 -1      5166    3    0    1
 -2      1320       394      1620      3742
 -1      5167    3    0    2
 -2      2780      2779      1513       545
 -1      5168    3    0    2
 -2       701       827      3242      3247
 -1      5169    3    0    1
 -2      2059      3699      3721      3841
 -1      5170    3    0    1
 -2      3005      3710      3725      3759
 -1      5171    3    0    1
 -2       541      1888      2308      1572
 -1      5172    3    0    1
 -2      1840      3346      3626      3627
 -1      5173    3    0    2
 -2      2956      2964      2957      2971
 -1      5174    3    0    2
 -2      2966      2958      2967      2972
 -1      5175    3    0    2
 -2      3183      2465      1187      3184
 -1      5176    3    0    2
 -2      2938      2940      2942      2948
 -1      5177    3    0    2
 -2      2285       641      1335      3315
 -1      5178    3    0    2
 -2      2345      2346      2978      1607
 -1      5179    3    0    1
 -2      1235       394      3723      3742
 -1      5180    3    0    2
 -2      1336       641       801      3315
 -1      5181    3    0    2
 -2      2427      2426      1359       619
 -1      5182    3    0    1
 -2      3812      3809      3610      3889
 -1      5183    3    0    1
 -2      2191      1731      3231      3233
 -1      5184    3    0    1
 -2       506      2753      3425      3744
 -1      5185    3    0    1
 -2      3231      1479      3280      3428
 -1      5186    3    0    1
 -2      3686      3100      3099       948
 -1      5187    3    0    1
 -2      1007      3762      3845      3895
 -1      5188    3    0    1
 -2      2498      2496      2504      3735
 -1      5189    3    0    1
 -2       395       635      2196      3406
 -1      5190    3    0    1
 -2      3100       105      3686      3688
 -1      5191    3    0    2
 -2      2938      2940      2943      2944
 -1      5192    3    0    1
 -2       995      3380      3753      3905
 -1      5193    3    0    2
 -2       959      1358       960      2944
 -1      5194    3    0    1
 -2      3099      3094      3100      3688
 -1      5195    3    0    2
 -2      1351      2944      1357      2949
 -1      5196    3    0    2
 -2      3237      3239      3244      3252
 -1      5197    3    0    2
 -2      2887       411      2888      2890
 -1      5198    3    0    2
 -2      2940      2938      2943      2948
 -1      5199    3    0    1
 -2      2186       266      2995      1625
 -1      5200    3    0    1
 -2      2210       404      1535      3491
 -1      5201    3    0    2
 -2      3409       421      1637      1638
 -1      5202    3    0    1
 -2      3781      3283      3412      2107
 -1      5203    3    0    2
 -2      2467       380      2472      2473
 -1      5204    3    0    1
 -2        59      3191      3403      3773
 -1      5205    3    0    2
 -2       962       961      3240      3244
 -1      5206    3    0    1
 -2      1960      2031      1132      3408
 -1      5207    3    0    2
 -2       730      2474      3409      1637
 -1      5208    3    0    1
 -2      1195      2794      2798      3682
 -1      5209    3    0    1
 -2      1463       424      3706      3755
 -1      5210    3    0    2
 -2      2280      1556      1555       380
 -1      5211    3    0    2
 -2      3240       961       830      3244
 -1      5212    3    0    2
 -2      3250       962      1547      1548
 -1      5213    3    0    2
 -2       815      2345      2978      1607
 -1      5214    3    0    1
 -2      1804      3621      3888      3675
 -1      5215    3    0    1
 -2      2788      2787      2798      3682
 -1      5216    3    0    1
 -2      1020       936      3345      3731
 -1      5217    3    0    2
 -2      2341      2784      3312      2785
 -1      5218    3    0    2
 -2       608       389      2534      3084
 -1      5219    3    0    2
 -2      1586      2474      1585      3410
 -1      5220    3    0    2
 -2       730      2327      3409      3410
 -1      5221    3    0    1
 -2        33      1394      3138      3757
 -1      5222    3    0    1
 -2      2075       381      2096      1638
 -1      5223    3    0    2
 -2      2474       730      3409      3410
 -1      5224    3    0    1
 -2       422      2541      2548      3729
 -1      5225    3    0    2
 -2      2580       397      2582      2585
 -1      5226    3    0    2
 -2      1042      1041      2593      1049
 -1      5227    3    0    2
 -2      2580      2582      2583      2585
 -1      5228    3    0    1
 -2       970      2547      3696      3718
 -1      5229    3    0    2
 -2      2580       401      2583      2587
 -1      5230    3    0    2
 -2      1037      1038      2589      2592
 -1      5231    3    0    2
 -2      2257      2578      2579      2583
 -1      5232    3    0    2
 -2      2414      2415       995      3286
 -1      5233    3    0    2
 -2       847       848      2588      2593
 -1      5234    3    0    2
 -2       861       862      3211      3216
 -1      5235    3    0    2
 -2      2477      2476      2478      2480
 -1      5236    3    0    2
 -2      2537      2541      2543      2546
 -1      5237    3    0    2
 -2       706      3209      1519      1520
 -1      5238    3    0    2
 -2       191       857       917      3288
 -1      5239    3    0    1
 -2      2247      2245      2704      1395
 -1      5240    3    0    1
 -2      1909      3125      3228      1539
 -1      5241    3    0    2
 -2      2541       731      2544      2546
 -1      5242    3    0    2
 -2       969      2540      2547      1025
 -1      5243    3    0    2
 -2       319      2625      2777      1643
 -1      5244    3    0    1
 -2      1806       156      1893       972
 -1      5245    3    0    1
 -2      3275      3742      3743      3437
 -1      5246    3    0    1
 -2      1394      3130      3138      3757
 -1      5247    3    0    2
 -2       158       976       190      2482
 -1      5248    3    0    2
 -2       974       973      2476      2483
 -1      5249    3    0    1
 -2      1758      1806      1893       972
 -1      5250    3    0    2
 -2       686      2480      2484      2487
 -1      5251    3    0    2
 -2       800       439      2479      2485
 -1      5252    3    0    1
 -2      2555      2324      2556      3730
 -1      5253    3    0    2
 -2      2813      1220      2817      2819
 -1      5254    3    0    2
 -2       800      2476      2477      2479
 -1      5255    3    0    2
 -2       796       981      2490       686
 -1      5256    3    0    1
 -2      1909       435      2106      1539
 -1      5257    3    0    2
 -2       800       974      2476       439
 -1      5258    3    0    2
 -2       972       686      2480      2486
 -1      5259    3    0    2
 -2      2438      2439      2455       977
 -1      5260    3    0    2
 -2      2438      2490       981      2439
 -1      5261    3    0    1
 -2      2384      2858      2863      3732
 -1      5262    3    0    1
 -2      1981       106      3515      3846
 -1      5263    3    0    2
 -2      2439      2438      2485      2488
 -1      5264    3    0    1
 -2      2434      2606      1467      3388
 -1      5265    3    0    2
 -2       932       158       190      2482
 -1      5266    3    0    2
 -2       977       978      2485      2488
 -1      5267    3    0    1
 -2      2849      1117      2860      3710
 -1      5268    3    0    2
 -2       686       971       972      2480
 -1      5269    3    0    2
 -2       686       796       971      2480
 -1      5270    3    0    2
 -2      2480      2477      2484      2487
 -1      5271    3    0    2
 -2      2805      2804      3367      3368
 -1      5272    3    0    1
 -2       283      3149      1608      3402
 -1      5273    3    0    1
 -2       936      1020      3696      3731
 -1      5274    3    0    2
 -2       158       932       931      2482
 -1      5275    3    0    1
 -2      1620      1372      3742      3771
 -1      5276    3    0    2
 -2      2477      2476      2480      2484
 -1      5277    3    0    2
 -2      2476      2478      2482      2483
 -1      5278    3    0    2
 -2      2750      2749      1644       419
 -1      5279    3    0    2
 -2       931       158      2482      2483
 -1      5280    3    0    2
 -2      2482       158       975      2483
 -1      5281    3    0    2
 -2       976      2482       975      2483
 -1      5282    3    0    2
 -2       974      2482       976      2483
 -1      5283    3    0    2
 -2       973       974       975      2483
 -1      5284    3    0    2
 -2       975       974       976      2483
 -1      5285    3    0    2
 -2       439      2479      2485      2488
 -1      5286    3    0    1
 -2      1097      3683      3724      3734
 -1      5287    3    0    1
 -2      1493      3275      3743      3437
 -1      5288    3    0    2
 -2      2438      2439       977      2488
 -1      5289    3    0    2
 -2       978       439      2485      2488
 -1      5290    3    0    1
 -2      2859       410      3710      3732
 -1      5291    3    0    2
 -2       439       800       977      2485
 -1      5292    3    0    2
 -2      2439      2455       977       978
 -1      5293    3    0    1
 -2      3174      3118      3484      3854
 -1      5294    3    0    1
 -2      1254      2849      2859      3710
 -1      5295    3    0    1
 -2      2324      2551      2553      3685
 -1      5296    3    0    1
 -2      1664      1859      2050      3492
 -1      5297    3    0    2
 -2      2490       982      2438       981
 -1      5298    3    0    1
 -2      1223       361      3379      3838
 -1      5299    3    0    2
 -2      2476      2480      2484      2486
 -1      5300    3    0    2
 -2      2476      2478      2480      2486
 -1      5301    3    0    1
 -2      1897        43      1934      3448
 -1      5302    3    0    1
 -2       899      1087      3848      3578
 -1      5303    3    0    2
 -2       971       972      2480      2486
 -1      5304    3    0    1
 -2      2106       435      2692      1539
 -1      5305    3    0    2
 -2       382      2620      2688      1447
 -1      5306    3    0    2
 -2       982       796      2490      2491
 -1      5307    3    0    2
 -2      2487      2477      2490      2491
 -1      5308    3    0    2
 -2      2438       977      2485      2488
 -1      5309    3    0    2
 -2      2480       971      2486      2489
 -1      5310    3    0    2
 -2      2481      2478      2486      2489
 -1      5311    3    0    2
 -2      2478      2480      2486      2489
 -1      5312    3    0    2
 -2       980       979      2481      2489
 -1      5313    3    0    2
 -2       972      2481      2486      2489
 -1      5314    3    0    2
 -2       971       972      2486      2489
 -1      5315    3    0    2
 -2       972       156      2481      2489
 -1      5316    3    0    2
 -2      2481       156       980      2489
 -1      5317    3    0    2
 -2       157       972       971      2489
 -1      5318    3    0    2
 -2       980       157       979      2489
 -1      5319    3    0    2
 -2       972       157       156      2489
 -1      5320    3    0    2
 -2       157       980       156      2489
 -1      5321    3    0    2
 -2      2438      2455       981      2456
 -1      5322    3    0    2
 -2      2456      2455       981       509
 -1      5323    3    0    2
 -2       796      2487      2490      2491
 -1      5324    3    0    2
 -2       509       982       981      2456
 -1      5325    3    0    2
 -2      2484       686      2487      2490
 -1      5326    3    0    1
 -2      2555       381      3729      3730
 -1      5327    3    0    1
 -2       547      2555      2556      3730
 -1      5328    3    0    2
 -2       509       982      2456       606
 -1      5329    3    0    2
 -2       796       981       982      2490
 -1      5330    3    0    2
 -2      2477      2438      2479      2491
 -1      5331    3    0    2
 -2      2479      2438      2490      2491
 -1      5332    3    0    2
 -2      2477      2479      2490      2491
 -1      5333    3    0    1
 -2      2146      2219      2222      2492
 -1      5334    3    0    1
 -2      1535       367      3411      3491
 -1      5335    3    0    1
 -2       415      1078      2662      3683
 -1      5336    3    0    1
 -2       186        70      1290      3725
 -1      5337    3    0    1
 -2       262      1927      2996      3573
 -1      5338    3    0    1
 -2      1759      1777      1907      3408
 -1      5339    3    0    2
 -2       729       662      3298      3307
 -1      5340    3    0    1
 -2      2658       415      2662      3683
 -1      5341    3    0    1
 -2      3239      3241      3248      3704
 -1      5342    3    0    1
 -2       180      3737      3543      3661
 -1      5343    3    0    2
 -2       920       919      2347      2493
 -1      5344    3    0    2
 -2      2694      2693      2871      1625
 -1      5345    3    0    1
 -2      2178      2024      2331      2493
 -1      5346    3    0    2
 -2      2347       772       920      2493
 -1      5347    3    0    2
 -2       407       920       772      2493
 -1      5348    3    0    2
 -2       920       407       919      2493
 -1      5349    3    0    1
 -2       697      2719      2725      3778
 -1      5350    3    0    2
 -2      2495       418      2496      2498
 -1      5351    3    0    2
 -2      2964      2958      2967      2971
 -1      5352    3    0    2
 -2       418       986      2495       985
 -1      5353    3    0    2
 -2      3311      1451      3312      3313
 -1      5354    3    0    2
 -2      2495       418       985      2496
 -1      5355    3    0    1
 -2      2492      3736      3334      3738
 -1      5356    3    0    1
 -2        54       985      3372      3736
 -1      5357    3    0    1
 -2      3293      2175      3489      3884
 -1      5358    3    0    2
 -2      2342      3311      3312      3313
 -1      5359    3    0    1
 -2      2500      2502      3735      3736
 -1      5360    3    0    1
 -2       418       653      2163       993
 -1      5361    3    0    1
 -2      3239       878      3257      3704
 -1      5362    3    0    1
 -2      2069       374      2461      1515
 -1      5363    3    0    2
 -2      2495      2496      2497      2499
 -1      5364    3    0    2
 -2       817      3595       431      3596
 -1      5365    3    0    1
 -2      1543       878      3250      3737
 -1      5366    3    0    1
 -2      2158      2204      2355      3335
 -1      5367    3    0    2
 -2       724       418      2501      2505
 -1      5368    3    0    1
 -2      2194      2492      3326      3736
 -1      5369    3    0    2
 -2      2503       716      2504      2506
 -1      5370    3    0    2
 -2       716       988      2504      2506
 -1      5371    3    0    1
 -2      1864       696      2694      1625
 -1      5372    3    0    2
 -2      2424      2501      2505      2507
 -1      5373    3    0    1
 -2      2204      2158      2223      3335
 -1      5374    3    0    2
 -2       724       418      2495      2501
 -1      5375    3    0    2
 -2        94       987       988      2499
 -1      5376    3    0    2
 -2      2499        94       991       992
 -1      5377    3    0    2
 -2        94       183       987      2499
 -1      5378    3    0    2
 -2      2495       418      2498      2501
 -1      5379    3    0    1
 -2      3710      2471      3725      3768
 -1      5380    3    0    1
 -2      3238      3240      3248      3704
 -1      5381    3    0    2
 -2       985      2495      2496      2500
 -1      5382    3    0    2
 -2      2496      2495      2497      2500
 -1      5383    3    0    2
 -2       844      2497       989      2500
 -1      5384    3    0    2
 -2       986      2495       985      2500
 -1      5385    3    0    2
 -2       989      2497       990      2500
 -1      5386    3    0    2
 -2       716       703      2498      2503
 -1      5387    3    0    2
 -2      2424      2498      2501      2503
 -1      5388    3    0    2
 -2      2425      2424      2505      2507
 -1      5389    3    0    2
 -2      2495       986      2497      2500
 -1      5390    3    0    2
 -2        54       986       985      2500
 -1      5391    3    0    2
 -2       990        54       989      2500
 -1      5392    3    0    2
 -2       986        91      2497      2500
 -1      5393    3    0    2
 -2       986        54        91      2500
 -1      5394    3    0    2
 -2      2497        91       990      2500
 -1      5395    3    0    2
 -2        54       990        91      2500
 -1      5396    3    0    2
 -2       724       994      2505      2507
 -1      5397    3    0    2
 -2      2425      2424      2501      2505
 -1      5398    3    0    1
 -2      3292      2038      3293      3489
 -1      5399    3    0    2
 -2      2496      2495      2504      2506
 -1      5400    3    0    1
 -2       921      2415      3287      3762
 -1      5401    3    0    1
 -2      2196      1575      3328      3406
 -1      5402    3    0    1
 -2      2425      2498      1513      3419
 -1      5403    3    0    1
 -2       177        54      3372      3736
 -1      5404    3    0    2
 -2      2497      2496      2500      2502
 -1      5405    3    0    2
 -2      2496      2497      2499      2502
 -1      5406    3    0    2
 -2       844      2497      2500      2502
 -1      5407    3    0    2
 -2       844       843      2497      2502
 -1      5408    3    0    2
 -2       991      2499       992      2502
 -1      5409    3    0    2
 -2       843       844       991      2502
 -1      5410    3    0    2
 -2      2497       843      2499      2502
 -1      5411    3    0    2
 -2       843       991       992      2502
 -1      5412    3    0    2
 -2      2499       843       992      2502
 -1      5413    3    0    2
 -2      2956      2958      2964      2971
 -1      5414    3    0    2
 -2      2495      2496      2499      2506
 -1      5415    3    0    1
 -2       844       989      3326      3736
 -1      5416    3    0    2
 -2       703      2498      2503      2504
 -1      5417    3    0    2
 -2       703       988       987      2504
 -1      5418    3    0    2
 -2       988       703       716      2504
 -1      5419    3    0    2
 -2      2501       724      2505      2507
 -1      5420    3    0    2
 -2       418       994       993      2505
 -1      5421    3    0    1
 -2      3600      2431      3604      3875
 -1      5422    3    0    2
 -2       994       418       724      2505
 -1      5423    3    0    2
 -2       988       987      2504      2506
 -1      5424    3    0    2
 -2       987       988      2499      2506
 -1      5425    3    0    2
 -2       987      2496      2504      2506
 -1      5426    3    0    2
 -2      2499      2496      2502      2506
 -1      5427    3    0    2
 -2       987      2499      2502      2506
 -1      5428    3    0    2
 -2      2496       987      2502      2506
 -1      5429    3    0    2
 -2      2424      2425       993      2507
 -1      5430    3    0    2
 -2       993      2425      2505      2507
 -1      5431    3    0    1
 -2      1808       439      3748      3769
 -1      5432    3    0    1
 -2      3756      3278      3876      3920
 -1      5433    3    0    1
 -2      1810      2157      2216      3618
 -1      5434    3    0    2
 -2      1632      3588      1653      1654
 -1      5435    3    0    1
 -2      3722      3266      3747      3877
 -1      5436    3    0    1
 -2        37       924      2794      3739
 -1      5437    3    0    1
 -2       924      2788      2794      3739
 -1      5438    3    0    1
 -2      1091      2646      1094      3868
 -1      5439    3    0    1
 -2       283      1909      3149      3402
 -1      5440    3    0    2
 -2       674       625      2265      2510
 -1      5441    3    0    1
 -2      3190      3728      3446      3859
 -1      5442    3    0    2
 -2      3593      2508      3594      3595
 -1      5443    3    0    1
 -2      3563      1902      3870      3669
 -1      5444    3    0    1
 -2      2794      2788      3682      3739
 -1      5445    3    0    1
 -2       700      1888      2308      2512
 -1      5446    3    0    1
 -2       654      1888      1948      2512
 -1      5447    3    0    2
 -2      2264      2510       846      2265
 -1      5448    3    0    2
 -2      2510      2264       846      2511
 -1      5449    3    0    2
 -2       403       846       845      2511
 -1      5450    3    0    2
 -2       403      2510       846      2511
 -1      5451    3    0    1
 -2      1009      2534      3823       555
 -1      5452    3    0    2
 -2       791       398      2311      2571
 -1      5453    3    0    1
 -2      2034       251      2306      1333
 -1      5454    3    0    2
 -2       700      2513      2307       831
 -1      5455    3    0    2
 -2       402       780      2515      2516
 -1      5456    3    0    2
 -2      2869      2390      2870      3227
 -1      5457    3    0    2
 -2      1076      1075      3016      3017
 -1      5458    3    0    2
 -2      2515       402      2516      2517
 -1      5459    3    0    2
 -2      2415       995      2517      2521
 -1      5460    3    0    2
 -2      2415       366      3286      3287
 -1      5461    3    0    1
 -2      2620       650      2782      3876
 -1      5462    3    0    2
 -2       689       777      2918      2919
 -1      5463    3    0    2
 -2       777       689      2917      2919
 -1      5464    3    0    2
 -2       402       780      2514      2515
 -1      5465    3    0    1
 -2      2032      1675      2080      3381
 -1      5466    3    0    2
 -2      2311      2565      2573      2576
 -1      5467    3    0    2
 -2       997       785      2522      2526
 -1      5468    3    0    2
 -2      2870      1013      2254      1014
 -1      5469    3    0    2
 -2       401      2580      2586      2587
 -1      5470    3    0    2
 -2      1035      1040      2578      1039
 -1      5471    3    0    2
 -2       398       791      2569      2571
 -1      5472    3    0    2
 -2      2527      2528      1007      2529
 -1      5473    3    0    2
 -2      2415      3286       922      3287
 -1      5474    3    0    1
 -2      1633      3875      3888      3675
 -1      5475    3    0    1
 -2       251      2134      2306      1333
 -1      5476    3    0    2
 -2      1001       945      2519      2523
 -1      5477    3    0    2
 -2      2519       997      2523      2526
 -1      5478    3    0    2
 -2       945      2518      2519      2523
 -1      5479    3    0    1
 -2      3694      3068      3697      3741
 -1      5480    3    0    2
 -2      2514      2518      2519      2520
 -1      5481    3    0    2
 -2       406      1008      1007      2527
 -1      5482    3    0    2
 -2      2436       938      2437      2530
 -1      5483    3    0    2
 -2       995       996      2517      2521
 -1      5484    3    0    1
 -2      2106       435      1067      2692
 -1      5485    3    0    2
 -2       996       402       995      2517
 -1      5486    3    0    2
 -2      2514      2518      2522      2526
 -1      5487    3    0    2
 -2       402       996       780      2517
 -1      5488    3    0    2
 -2      2518      2514      2519      2526
 -1      5489    3    0    1
 -2       875      2310      3024      3756
 -1      5490    3    0    2
 -2      2957      2956      2959      2961
 -1      5491    3    0    2
 -2       879      1364      2962      1363
 -1      5492    3    0    2
 -2       945      1002      1001      2519
 -1      5493    3    0    2
 -2       780      2516      2517      2521
 -1      5494    3    0    2
 -2       996       995      2414      2521
 -1      5495    3    0    2
 -2       996       780      2517      2521
 -1      5496    3    0    1
 -2      2620      2689      1559      3842
 -1      5497    3    0    2
 -2      2515      2516      2524      2528
 -1      5498    3    0    2
 -2      2514      2515      2516      2524
 -1      5499    3    0    2
 -2       938      2436       937      2530
 -1      5500    3    0    2
 -2      2515      2514      2522      2524
 -1      5501    3    0    1
 -2        36      1083      2641      3879
 -1      5502    3    0    2
 -2       945      1002      2519       946
 -1      5503    3    0    2
 -2      1003      1006        40      1005
 -1      5504    3    0    2
 -2      2522      2515      2524      2527
 -1      5505    3    0    1
 -2      2053       409      2169      3269
 -1      5506    3    0    1
 -2      3689      3115      3697      3741
 -1      5507    3    0    2
 -2      1000       999      2514      2525
 -1      5508    3    0    2
 -2      2415      2414       995      2521
 -1      5509    3    0    2
 -2      2514      2518      2520      2525
 -1      5510    3    0    2
 -2       945      1006      2520      1005
 -1      5511    3    0    1
 -2      3272      1020      3345      3731
 -1      5512    3    0    2
 -2      2522       785      2524      2526
 -1      5513    3    0    2
 -2       785       406      2522      2527
 -1      5514    3    0    1
 -2      2109      2110      2413      3431
 -1      5515    3    0    2
 -2       945      1006       946      2520
 -1      5516    3    0    1
 -2      2016       271      2328      1579
 -1      5517    3    0    2
 -2      2528       921      1007      2529
 -1      5518    3    0    2
 -2       997       406       998      2522
 -1      5519    3    0    2
 -2       785       406       997      2522
 -1      5520    3    0    1
 -2      2106       708      2316      1009
 -1      5521    3    0    1
 -2      3421      3611      3675      3681
 -1      5522    3    0    2
 -2      1002      1001      2519      2523
 -1      5523    3    0    2
 -2       142       997       998      2523
 -1      5524    3    0    2
 -2      1002       142      1001      2523
 -1      5525    3    0    2
 -2       997       145      2519      2523
 -1      5526    3    0    2
 -2       142       145       997      2523
 -1      5527    3    0    2
 -2      2519       145      1002      2523
 -1      5528    3    0    2
 -2       142      1002       145      2523
 -1      5529    3    0    2
 -2      2515      2524      2527      2528
 -1      5530    3    0    2
 -2       785      2527      2528      1008
 -1      5531    3    0    2
 -2      2514      2522      2524      2526
 -1      5532    3    0    2
 -2      2520      1003      1004      2525
 -1      5533    3    0    2
 -2      1003      2520      1005      2525
 -1      5534    3    0    2
 -2      1003      1006      1004        40
 -1      5535    3    0    2
 -2      1006      1003      2520      1005
 -1      5536    3    0    2
 -2        40      1006      1004       146
 -1      5537    3    0    2
 -2       999      1004      1003      2525
 -1      5538    3    0    2
 -2      1000      2514      2520      2525
 -1      5539    3    0    2
 -2      1000      2520      1004      2525
 -1      5540    3    0    2
 -2      1004       999      1000      2525
 -1      5541    3    0    2
 -2      2518      2519      2523      2526
 -1      5542    3    0    2
 -2      2522      2518      2523      2526
 -1      5543    3    0    2
 -2       998      2522      2523      2526
 -1      5544    3    0    2
 -2       997       998      2523      2526
 -1      5545    3    0    2
 -2       998       997      2522      2526
 -1      5546    3    0    2
 -2       921      1008       922      2528
 -1      5547    3    0    1
 -2      2053       260      1249      3398
 -1      5548    3    0    2
 -2       406      1008      2527       785
 -1      5549    3    0    2
 -2      2436       436       937      2530
 -1      5550    3    0    2
 -2       521      2411      2412      2933
 -1      5551    3    0    1
 -2      1756       276      2015      1011
 -1      5552    3    0    2
 -2      3127      3128      3132      3135
 -1      5553    3    0    2
 -2      2415       921      2528      2529
 -1      5554    3    0    2
 -2      2527      2515      2528      2529
 -1      5555    3    0    2
 -2      2515      2516      2528      2529
 -1      5556    3    0    2
 -2      2516      2515      2517      2529
 -1      5557    3    0    2
 -2      2414      2415      2528      2529
 -1      5558    3    0    1
 -2      1674      1805      3517      3583
 -1      5559    3    0    1
 -2      3067      3066      3074      3741
 -1      5560    3    0    2
 -2      2516      2517      2521      2529
 -1      5561    3    0    2
 -2      2517      2415      2521      2529
 -1      5562    3    0    2
 -2      2415      2414      2521      2529
 -1      5563    3    0    2
 -2      2516      2414      2528      2529
 -1      5564    3    0    2
 -2      2414      2516      2521      2529
 -1      5565    3    0    2
 -2       938       436       804      2530
 -1      5566    3    0    2
 -2       436       938       937      2530
 -1      5567    3    0    2
 -2      2530      2531      1430       808
 -1      5568    3    0    1
 -2       555      2091      2197      1009
 -1      5569    3    0    2
 -2      2935      2936      1561       280
 -1      5570    3    0    2
 -2      2335      2607      1604      1603
 -1      5571    3    0    1
 -2      2060      2106      2316      1009
 -1      5572    3    0    1
 -2      2060       555      2197      1009
 -1      5573    3    0    1
 -2      2091      2106      2197      1009
 -1      5574    3    0    2
 -2       427      1012      1011      2296
 -1      5575    3    0    1
 -2      2338       896      2374      3819
 -1      5576    3    0    1
 -2      2106      2060      2197      1009
 -1      5577    3    0    1
 -2       660       661      1749      1065
 -1      5578    3    0    1
 -2      1889      1967      2937      3504
 -1      5579    3    0    1
 -2      2450      1111      2770      3752
 -1      5580    3    0    1
 -2       544      1995      2532      1273
 -1      5581    3    0    1
 -2      1992      2163      1053      1275
 -1      5582    3    0    2
 -2      2532      2754      1273      1274
 -1      5583    3    0    1
 -2       551      1193      3918      3923
 -1      5584    3    0    2
 -2      2534      2315      1009      2316
 -1      5585    3    0    2
 -2      1010      2315      1009      2535
 -1      5586    3    0    2
 -2      2535      2534      1009       555
 -1      5587    3    0    2
 -2      2315      2534      1009      2535
 -1      5588    3    0    2
 -2      1010       555       611      2535
 -1      5589    3    0    2
 -2       555      1010      1009      2535
 -1      5590    3    0    1
 -2       427      1853      2297      1011
 -1      5591    3    0    2
 -2       317      2293      2935      2936
 -1      5592    3    0    1
 -2      1853       427      2014      1011
 -1      5593    3    0    1
 -2      2014      1756      2015      1011
 -1      5594    3    0    2
 -2       427      1012      2296       811
 -1      5595    3    0    1
 -2      1305      1303      2910      3780
 -1      5596    3    0    1
 -2      1853      2014      2015      1011
 -1      5597    3    0    1
 -2       523      2279      2776      3784
 -1      5598    3    0    2
 -2       432      1014       818      2352
 -1      5599    3    0    1
 -2      1711      1807      2090      3519
 -1      5600    3    0    1
 -2       163       883      2367      3745
 -1      5601    3    0    1
 -2      1387       432      3149      3229
 -1      5602    3    0    1
 -2      2787      2434      2801      3682
 -1      5603    3    0    1
 -2      2106      2060      1067      3229
 -1      5604    3    0    2
 -2       850       849      1016      3204
 -1      5605    3    0    2
 -2      2298      1015      3203      3204
 -1      5606    3    0    2
 -2       642      1016      1015      2298
 -1      5607    3    0    1
 -2      1879      1894      2043      1015
 -1      5608    3    0    2
 -2       152       150       849      1015
 -1      5609    3    0    2
 -2       969       422       970      2541
 -1      5610    3    0    2
 -2       928       927      2540      2545
 -1      5611    3    0    2
 -2       642      1016      2298       788
 -1      5612    3    0    1
 -2      2089      1711      2912      3330
 -1      5613    3    0    1
 -2      1644      2749      3261       419
 -1      5614    3    0    2
 -2      1021      2537      2550      2545
 -1      5615    3    0    1
 -2      2106      2060      2316      1067
 -1      5616    3    0    2
 -2      2323      2324      2553      2554
 -1      5617    3    0    1
 -2      3701      3285      3788      3852
 -1      5618    3    0    2
 -2      2541      2536      2543      2546
 -1      5619    3    0    2
 -2       936      2539      2549      2550
 -1      5620    3    0    1
 -2      1749       545      1513      3419
 -1      5621    3    0    2
 -2      2538      2536      2539      2543
 -1      5622    3    0    1
 -2      3778      1137      3515      3839
 -1      5623    3    0    2
 -2       970       969      2541      2546
 -1      5624    3    0    2
 -2       725      1020      2539      1019
 -1      5625    3    0    2
 -2      3012      2309      3015      3025
 -1      5626    3    0    2
 -2       184      1017      1025      1026
 -1      5627    3    0    2
 -2      2538      2324      2544      2548
 -1      5628    3    0    2
 -2       731       422       969      2541
 -1      5629    3    0    2
 -2       704       725      2539      2542
 -1      5630    3    0    2
 -2       725      2542      2551      2552
 -1      5631    3    0    1
 -2      1774      1986      1429      3344
 -1      5632    3    0    1
 -2      3426      1959      3580      3872
 -1      5633    3    0    2
 -2      2541      2538      2543      2544
 -1      5634    3    0    2
 -2      2536      2541      2543      2544
 -1      5635    3    0    2
 -2      2538      2536      2543      2544
 -1      5636    3    0    2
 -2      2621      2620      2781      1447
 -1      5637    3    0    2
 -2       731      2541      2544      2548
 -1      5638    3    0    2
 -2      2324      2323      2542      2544
 -1      5639    3    0    2
 -2      2538      2324      2542      2544
 -1      5640    3    0    2
 -2      2324      2323      2555      2556
 -1      5641    3    0    1
 -2       532       382      2011      3427
 -1      5642    3    0    2
 -2      2537       928      2540      2545
 -1      5643    3    0    2
 -2       927       928      2540      2547
 -1      5644    3    0    2
 -2      2782      3037      3038      3039
 -1      5645    3    0    2
 -2      2540      2537      2546      2547
 -1      5646    3    0    2
 -2      2540      1018      2547      1025
 -1      5647    3    0    2
 -2       970       969      2546      2547
 -1      5648    3    0    2
 -2       731       422      2541      2548
 -1      5649    3    0    2
 -2      1024      2552      2553      2554
 -1      5650    3    0    1
 -2      1856       381      2075      1578
 -1      5651    3    0    2
 -2       725      1020       704      2539
 -1      5652    3    0    2
 -2       935       936      2549      2550
 -1      5653    3    0    2
 -2      2537      2545      2549      2550
 -1      5654    3    0    1
 -2      1948       658      1565      3377
 -1      5655    3    0    2
 -2      1178      3132      3133      3140
 -1      5656    3    0    2
 -2        95       184      1017      1025
 -1      5657    3    0    2
 -2        95      1017      1018      1025
 -1      5658    3    0    1
 -2      1535      2442       404      2210
 -1      5659    3    0    2
 -2      1451      1452      3311      3312
 -1      5660    3    0    2
 -2       928      1022       927      2545
 -1      5661    3    0    1
 -2      3057      2618      3062      3810
 -1      5662    3    0    2
 -2       928      1022      2545      1021
 -1      5663    3    0    1
 -2      1078      2662      3683      3879
 -1      5664    3    0    1
 -2      3696      2624      3375      3718
 -1      5665    3    0    2
 -2       928       927      1017      2547
 -1      5666    3    0    2
 -2      1017      2547      1025      1026
 -1      5667    3    0    2
 -2      1017       927      1018      2547
 -1      5668    3    0    2
 -2       927      2540      1018      2547
 -1      5669    3    0    1
 -2      1952      2624      3002      3731
 -1      5670    3    0    1
 -2      1888       654      1948      3003
 -1      5671    3    0    2
 -2      2323      2324      2554      2556
 -1      5672    3    0    1
 -2      1992       841      1133      3003
 -1      5673    3    0    2
 -2      2539      2536      2537      2543
 -1      5674    3    0    2
 -2      2536      2537      2545      2549
 -1      5675    3    0    2
 -2      2536      2539      2537      2549
 -1      5676    3    0    2
 -2      1019      2539       936      1020
 -1      5677    3    0    2
 -2       970       969      2547      1025
 -1      5678    3    0    2
 -2      1018      1017      2547      1025
 -1      5679    3    0    2
 -2      2539      1019       936      2549
 -1      5680    3    0    2
 -2      2549      1019       936       935
 -1      5681    3    0    2
 -2      1021        98      1022      2550
 -1      5682    3    0    2
 -2       935      2545      1022      2550
 -1      5683    3    0    2
 -2      2545       935      2549      2550
 -1      5684    3    0    2
 -2        98       935      1022      2550
 -1      5685    3    0    2
 -2        98       936       935      2550
 -1      5686    3    0    2
 -2        99        98      1021      2550
 -1      5687    3    0    2
 -2       936        98        99      2550
 -1      5688    3    0    2
 -2      2323      2324      2542      2551
 -1      5689    3    0    2
 -2       704       725      2542      2551
 -1      5690    3    0    1
 -2       251      2134      3401      3426
 -1      5691    3    0    2
 -2      1024       704      1023      2551
 -1      5692    3    0    2
 -2      2561      2558      2564      2566
 -1      5693    3    0    2
 -2       704      1024       725      2551
 -1      5694    3    0    2
 -2      1023      1024      2552      2553
 -1      5695    3    0    2
 -2      2552      2323      2553      2554
 -1      5696    3    0    2
 -2      2324      2551      2552      2553
 -1      5697    3    0    2
 -2      2323      2324      2552      2553
 -1      5698    3    0    2
 -2      2474       547      2475      2555
 -1      5699    3    0    2
 -2      2554      2323      2555      2557
 -1      5700    3    0    2
 -2      1023      1024      2553      2554
 -1      5701    3    0    2
 -2      2324      2553      2554      2556
 -1      5702    3    0    1
 -2      2192       546      3327      3708
 -1      5703    3    0    1
 -2      1948       654      1133      3003
 -1      5704    3    0    1
 -2      1117        70      2860      3710
 -1      5705    3    0    1
 -2       651      3048      3049      3721
 -1      5706    3    0    2
 -2      2553      1023      2554      1027
 -1      5707    3    0    1
 -2       268      1948      1133      3003
 -1      5708    3    0    2
 -2      2474       565      2555      2557
 -1      5709    3    0    1
 -2       544      1428      3810      3880
 -1      5710    3    0    1
 -2      3392       252      3401      3426
 -1      5711    3    0    1
 -2       896      1988      3339      3341
 -1      5712    3    0    2
 -2      2558      2561      2564      2565
 -1      5713    3    0    2
 -2      2555      2474      1637      2475
 -1      5714    3    0    1
 -2      2656      2658      3683      3724
 -1      5715    3    0    2
 -2      2554      2553      1027      2556
 -1      5716    3    0    2
 -2      1028      2554      1027      2556
 -1      5717    3    0    2
 -2       565       547      2555      2556
 -1      5718    3    0    2
 -2      1267      1532      1268      3225
 -1      5719    3    0    2
 -2       547      1028      1027      2556
 -1      5720    3    0    2
 -2       565      2554      1028      2556
 -1      5721    3    0    2
 -2      1028       547       565      2556
 -1      5722    3    0    2
 -2      2555      2554       565      2556
 -1      5723    3    0    2
 -2      2554      2555       565      2557
 -1      5724    3    0    2
 -2      2555       567      1637      2557
 -1      5725    3    0    1
 -2      3388       681      3795      3578
 -1      5726    3    0    1
 -2      2916       394      1320      3723
 -1      5727    3    0    1
 -2      1778      1741      1985      3318
 -1      5728    3    0    2
 -2      1030      2567      2568      2569
 -1      5729    3    0    1
 -2       671      2091      1331      1595
 -1      5730    3    0    2
 -2       365       603      2561      2566
 -1      5731    3    0    2
 -2      2568      1029      2569      2571
 -1      5732    3    0    2
 -2      2312      2311      2565      2573
 -1      5733    3    0    2
 -2       847       848      2593      1045
 -1      5734    3    0    1
 -2      3047       853      1416      3709
 -1      5735    3    0    1
 -2      2798      2787      2801      3682
 -1      5736    3    0    1
 -2       180      3737      3798      3543
 -1      5737    3    0    1
 -2       658      1890      1263      3377
 -1      5738    3    0    2
 -2      2316      1068      1067      2534
 -1      5739    3    0    1
 -2      2563      2571      3712      3746
 -1      5740    3    0    1
 -2      2069       412      2187      3269
 -1      5741    3    0    2
 -2      2311      2312      2563      2569
 -1      5742    3    0    2
 -2      2312      2311      2573      2576
 -1      5743    3    0    1
 -2      1037      2592      3816      3821
 -1      5744    3    0    2
 -2      2561       907      2563      2565
 -1      5745    3    0    1
 -2      3208      2390      3219      3701
 -1      5746    3    0    2
 -2      2560      1029      2567      2568
 -1      5747    3    0    1
 -2      2792      2788      2793      3682
 -1      5748    3    0    2
 -2      2558      2559      2560      2564
 -1      5749    3    0    2
 -2      2558      2563      2564      2572
 -1      5750    3    0    2
 -2       389      1068       608      2534
 -1      5751    3    0    2
 -2       365      2562      2566      2575
 -1      5752    3    0    2
 -2      2561      2563      2564      2565
 -1      5753    3    0    2
 -2       365       908       907      2561
 -1      5754    3    0    1
 -2      2004      2532      2610      1271
 -1      5755    3    0    2
 -2       908       365       603      2561
 -1      5756    3    0    2
 -2      2563      2558      2564      2565
 -1      5757    3    0    2
 -2      2402       696      2697      2698
 -1      5758    3    0    1
 -2      1387      1909      3228      3229
 -1      5759    3    0    1
 -2      2568      2563      3712      3746
 -1      5760    3    0    2
 -2      2563      2311      2569      2572
 -1      5761    3    0    2
 -2      1030      2567      1029      2568
 -1      5762    3    0    2
 -2      2558      2561      2565      2566
 -1      5763    3    0    2
 -2      1029      1030      2568      2569
 -1      5764    3    0    2
 -2      2559      2561      2564      2566
 -1      5765    3    0    2
 -2       603       908      2561      2566
 -1      5766    3    0    2
 -2      2561       908      2565      2566
 -1      5767    3    0    2
 -2      2567      2568      2569      2572
 -1      5768    3    0    2
 -2      2311      2563      2565      2572
 -1      5769    3    0    2
 -2      2558      2559      2564      2566
 -1      5770    3    0    2
 -2       624      2311      2312      2576
 -1      5771    3    0    2
 -2       624       787      2311      2576
 -1      5772    3    0    2
 -2      2562      2559      2566      2575
 -1      5773    3    0    1
 -2      2200      3205      3750      3577
 -1      5774    3    0    2
 -2      1031      2560      1032      2567
 -1      5775    3    0    2
 -2      2560      1029      1032      2567
 -1      5776    3    0    2
 -2      1032      1030      1031      2567
 -1      5777    3    0    1
 -2      2568      1029      2571      3746
 -1      5778    3    0    1
 -2        57      1418      1424      3841
 -1      5779    3    0    2
 -2      1045      1050      1046       148
 -1      5780    3    0    1
 -2      3208      3209      3218      3701
 -1      5781    3    0    2
 -2       966       965      2590      2595
 -1      5782    3    0    2
 -2      2560      2558      2567      2570
 -1      5783    3    0    2
 -2      2559      2558      2560      2570
 -1      5784    3    0    2
 -2      2581      2584      2590      2595
 -1      5785    3    0    2
 -2      1037      1048      1038      2594
 -1      5786    3    0    2
 -2      2939      2945      2950      2952
 -1      5787    3    0    2
 -2      2584      2581      2588      2595
 -1      5788    3    0    2
 -2      1029       791      1030      2569
 -1      5789    3    0    2
 -2       398       791      1029      2569
 -1      5790    3    0    2
 -2       600      2560      1031      2570
 -1      5791    3    0    2
 -2      1031      2560      2567      2570
 -1      5792    3    0    2
 -2      2945       826      2950      2952
 -1      5793    3    0    1
 -2      2619      3747      3430      3787
 -1      5794    3    0    2
 -2      1033       624      2573      2576
 -1      5795    3    0    2
 -2      2389      2390      3225      3227
 -1      5796    3    0    2
 -2      1034      1033      2573      2576
 -1      5797    3    0    1
 -2      1213      1222      3751      3791
 -1      5798    3    0    2
 -2      2563      2312      2565      2573
 -1      5799    3    0    2
 -2      2312      2563      2569      2571
 -1      5800    3    0    1
 -2      3800      3519      1069      2912
 -1      5801    3    0    2
 -2       791      2311      2569      2571
 -1      5802    3    0    2
 -2      2558      2564      2567      2572
 -1      5803    3    0    2
 -2      2564      2563      2568      2572
 -1      5804    3    0    2
 -2      2567      2564      2568      2572
 -1      5805    3    0    2
 -2       147      2584       151       847
 -1      5806    3    0    2
 -2      2569      2563      2568      2571
 -1      5807    3    0    2
 -2      2563      2569      2568      2572
 -1      5808    3    0    2
 -2      2562      2257      2575      2577
 -1      5809    3    0    2
 -2       603      2562      2575      2577
 -1      5810    3    0    2
 -2       908       907      2565      2573
 -1      5811    3    0    2
 -2      1036       603      2575      2577
 -1      5812    3    0    2
 -2       907      1034      1033      2573
 -1      5813    3    0    2
 -2      2257      2256      2575      2577
 -1      5814    3    0    2
 -2       908      2565      1034      2573
 -1      5815    3    0    2
 -2      1034       907       908      2573
 -1      5816    3    0    1
 -2      2095       241      2218      1226
 -1      5817    3    0    2
 -2      2560      2559      2570      2574
 -1      5818    3    0    1
 -2      2701       524      1181      3758
 -1      5819    3    0    2
 -2       261       296      2872      1645
 -1      5820    3    0    2
 -2       848      2584      2588      2595
 -1      5821    3    0    2
 -2      2559      2561      2566      2575
 -1      5822    3    0    2
 -2       397       790      2580      2582
 -1      5823    3    0    2
 -2       365       603      2562      2575
 -1      5824    3    0    2
 -2      2257      2256      2562      2575
 -1      5825    3    0    2
 -2      1036       365      1035      2575
 -1      5826    3    0    2
 -2       365      1036       603      2575
 -1      5827    3    0    2
 -2      1035      1036      2577      2578
 -1      5828    3    0    2
 -2       787      1033      1034      2576
 -1      5829    3    0    2
 -2       787       624      1033      2576
 -1      5830    3    0    2
 -2      1036      2577      2578      2579
 -1      5831    3    0    2
 -2      1035      1036      2575      2577
 -1      5832    3    0    1
 -2      3691      3040      3692      3828
 -1      5833    3    0    2
 -2      2575      1035      2577      2578
 -1      5834    3    0    2
 -2      2256      2575      2577      2578
 -1      5835    3    0    2
 -2      2257      2256      2577      2578
 -1      5836    3    0    1
 -2      2762      1165      2765      3891
 -1      5837    3    0    1
 -2      2967      2966      2972      3720
 -1      5838    3    0    2
 -2       363      1048      2574       600
 -1      5839    3    0    2
 -2       397       790      2582      2585
 -1      5840    3    0    1
 -2      3694      1434      3750      3909
 -1      5841    3    0    2
 -2      2582      2580      2583      2587
 -1      5842    3    0    2
 -2       847       848      2584      2588
 -1      5843    3    0    2
 -2       790       397      2580      2581
 -1      5844    3    0    2
 -2      2581      2580      2587      2591
 -1      5845    3    0    2
 -2      2584      1041      2588      2591
 -1      5846    3    0    2
 -2      2257      2256      2583      2585
 -1      5847    3    0    2
 -2       401      1040      2579       794
 -1      5848    3    0    2
 -2      2579      2582      2583      2587
 -1      5849    3    0    2
 -2      1035      1040      1036      2578
 -1      5850    3    0    1
 -2      3699      3264      3530      3810
 -1      5851    3    0    1
 -2      1467       681      3388      3578
 -1      5852    3    0    2
 -2      1039       401      2579      2583
 -1      5853    3    0    2
 -2      2580       790      2581      2582
 -1      5854    3    0    2
 -2      2586      2584      2590      2591
 -1      5855    3    0    2
 -2       790      2582      2585      2589
 -1      5856    3    0    2
 -2      2584       848       147      2595
 -1      5857    3    0    2
 -2      2581      2586      2587      2590
 -1      5858    3    0    1
 -2      3727      3230      3481      3780
 -1      5859    3    0    2
 -2      2581      2584      2588      2591
 -1      5860    3    0    2
 -2      2257      2256      2578      2583
 -1      5861    3    0    2
 -2      2579      2578      1039      2583
 -1      5862    3    0    1
 -2      2047       631      2751      3173
 -1      5863    3    0    2
 -2      2585      1037      2589      2592
 -1      5864    3    0    2
 -2      2257      2256      2589      2592
 -1      5865    3    0    1
 -2      1313      2751       631      3173
 -1      5866    3    0    2
 -2      3409      2327       663      3410
 -1      5867    3    0    2
 -2      1038       790      2585      2589
 -1      5868    3    0    2
 -2      2257      2256      2592      2596
 -1      5869    3    0    1
 -2      2169       409      1269      3269
 -1      5870    3    0    1
 -2      2130      2200      2217      3324
 -1      5871    3    0    2
 -2      2570       600      2574      1048
 -1      5872    3    0    2
 -2      2586      2581      2587      2591
 -1      5873    3    0    2
 -2      2594      2574      1047      1048
 -1      5874    3    0    2
 -2      2257      2592      2594      2596
 -1      5875    3    0    2
 -2       397      1038       790      2585
 -1      5876    3    0    2
 -2       397      2580      2581      2591
 -1      5877    3    0    1
 -2      1451      3308      1592      3824
 -1      5878    3    0    2
 -2      2586       401      1043      1044
 -1      5879    3    0    2
 -2      2579       401       794      2587
 -1      5880    3    0    2
 -2       794       401      2586      2587
 -1      5881    3    0    1
 -2      2601      2218      3119      3173
 -1      5882    3    0    2
 -2      1038      2589      2592      2594
 -1      5883    3    0    2
 -2      2593       847      1045      1046
 -1      5884    3    0    2
 -2      2589      2257      2592      2594
 -1      5885    3    0    2
 -2      2574      2570      2594      2596
 -1      5886    3    0    1
 -2      2069       374      1515      3269
 -1      5887    3    0    1
 -2       360      2135      1235      3828
 -1      5888    3    0    1
 -2       911       647      3766      3878
 -1      5889    3    0    2
 -2      2582      2257      2585      2589
 -1      5890    3    0    2
 -2      1037      1038      2585      2589
 -1      5891    3    0    2
 -2      1042      1041      2588      2593
 -1      5892    3    0    2
 -2      1041      2584      2588      2593
 -1      5893    3    0    1
 -2      2689      2286      3111      3927
 -1      5894    3    0    2
 -2      2584       966      2586      2590
 -1      5895    3    0    2
 -2      2586       966      1044      2590
 -1      5896    3    0    2
 -2      2559      2570      2574      2596
 -1      5897    3    0    2
 -2      2570      2574      2594      1048
 -1      5898    3    0    2
 -2      2256      2257      2562      2596
 -1      5899    3    0    2
 -2      1044       965      1043      2590
 -1      5900    3    0    2
 -2       965      1044       966      2590
 -1      5901    3    0    1
 -2       244      2601      3119      3173
 -1      5902    3    0    2
 -2      1041      1042      2588      2591
 -1      5903    3    0    2
 -2      2581       397      1042       790
 -1      5904    3    0    2
 -2       397      1042      1041      2591
 -1      5905    3    0    2
 -2      1042      2581      2588      2591
 -1      5906    3    0    2
 -2       397      2581      1042      2591
 -1      5907    3    0    2
 -2       966       147       965      2595
 -1      5908    3    0    1
 -2      2047      2218      1313      3173
 -1      5909    3    0    1
 -2      2110      2398      2413      3431
 -1      5910    3    0    2
 -2       148      1050      1046       153
 -1      5911    3    0    1
 -2      3727      3343      3576      3665
 -1      5912    3    0    2
 -2      2308      2307      1053      3183
 -1      5913    3    0    2
 -2      1041      2593      1049      1050
 -1      5914    3    0    1
 -2      3526      3774      3822      3660
 -1      5915    3    0    2
 -2      2588      1042      2593      1049
 -1      5916    3    0    2
 -2       848      2584       147       847
 -1      5917    3    0    2
 -2       147      2584       966       151
 -1      5918    3    0    2
 -2      2584       147       966      2595
 -1      5919    3    0    2
 -2      2562      2559      2575      2596
 -1      5920    3    0    2
 -2      2256      2562      2575      2596
 -1      5921    3    0    2
 -2      2559      2562      2570      2596
 -1      5922    3    0    2
 -2      2562      2257      2594      2596
 -1      5923    3    0    2
 -2      2570      2562      2594      2596
 -1      5924    3    0    1
 -2       149      1813      2122      3518
 -1      5925    3    0    1
 -2      2740      2739      2744      3711
 -1      5926    3    0    1
 -2      3338      3340      3707      3819
 -1      5927    3    0    1
 -2      2548      2541      3696      3729
 -1      5928    3    0    1
 -2      1910      1936      3270      3454
 -1      5929    3    0    1
 -2      2599      2200      3324      2217
 -1      5930    3    0    2
 -2      2592      2594      2596      1047
 -1      5931    3    0    2
 -2      2592      1037      2594      1047
 -1      5932    3    0    2
 -2      2594      2574      2596      1047
 -1      5933    3    0    2
 -2       363      1048      1047      2574
 -1      5934    3    0    1
 -2      1890      1263      3377      3864
 -1      5935    3    0    2
 -2      1045      1050      2593      1046
 -1      5936    3    0    2
 -2      2588      2593      1045      1049
 -1      5937    3    0    2
 -2      1050      1045      2593      1049
 -1      5938    3    0    1
 -2      2701      2303      3733      3758
 -1      5939    3    0    1
 -2      3427      1592      3755      3824
 -1      5940    3    0    2
 -2      1045      1050       148      1049
 -1      5941    3    0    1
 -2      1968       537      2463      1161
 -1      5942    3    0    1
 -2      1966      2004      2250      1051
 -1      5943    3    0    2
 -2       909      2391       910      2598
 -1      5944    3    0    1
 -2       629      1811      2115      2598
 -1      5945    3    0    1
 -2      2115      1811      2391      2598
 -1      5946    3    0    1
 -2       629      2115      2391      2598
 -1      5947    3    0    2
 -2      2391      2597       909      2392
 -1      5948    3    0    2
 -2       679       768       909      2598
 -1      5949    3    0    2
 -2      2597      2598       909       768
 -1      5950    3    0    2
 -2       679       909       910      2598
 -1      5951    3    0    1
 -2      2052      2058      2062      3090
 -1      5952    3    0    1
 -2       944       985      3333      3372
 -1      5953    3    0    1
 -2      2831      2832      3794      3903
 -1      5954    3    0    2
 -2      2390      2389      3213      3219
 -1      5955    3    0    1
 -2      3094      1453      3100      3688
 -1      5956    3    0    2
 -2      2346      2978      1607      1608
 -1      5957    3    0    1
 -2      2146      2219      2492      3572
 -1      5958    3    0    2
 -2      3207      3206      3211      3212
 -1      5959    3    0    2
 -2      3211      1524      3223      1529
 -1      5960    3    0    2
 -2      3294      3295      3304      3305
 -1      5961    3    0    1
 -2      1934      1897      2074      3499
 -1      5962    3    0    2
 -2      3214      3208      3215      3221
 -1      5963    3    0    1
 -2      1453      3094      3105      3688
 -1      5964    3    0    2
 -2       968      3211      3223      1529
 -1      5965    3    0    1
 -2       531      1888      2163      1053
 -1      5966    3    0    2
 -2       654      1054      2512       829
 -1      5967    3    0    1
 -2      2115       629      2391      1055
 -1      5968    3    0    1
 -2       972      2486      3715      3748
 -1      5969    3    0    1
 -2      1888      1992      2163      1053
 -1      5970    3    0    1
 -2      2867      1982      3711      3458
 -1      5971    3    0    2
 -2       629      1056       770      2597
 -1      5972    3    0    2
 -2      2392      2391      2597      1055
 -1      5973    3    0    2
 -2      2391       629      2597      1055
 -1      5974    3    0    1
 -2      2479      2484      2490      3748
 -1      5975    3    0    1
 -2      2202       684      2247      1057
 -1      5976    3    0    2
 -2       497      2613      2747      2748
 -1      5977    3    0    1
 -2      2247      2245      2447      1057
 -1      5978    3    0    1
 -2       246      2247      2447      1057
 -1      5979    3    0    2
 -2      2245      1058      2447      1057
 -1      5980    3    0    2
 -2       246      1058      1057      2447
 -1      5981    3    0    2
 -2       246      1058      2447       301
 -1      5982    3    0    1
 -2      1851        44      2118      3439
 -1      5983    3    0    2
 -2       631      1316      1315      2752
 -1      5984    3    0    2
 -2      2707      2751      1315      2752
 -1      5985    3    0    1
 -2      3350      3351      3743      3749
 -1      5986    3    0    1
 -2      2601      2751      3173      1642
 -1      5987    3    0    1
 -2      1806      1758      2122      2602
 -1      5988    3    0    1
 -2      3795       899      3848      3578
 -1      5989    3    0    1
 -2      1813       400       904      2602
 -1      5990    3    0    1
 -2       637      2905      2909      3687
 -1      5991    3    0    2
 -2       672      2600      2751      2752
 -1      5992    3    0    1
 -2       395      2196      3173      1642
 -1      5993    3    0    1
 -2      2261       957      2909      3687
 -1      5994    3    0    1
 -2      2360       668      2369      3745
 -1      5995    3    0    1
 -2      2847      2384      2859      3732
 -1      5996    3    0    2
 -2      3595      1634      3597      3599
 -1      5997    3    0    1
 -2      1097      3734      3868      3629
 -1      5998    3    0    1
 -2      1097       415      3734      3629
 -1      5999    3    0    1
 -2      1650      3571      3620      3904
 -1      6000    3    0    1
 -2      2314      1211      2810      3789
 -1      6001    3    0    1
 -2      2048      2095      2167      1059
 -1      6002    3    0    2
 -2       408       779      2810      2813
 -1      6003    3    0    1
 -2      2167       499      2178      1059
 -1      6004    3    0    2
 -2      2347      2493      1059      2494
 -1      6005    3    0    2
 -2      2494      2493      1059       677
 -1      6006    3    0    2
 -2       677      1060      1059      2494
 -1      6007    3    0    1
 -2      2102       499      2167      1059
 -1      6008    3    0    1
 -2      2095      2102      2167      1059
 -1      6009    3    0    1
 -2      2048      2167      2178      1059
 -1      6010    3    0    2
 -2       634      2790      2787      2797
 -1      6011    3    0    2
 -2       677      1060      2494       775
 -1      6012    3    0    2
 -2      1090      2649      1095      1096
 -1      6013    3    0    2
 -2      2649      2651      1095      1096
 -1      6014    3    0    2
 -2      2606       585      1061      1062
 -1      6015    3    0    2
 -2      2605      2227      1062      2606
 -1      6016    3    0    2
 -2      2605      2606      1062       585
 -1      6017    3    0    2
 -2      2354      1062      2227      1061
 -1      6018    3    0    1
 -2      1942       639      2440      1606
 -1      6019    3    0    1
 -2      1604      2828       248      2061
 -1      6020    3    0    2
 -2      2227      2605      1062      2228
 -1      6021    3    0    1
 -2       503      2209      2606      1061
 -1      6022    3    0    1
 -2      1942       639      2061      2608
 -1      6023    3    0    1
 -2      2608      1604      2061      2336
 -1      6024    3    0    2
 -2      2713      2712      1602       604
 -1      6025    3    0    2
 -2      2607      2440      1602      2608
 -1      6026    3    0    2
 -2      2335      2608      1604      2607
 -1      6027    3    0    2
 -2      2335      2828      1595      1596
 -1      6028    3    0    2
 -2       671      1596      2608      1595
 -1      6029    3    0    1
 -2      1942      2061      2091      2608
 -1      6030    3    0    2
 -2      2607      2608      1602       799
 -1      6031    3    0    2
 -2       799      2335      2607      2608
 -1      6032    3    0    2
 -2      1090       505      1089      2645
 -1      6033    3    0    1
 -2      2915      2918      2921      3723
 -1      6034    3    0    2
 -2       585       503      2606      1061
 -1      6035    3    0    2
 -2       764       633      2762      2768
 -1      6036    3    0    2
 -2      2644      2238      2646      2648
 -1      6037    3    0    2
 -2      2627      2628      2629      2655
 -1      6038    3    0    2
 -2      2229      2493      1497      2230
 -1      6039    3    0    2
 -2      1178      3132      3140      1475
 -1      6040    3    0    1
 -2      3452      2138      3762      3845
 -1      6041    3    0    2
 -2      2756      2758      2762      2766
 -1      6042    3    0    1
 -2      1996      1738      3472      3523
 -1      6043    3    0    2
 -2      1171       124      1173      1174
 -1      6044    3    0    2
 -2      2533      2532      2609      1274
 -1      6045    3    0    1
 -2      2004      1966      2250      2610
 -1      6046    3    0    1
 -2      1966       702      2250      2610
 -1      6047    3    0    2
 -2      2250      2609      1052      2610
 -1      6048    3    0    2
 -2      2250      1052      1051      2610
 -1      6049    3    0    1
 -2      1995      2004      2532      2610
 -1      6050    3    0    1
 -2       702      1966      1995      2610
 -1      6051    3    0    1
 -2       702      1995      2532      2610
 -1      6052    3    0    2
 -2      2609      2610      1272       718
 -1      6053    3    0    1
 -2      1561      2935      2015      2292
 -1      6054    3    0    2
 -2      1052       652      1051      2610
 -1      6055    3    0    1
 -2      1995      1966      2004      2610
 -1      6056    3    0    2
 -2      2610      2609      1052       718
 -1      6057    3    0    2
 -2       652      1052       718      2610
 -1      6058    3    0    1
 -2      3172      2153      3816      3877
 -1      6059    3    0    1
 -2      1749      2079      2192      1065
 -1      6060    3    0    2
 -2      2747       497      1469      1470
 -1      6061    3    0    2
 -2       926      2393       925      2612
 -1      6062    3    0    2
 -2      2612      1066      2350      1065
 -1      6063    3    0    1
 -2      2174      2079      2393      2612
 -1      6064    3    0    1
 -2       656      2174      2393      2612
 -1      6065    3    0    1
 -2      2174       656      2350      2612
 -1      6066    3    0    1
 -2      3298       983      3309      3705
 -1      6067    3    0    2
 -2      2393      2611       926      2394
 -1      6068    3    0    2
 -2      2350      2611      1066      2612
 -1      6069    3    0    2
 -2       661       926       925      2612
 -1      6070    3    0    2
 -2      2611      2612       926       722
 -1      6071    3    0    2
 -2      1066       661      1065      2612
 -1      6072    3    0    2
 -2       926       661       722      2612
 -1      6073    3    0    2
 -2      2612      2611      1066       722
 -1      6074    3    0    2
 -2       661      1066       722      2612
 -1      6075    3    0    1
 -2      2128      3188      3329      3713
 -1      6076    3    0    2
 -2      2391       497      2747      2748
 -1      6077    3    0    2
 -2       771      1469      3141      3142
 -1      6078    3    0    2
 -2      3141      2614      1469      2613
 -1      6079    3    0    1
 -2      2728      2720      3778      3846
 -1      6080    3    0    1
 -2      2219      2492      3572      3632
 -1      6081    3    0    1
 -2      1888       541      2308      3183
 -1      6082    3    0    1
 -2      2041      3121      3418      3755
 -1      6083    3    0    1
 -2       671      2061      2091      1595
 -1      6084    3    0    2
 -2       605       392      2455      1557
 -1      6085    3    0    1
 -2      1809      1756      1565      3377
 -1      6086    3    0    2
 -2      2620       568      2621      1559
 -1      6087    3    0    1
 -2      1996      1985      3318      3575
 -1      6088    3    0    1
 -2      3673      1639      3925      3679
 -1      6089    3    0    1
 -2      1592       655      3427      3755
 -1      6090    3    0    1
 -2       371       921      3287      3762
 -1      6091    3    0    1
 -2      1362        56      1364      3713
 -1      6092    3    0    1
 -2       880      2959      2962      3713
 -1      6093    3    0    1
 -2      1362      2962      3690      3713
 -1      6094    3    0    1
 -2       382      3418      3427      3755
 -1      6095    3    0    1
 -2      2720      2724      3778      3846
 -1      6096    3    0    1
 -2      3235      2208      3764      3463
 -1      6097    3    0    1
 -2      2004      2532      1271      3443
 -1      6098    3    0    1
 -2      2082      2024      2811      3469
 -1      6099    3    0    1
 -2      1364       880      2962      3713
 -1      6100    3    0    1
 -2      3188      2128      3690      3713
 -1      6101    3    0    1
 -2      3328      2196      3406      3568
 -1      6102    3    0    1
 -2      2962      1362      1364      3713
 -1      6103    3    0    1
 -2      1465       528      3111      3842
 -1      6104    3    0    2
 -2      2627      2636      2637      2638
 -1      6105    3    0    2
 -2       414      1308      1307      2653
 -1      6106    3    0    1
 -2       678      1210      2812      3717
 -1      6107    3    0    1
 -2      2153      3273      3700      3722
 -1      6108    3    0    1
 -2      1705      1712      3178      3510
 -1      6109    3    0    1
 -2      2154      3684      3266      3747
 -1      6110    3    0    1
 -2      2112       641      2285      3316
 -1      6111    3    0    2
 -2      2617       560      2755      1184
 -1      6112    3    0    1
 -2       643      2034      2134      1333
 -1      6113    3    0    1
 -2      2593       847      1046      3747
 -1      6114    3    0    1
 -2      3149      1973      1608      3402
 -1      6115    3    0    2
 -2      2284      2455      1335      2285
 -1      6116    3    0    2
 -2      2285       641      3315      3316
 -1      6117    3    0    1
 -2      2395      1899      3267      3431
 -1      6118    3    0    1
 -2      1899      2619      3430      3431
 -1      6119    3    0    1
 -2      1525       168      3852      3889
 -1      6120    3    0    1
 -2      3035      2310      3037      3756
 -1      6121    3    0    1
 -2      2109      2413      2619      3431
 -1      6122    3    0    1
 -2      3707      3338      3819      3867
 -1      6123    3    0    1
 -2      1141      1982      2729      3478
 -1      6124    3    0    2
 -2      2623      2622      3026      3027
 -1      6125    3    0    1
 -2      2060      3291      3863      3919
 -1      6126    3    0    1
 -2      2039      1973      1341      3619
 -1      6127    3    0    1
 -2       656      2174      2350      1071
 -1      6128    3    0    2
 -2      1450      2304      2329      1449
 -1      6129    3    0    2
 -2      2621       733      1559      1560
 -1      6130    3    0    1
 -2      1960      3190      3728      3446
 -1      6131    3    0    2
 -2       656      1072      1071      2611
 -1      6132    3    0    2
 -2      2621      2688      1447      1448
 -1      6133    3    0    2
 -2      2304      1450      2329      2305
 -1      6134    3    0    1
 -2       382       532      2011      1071
 -1      6135    3    0    2
 -2       721      2781      1447      1448
 -1      6136    3    0    1
 -2       366      1959      2868      3872
 -1      6137    3    0    2
 -2      2688       570      1447      1448
 -1      6138    3    0    1
 -2      2065      2011      2174      1071
 -1      6139    3    0    2
 -2      3256      1074      3258      1554
 -1      6140    3    0    1
 -2       183       987      2502      3738
 -1      6141    3    0    2
 -2       656      1072      2611       727
 -1      6142    3    0    2
 -2      3258      3256      1553      3259
 -1      6143    3    0    1
 -2       425      2939      1349      3754
 -1      6144    3    0    1
 -2      3008       668      3318      3745
 -1      6145    3    0    1
 -2       704      1023      3685      3731
 -1      6146    3    0    1
 -2      2207      3513      3809      3852
 -1      6147    3    0    1
 -2       654      1992      1133      3003
 -1      6148    3    0    1
 -2       654      1888      1992      3003
 -1      6149    3    0    1
 -2      3493      3176      3816      3821
 -1      6150    3    0    1
 -2      2263      3153      3161      3785
 -1      6151    3    0    1
 -2      3308      1451      3311      3824
 -1      6152    3    0    1
 -2      2047      2708      1315      3838
 -1      6153    3    0    2
 -2      2294      2295      2512      1133
 -1      6154    3    0    1
 -2      1792      2082      3232      3414
 -1      6155    3    0    2
 -2       423       721      2781      1447
 -1      6156    3    0    1
 -2      3000       685      3455      3840
 -1      6157    3    0    1
 -2      2276      2277      3198      3639
 -1      6158    3    0    1
 -2       661      2079       925      3234
 -1      6159    3    0    1
 -2      2207      3809      3812      3889
 -1      6160    3    0    1
 -2      1071      2784      3708      2350
 -1      6161    3    0    1
 -2      1990      2156      2215      3656
 -1      6162    3    0    1
 -2      2077      1731      2191      3233
 -1      6163    3    0    1
 -2      1644      2749      2626      3261
 -1      6164    3    0    1
 -2      1948      2626      3261      1644
 -1      6165    3    0    2
 -2       828      2280      2749      2750
 -1      6166    3    0    1
 -2      1948       268      2777      1644
 -1      6167    3    0    1
 -2      1886      1688      2040      2709
 -1      6168    3    0    2
 -2      2856      1118      2860      2861
 -1      6169    3    0    2
 -2       899      1088       900      2635
 -1      6170    3    0    2
 -2      1099      1100      2660      2663
 -1      6171    3    0    1
 -2      3555      3561      3832      3863
 -1      6172    3    0    2
 -2      1087       505      2635      2640
 -1      6173    3    0    2
 -2      2301      2663      2664      2667
 -1      6174    3    0    1
 -2      1688      1900      2040      2709
 -1      6175    3    0    1
 -2      2744      2739      2745      3711
 -1      6176    3    0    1
 -2      2111       500      1228      3441
 -1      6177    3    0    2
 -2      2635       505       582      2642
 -1      6178    3    0    1
 -2        40      1003      1005      3787
 -1      6179    3    0    2
 -2      1198       634       762      2796
 -1      6180    3    0    2
 -2      2600      1313      1314      3119
 -1      6181    3    0    1
 -2      2133      1915      3187      3763
 -1      6182    3    0    2
 -2      2600      2601      1313      3119
 -1      6183    3    0    1
 -2      1958      1882      3534      3853
 -1      6184    3    0    1
 -2       637      1295      2997      3503
 -1      6185    3    0    2
 -2      2630       683      1081      1082
 -1      6186    3    0    2
 -2      1082       899      2631      2632
 -1      6187    3    0    1
 -2      2739      3703      2740      2737
 -1      6188    3    0    1
 -2      1556      2281      3261      3446
 -1      6189    3    0    2
 -2      2237      2238      2630      2631
 -1      6190    3    0    2
 -2      1081      2630      1082      2631
 -1      6191    3    0    2
 -2       899       900      1081      2631
 -1      6192    3    0    2
 -2       899      1081      1082      2631
 -1      6193    3    0    2
 -2      2649      1090      2651      1096
 -1      6194    3    0    2
 -2      2237      2650      2652      2656
 -1      6195    3    0    2
 -2       899       900      2631      2632
 -1      6196    3    0    2
 -2      2225       556      3009      1429
 -1      6197    3    0    2
 -2       304      2600      1314      3119
 -1      6198    3    0    2
 -2       955      1084      1083      2634
 -1      6199    3    0    2
 -2      2635      2639      2642      2644
 -1      6200    3    0    1
 -2      2601      2218      1313      3119
 -1      6201    3    0    2
 -2      2635      2632      1087      2640
 -1      6202    3    0    1
 -2      3730      1585      3474      3626
 -1      6203    3    0    1
 -2      2135       360      1235      3275
 -1      6204    3    0    1
 -2      1859      1976      2050      3492
 -1      6205    3    0    2
 -2      2237      2238      2632      2640
 -1      6206    3    0    2
 -2      2237      2632      2635      2640
 -1      6207    3    0    2
 -2      2631      2237      2632      2635
 -1      6208    3    0    2
 -2       900      2631      2632      2635
 -1      6209    3    0    2
 -2      1077       122      2634      2641
 -1      6210    3    0    2
 -2       899       900      2632      2635
 -1      6211    3    0    2
 -2      1091      1092      2648      2650
 -1      6212    3    0    2
 -2       899      1088      2635      1087
 -1      6213    3    0    1
 -2      2926      1321      2931      3691
 -1      6214    3    0    1
 -2      1777      1751      2072      3151
 -1      6215    3    0    2
 -2       955      1084      2634       956
 -1      6216    3    0    1
 -2       556      1996      2003      1429
 -1      6217    3    0    2
 -2      3160      3152      3163      3169
 -1      6218    3    0    2
 -2       582      2642      2645      2647
 -1      6219    3    0    2
 -2       505      1088      2635       582
 -1      6220    3    0    2
 -2      2632       899      2635      1087
 -1      6221    3    0    2
 -2      1080      1079      2636      2637
 -1      6222    3    0    2
 -2       683      1079      2636      2638
 -1      6223    3    0    2
 -2       121      1080       123      2637
 -1      6224    3    0    2
 -2       121      1086      2637       123
 -1      6225    3    0    2
 -2      2627      2628      2636      2638
 -1      6226    3    0    2
 -2      1080       121      1079      2637
 -1      6227    3    0    2
 -2      2639      2635      2640      2644
 -1      6228    3    0    2
 -2       753       647      2674      2682
 -1      6229    3    0    2
 -2      2237      2238      2640      2644
 -1      6230    3    0    2
 -2      2283      2675      2676      2678
 -1      6231    3    0    2
 -2      2629       755      2630      2638
 -1      6232    3    0    2
 -2       755       683      2630      2638
 -1      6233    3    0    2
 -2      2628       683      2636      2638
 -1      6234    3    0    2
 -2      2628      2629      2630      2638
 -1      6235    3    0    2
 -2       683      2628      2630      2638
 -1      6236    3    0    2
 -2      1080       683       755      2638
 -1      6237    3    0    2
 -2       683      1080      1079      2638
 -1      6238    3    0    2
 -2      2679      2282      2680      2685
 -1      6239    3    0    2
 -2      2282      2669      2671      2673
 -1      6240    3    0    2
 -2      2659      1099      2660      2663
 -1      6241    3    0    2
 -2      2508      2509      3598      3601
 -1      6242    3    0    1
 -2        69      2599      1523      3901
 -1      6243    3    0    1
 -2      3776      3383      3817      3820
 -1      6244    3    0    1
 -2      1628      2416      1792      2406
 -1      6245    3    0    1
 -2      1151      2402      2745      3711
 -1      6246    3    0    1
 -2      2032      3740      3454      3455
 -1      6247    3    0    2
 -2      1079      2636      2637      2643
 -1      6248    3    0    2
 -2      2636      2633      2637      2643
 -1      6249    3    0    2
 -2      1083       955      2634      2641
 -1      6250    3    0    1
 -2      2036      2031      2072      3151
 -1      6251    3    0    2
 -2      1085       121      2637      2643
 -1      6252    3    0    1
 -2      2073      3005      3451      3759
 -1      6253    3    0    2
 -2       121      1079      2637      2643
 -1      6254    3    0    2
 -2        36       122      1077      2641
 -1      6255    3    0    2
 -2      2634       122      1084      2641
 -1      6256    3    0    2
 -2        36      1084       122      2641
 -1      6257    3    0    1
 -2      2739       529      2745      3711
 -1      6258    3    0    1
 -2      2592      3700      3816      3821
 -1      6259    3    0    2
 -2      2633      2634      2637      2643
 -1      6260    3    0    2
 -2      1086      1085      2637      2643
 -1      6261    3    0    2
 -2      2634      2633      2641      2643
 -1      6262    3    0    2
 -2       955      2634      2641      2643
 -1      6263    3    0    2
 -2      2634       955       956      2643
 -1      6264    3    0    2
 -2      1086       955      1085      2643
 -1      6265    3    0    2
 -2      2634       956      2637      2643
 -1      6266    3    0    2
 -2      2637       956      1086      2643
 -1      6267    3    0    2
 -2       955      1086       956      2643
 -1      6268    3    0    2
 -2      2635      2237      2640      2644
 -1      6269    3    0    2
 -2      2237      2238      2648      2650
 -1      6270    3    0    1
 -2      3249       420      3254      3728
 -1      6271    3    0    2
 -2      2655      2628      2658      2662
 -1      6272    3    0    1
 -2      2402      2744      2745      3711
 -1      6273    3    0    1
 -2      2402      1150      2744      3711
 -1      6274    3    0    1
 -2      3735      3334      3738      3777
 -1      6275    3    0    2
 -2      2237      2238      2650      2656
 -1      6276    3    0    2
 -2       505      1090       582      2645
 -1      6277    3    0    2
 -2       581      2644      2646      1093
 -1      6278    3    0    2
 -2      2628      2629      2652      2656
 -1      6279    3    0    2
 -2      2642      2266      2645      2647
 -1      6280    3    0    2
 -2      2266      2267      2645      2647
 -1      6281    3    0    2
 -2      1090       582      2645      2647
 -1      6282    3    0    2
 -2      2646      1091      2648      2650
 -1      6283    3    0    2
 -2       638      2651      1095      2654
 -1      6284    3    0    2
 -2      2640      2639      2644      2646
 -1      6285    3    0    2
 -2      2238      2640      2644      2646
 -1      6286    3    0    2
 -2      2301      2659      2660      2663
 -1      6287    3    0    2
 -2      2237      2238      2644      2648
 -1      6288    3    0    1
 -2      2551      2538      3685      3729
 -1      6289    3    0    2
 -2       377       581      2644      2646
 -1      6290    3    0    1
 -2      3274      2189      3710      3837
 -1      6291    3    0    2
 -2      2645      1089      2647      2649
 -1      6292    3    0    1
 -2      2886      2889      3716      3786
 -1      6293    3    0    2
 -2      2644      2646      1093      2648
 -1      6294    3    0    1
 -2      2186      1534      3399      3569
 -1      6295    3    0    2
 -2      2646       377      1093      1094
 -1      6296    3    0    1
 -2       529      1153      2745      3711
 -1      6297    3    0    1
 -2      3692      2150      3805      3845
 -1      6298    3    0    2
 -2      1093      2646      1094      2648
 -1      6299    3    0    2
 -2      2646      1091      1094      2648
 -1      6300    3    0    1
 -2      1934      3232      3448      3899
 -1      6301    3    0    2
 -2      2266      2267      2649      2651
 -1      6302    3    0    2
 -2      1091      1092      1093      2648
 -1      6303    3    0    2
 -2      2267      2649      2651      2654
 -1      6304    3    0    2
 -2      1091      1093      1094      2648
 -1      6305    3    0    2
 -2      1089      1090      2649      1095
 -1      6306    3    0    2
 -2      2657      2300      2659      2660
 -1      6307    3    0    2
 -2      1092      2648      2650      2652
 -1      6308    3    0    2
 -2      2300      2301      2653      2657
 -1      6309    3    0    2
 -2      1639      1640      3587      3589
 -1      6310    3    0    2
 -2       264      1308      2669      1307
 -1      6311    3    0    2
 -2      2669      2300      1307      1308
 -1      6312    3    0    1
 -2       681      3682      3468      3858
 -1      6313    3    0    2
 -2       415      2655      2658      2662
 -1      6314    3    0    2
 -2      2418      2461      1629      1630
 -1      6315    3    0    2
 -2      2629      2628      2652      2655
 -1      6316    3    0    2
 -2       756       638      2651      1095
 -1      6317    3    0    1
 -2       384      2098      2357      3371
 -1      6318    3    0    2
 -2      3354      1511      1512      3359
 -1      6319    3    0    2
 -2      2652      2650      1097      2656
 -1      6320    3    0    2
 -2      2248       563      2779      1276
 -1      6321    3    0    2
 -2      2651       756      1095      1096
 -1      6322    3    0    2
 -2      2261      2260       957      3390
 -1      6323    3    0    2
 -2      2652      2628      2656      2658
 -1      6324    3    0    2
 -2      1398      2231      1397      3195
 -1      6325    3    0    2
 -2      1097      2652      2656      2658
 -1      6326    3    0    2
 -2      2651      2649      1095      2654
 -1      6327    3    0    1
 -2       551      1988      2119      3494
 -1      6328    3    0    2
 -2      2266      2267      2651      2654
 -1      6329    3    0    2
 -2      2300      2301      2660      2663
 -1      6330    3    0    2
 -2       638       756      2651      2654
 -1      6331    3    0    1
 -2      3146      1473      3148      3849
 -1      6332    3    0    1
 -2      3193      1796      3693      3454
 -1      6333    3    0    1
 -2        53      3460      3522      3846
 -1      6334    3    0    2
 -2       380       622      2473      1131
 -1      6335    3    0    1
 -2      3703      2739      2740      3711
 -1      6336    3    0    2
 -2      2283      2282      2671      2673
 -1      6337    3    0    1
 -2      2740       375      3703      3711
 -1      6338    3    0    2
 -2      2627      2628      2655      2662
 -1      6339    3    0    2
 -2      2651      2653      2654      2657
 -1      6340    3    0    1
 -2      2150      3692      3452      3845
 -1      6341    3    0    2
 -2      2857       749      2859      1570
 -1      6342    3    0    2
 -2      2260       958       957      3390
 -1      6343    3    0    2
 -2      1099      1100      2659      2660
 -1      6344    3    0    2
 -2      2629      2628      2630      2656
 -1      6345    3    0    2
 -2      2238      2237      2630      2656
 -1      6346    3    0    2
 -2      2300      2301      2663      2664
 -1      6347    3    0    2
 -2      2267      2654      2661      2668
 -1      6348    3    0    2
 -2      2630      2237      2631      2656
 -1      6349    3    0    2
 -2      2629      2630      2631      2656
 -1      6350    3    0    2
 -2      2629      2237      2652      2656
 -1      6351    3    0    2
 -2      2237      2629      2631      2656
 -1      6352    3    0    1
 -2      3765      3462      3463      2203
 -1      6353    3    0    2
 -2      2300      2301      2659      2660
 -1      6354    3    0    2
 -2       754       415      2655      2658
 -1      6355    3    0    2
 -2      2405      2416      1628      2406
 -1      6356    3    0    1
 -2       635      2161      2209      1309
 -1      6357    3    0    2
 -2      2652      1097      1098      2658
 -1      6358    3    0    2
 -2      2652       754      2655      2658
 -1      6359    3    0    2
 -2       415      1098      1097      2658
 -1      6360    3    0    2
 -2       754      2652      1098      2658
 -1      6361    3    0    2
 -2      1098       415       754      2658
 -1      6362    3    0    2
 -2       300      1105      1106      2676
 -1      6363    3    0    1
 -2        59      1283      3702      3773
 -1      6364    3    0    2
 -2      2382       304      3119      3120
 -1      6365    3    0    1
 -2       437       890      3707      3867
 -1      6366    3    0    2
 -2       245      2670      2675      2676
 -1      6367    3    0    1
 -2      3016      3019      3695      3811
 -1      6368    3    0    2
 -2      2660      2300      2663      2664
 -1      6369    3    0    2
 -2       638       756      2657      2659
 -1      6370    3    0    2
 -2       414       711      2653      2661
 -1      6371    3    0    2
 -2      2300      2301      2657      2659
 -1      6372    3    0    2
 -2      1100       638      1099      2659
 -1      6373    3    0    2
 -2       638      1100       756      2659
 -1      6374    3    0    2
 -2      2651      2653      2657      2661
 -1      6375    3    0    2
 -2      2669       299      2671      2673
 -1      6376    3    0    2
 -2      2653      2651      2654      2661
 -1      6377    3    0    2
 -2      2651      2266      2654      2661
 -1      6378    3    0    2
 -2      2282      2283      2675      2676
 -1      6379    3    0    2
 -2      2266      2267      2654      2661
 -1      6380    3    0    2
 -2      2628      2627      2633      2662
 -1      6381    3    0    1
 -2      3064      3714      3724      3868
 -1      6382    3    0    2
 -2      2381      2597       768      2598
 -1      6383    3    0    1
 -2      3901      2200      3750      3506
 -1      6384    3    0    2
 -2       415       754      2655      2662
 -1      6385    3    0    2
 -2      1077       415      1078      2662
 -1      6386    3    0    1
 -2      1208      1215      3717      3826
 -1      6387    3    0    2
 -2       414       711      2661      2668
 -1      6388    3    0    2
 -2       754       415      1077      2662
 -1      6389    3    0    2
 -2      3595      2508      3596      3598
 -1      6390    3    0    2
 -2      2639      2642      2644      2681
 -1      6391    3    0    2
 -2      2715      2400      1563      2399
 -1      6392    3    0    2
 -2      2301      2664      2666      2667
 -1      6393    3    0    2
 -2      2430      3602      3604      3605
 -1      6394    3    0    2
 -2      2666      2669      2671      2675
 -1      6395    3    0    2
 -2      2282      2283      2676      2678
 -1      6396    3    0    2
 -2       245      1105      2676      2678
 -1      6397    3    0    2
 -2      2655      2627      2662      2665
 -1      6398    3    0    2
 -2      2633      2641      2662      2665
 -1      6399    3    0    2
 -2      2633      2634      2641      2665
 -1      6400    3    0    1
 -2      3792      3501      3542      3826
 -1      6401    3    0    2
 -2      2654      2653      2661      2668
 -1      6402    3    0    1
 -2       861      3222      3788      3852
 -1      6403    3    0    2
 -2      2653       414      2661      2668
 -1      6404    3    0    1
 -2      1400      1261      3811      3866
 -1      6405    3    0    2
 -2      1106      2676      2678      2679
 -1      6406    3    0    2
 -2      2668      1101      2672      2677
 -1      6407    3    0    2
 -2      2300      2301      2664      2666
 -1      6408    3    0    2
 -2      2666      2664      2669      2670
 -1      6409    3    0    2
 -2      1102       711      2668      2672
 -1      6410    3    0    2
 -2      2664      2666      2667      2670
 -1      6411    3    0    2
 -2      1102       414      1101      2668
 -1      6412    3    0    2
 -2       299       264      2671      2673
 -1      6413    3    0    2
 -2       300      2664      2667      2670
 -1      6414    3    0    2
 -2       245       300      2667      2670
 -1      6415    3    0    2
 -2      2666       245      2667      2670
 -1      6416    3    0    2
 -2      2266      2267      2672      2677
 -1      6417    3    0    2
 -2      2663      1100      2664      2667
 -1      6418    3    0    2
 -2       245      1104      1103      2667
 -1      6419    3    0    2
 -2      1104      1099      1103      2667
 -1      6420    3    0    2
 -2       300      2664      1104      2667
 -1      6421    3    0    2
 -2      1104       245       300      2667
 -1      6422    3    0    2
 -2      2664      1100      1104      2667
 -1      6423    3    0    2
 -2      1099      1104      1100      2667
 -1      6424    3    0    2
 -2       414      1102       711      2668
 -1      6425    3    0    2
 -2      2301       264      2666      2669
 -1      6426    3    0    2
 -2      2300      2301      2666      2669
 -1      6427    3    0    2
 -2      1102      2672      2677      2681
 -1      6428    3    0    2
 -2       264      2666      2669      2671
 -1      6429    3    0    1
 -2      2148      3088      3492      3851
 -1      6430    3    0    2
 -2       621      2465      1368      3183
 -1      6431    3    0    1
 -2       951      2871      2187       261
 -1      6432    3    0    2
 -2      3594      3595      3596      3597
 -1      6433    3    0    2
 -2       299       264      2669      2671
 -1      6434    3    0    2
 -2      2283      2282      2673      2674
 -1      6435    3    0    2
 -2       264      2671      2673      2674
 -1      6436    3    0    2
 -2      2671      2283      2673      2674
 -1      6437    3    0    1
 -2      2080      1963      3381      3396
 -1      6438    3    0    2
 -2       911       264      2673      2674
 -1      6439    3    0    1
 -2      3443      3530      3810      3892
 -1      6440    3    0    2
 -2      1105      1106      2678      2679
 -1      6441    3    0    2
 -2      2670      2669      2675      2676
 -1      6442    3    0    2
 -2      1101      1102      2668      2672
 -1      6443    3    0    2
 -2      2266      2267      2661      2672
 -1      6444    3    0    2
 -2       711      2661      2668      2672
 -1      6445    3    0    2
 -2      1105      1106      2676      2678
 -1      6446    3    0    2
 -2      2675       245      2676      2678
 -1      6447    3    0    2
 -2      3242      2468      3247      3253
 -1      6448    3    0    2
 -2       377      2639      2644      2681
 -1      6449    3    0    2
 -2       912       264       299      2673
 -1      6450    3    0    2
 -2       264       912       911      2673
 -1      6451    3    0    2
 -2       912       911      2673      2674
 -1      6452    3    0    2
 -2       636      2445      2682      2683
 -1      6453    3    0    1
 -2      1385      1968      3698      3773
 -1      6454    3    0    2
 -2       647      2283      2682      2683
 -1      6455    3    0    2
 -2      2282       912      2673      2674
 -1      6456    3    0    2
 -2       912       647       911      2674
 -1      6457    3    0    1
 -2       624      2304      1449      3871
 -1      6458    3    0    2
 -2       647       912       753      2674
 -1      6459    3    0    2
 -2      2282      2283      2671      2675
 -1      6460    3    0    2
 -2      2669      2282      2671      2675
 -1      6461    3    0    2
 -2      2682       636      2683      2685
 -1      6462    3    0    2
 -2      2445      2444      2686      2687
 -1      6463    3    0    2
 -2      2267      2668      2672      2677
 -1      6464    3    0    2
 -2      2680      2282      2682      2685
 -1      6465    3    0    2
 -2       912       753      2674      2682
 -1      6466    3    0    2
 -2       300       245      1105      2676
 -1      6467    3    0    2
 -2      2445      2444      2683      2686
 -1      6468    3    0    2
 -2       377      2639      2681      2684
 -1      6469    3    0    2
 -2      1110      2683      2686      2687
 -1      6470    3    0    2
 -2      2282      2283      2680      2682
 -1      6471    3    0    2
 -2      1101       377      2681      2684
 -1      6472    3    0    2
 -2      2283      2680      2682      2683
 -1      6473    3    0    2
 -2      2678      1105      2679      2680
 -1      6474    3    0    1
 -2      2179      3462      3463      3766
 -1      6475    3    0    2
 -2      2672      2266      2677      2681
 -1      6476    3    0    1
 -2      1811      2115       910      3457
 -1      6477    3    0    2
 -2      2444      2445      2682      2685
 -1      6478    3    0    2
 -2      1105      2679      2680      2685
 -1      6479    3    0    2
 -2       636      1105      2680      2685
 -1      6480    3    0    1
 -2      2052      1165      3752      3465
 -1      6481    3    0    2
 -2      1107      1109      2686      2687
 -1      6482    3    0    2
 -2       753       647      2682      2683
 -1      6483    3    0    2
 -2      2444       710      2445      2685
 -1      6484    3    0    2
 -2      1101      1102      2677      2681
 -1      6485    3    0    2
 -2      1102       377       581      2681
 -1      6486    3    0    2
 -2       377      1102      1101      2681
 -1      6487    3    0    1
 -2      2193      1811       910      3457
 -1      6488    3    0    2
 -2       583       504      3390      1635
 -1      6489    3    0    1
 -2       639      2061      1604      3574
 -1      6490    3    0    2
 -2      2283      2282      2674      2682
 -1      6491    3    0    2
 -2       647      2283      2674      2682
 -1      6492    3    0    1
 -2      3232      3414      3899      3644
 -1      6493    3    0    2
 -2      2267      2266      2642      2684
 -1      6494    3    0    2
 -2      2642      2639      2645      2684
 -1      6495    3    0    2
 -2      2267      2642      2645      2684
 -1      6496    3    0    1
 -2      3048      3041      3049      3721
 -1      6497    3    0    1
 -2      2098       384      3124      3371
 -1      6498    3    0    2
 -2      2642      2266      2681      2684
 -1      6499    3    0    2
 -2      2680      2682      2683      2685
 -1      6500    3    0    2
 -2       636      2680      2683      2685
 -1      6501    3    0    2
 -2       710       636      2445      2685
 -1      6502    3    0    2
 -2      2445       636      2682      2685
 -1      6503    3    0    2
 -2      1105      1106      2679      2685
 -1      6504    3    0    2
 -2      1106       636       710      2685
 -1      6505    3    0    2
 -2       636      1106      1105      2685
 -1      6506    3    0    1
 -2      1029       398      3746      3861
 -1      6507    3    0    2
 -2       753       647      2683      2686
 -1      6508    3    0    1
 -2      3462      3765      3463      3766
 -1      6509    3    0    1
 -2      2179       911      3456      3766
 -1      6510    3    0    1
 -2      2527      2529      3762      3895
 -1      6511    3    0    1
 -2      2527      2515      2529      3895
 -1      6512    3    0    1
 -2       647      1110      3456      3766
 -1      6513    3    0    1
 -2      2027      3434      3549      3853
 -1      6514    3    0    1
 -2       526      2203      1301      3462
 -1      6515    3    0    1
 -2      3390      2445      1636      3765
 -1      6516    3    0    1
 -2      2134       251      2306      1449
 -1      6517    3    0    2
 -2      2683      2445      2686      2687
 -1      6518    3    0    2
 -2       647       753      1109      2686
 -1      6519    3    0    2
 -2       647      1109      1110      2686
 -1      6520    3    0    2
 -2      1107      1110      1109      2687
 -1      6521    3    0    2
 -2      2444      1107      2686      2687
 -1      6522    3    0    2
 -2       170      1640       169      3585
 -1      6523    3    0    1
 -2       421      2096      2190      1579
 -1      6524    3    0    1
 -2      2002      2009      2168      3404
 -1      6525    3    0    1
 -2      1856      2075      2094      2690
 -1      6526    3    0    1
 -2       271      2016      2190      1579
 -1      6527    3    0    1
 -2      2179      3235      3860      3878
 -1      6528    3    0    1
 -2      1926      3231      3280      3428
 -1      6529    3    0    1
 -2      1870      1664      2050      3337
 -1      6530    3    0    1
 -2       545      1749      2779      3419
 -1      6531    3    0    2
 -2      2402      1149      2744      1150
 -1      6532    3    0    1
 -2      1108       526      3456      3766
 -1      6533    3    0    1
 -2       985       418      3333      3735
 -1      6534    3    0    1
 -2      1948       654      2512      1133
 -1      6535    3    0    1
 -2      1751      3126      3709      3781
 -1      6536    3    0    1
 -2      2764       685      1176      3807
 -1      6537    3    0    1
 -2      2075      1817      2094      2690
 -1      6538    3    0    2
 -2       500      1112       587      2470
 -1      6539    3    0    1
 -2      3857      2355      3335      3459
 -1      6540    3    0    1
 -2       880      3329      3713      3857
 -1      6541    3    0    2
 -2       500      1112      2470      1111
 -1      6542    3    0    2
 -2       527      1380      2773      1379
 -1      6543    3    0    1
 -2      3754      3713      3812      3857
 -1      6544    3    0    2
 -2      2243      1250      1249      2876
 -1      6545    3    0    2
 -2      3092      3094      3096      3098
 -1      6546    3    0    2
 -2       424      1464      3107       736
 -1      6547    3    0    1
 -2      2599      2200      2217      3205
 -1      6548    3    0    2
 -2      3102       736      3105      3107
 -1      6549    3    0    2
 -2      3093      3095      3102      3107
 -1      6550    3    0    2
 -2      2286      2688      2689      3111
 -1      6551    3    0    2
 -2      2287      2286      3106      3111
 -1      6552    3    0    1
 -2      3712      2615      3746      3871
 -1      6553    3    0    1
 -2      3387      2135      3723      3742
 -1      6554    3    0    2
 -2       736      3107      3110      1464
 -1      6555    3    0    2
 -2      3093      3102      3105      3107
 -1      6556    3    0    1
 -2      3188      2199      3720      3767
 -1      6557    3    0    1
 -2      3320      2220      3705      3480
 -1      6558    3    0    2
 -2      2428      2457      1332      2458
 -1      6559    3    0    2
 -2       708      2316      1009      2691
 -1      6560    3    0    1
 -2      2069      2253       951      2695
 -1      6561    3    0    2
 -2       708      1010       786      2691
 -1      6562    3    0    2
 -2      1010       708      1009      2691
 -1      6563    3    0    2
 -2      1068      2692      2316      1067
 -1      6564    3    0    2
 -2      2691      2692      1068       806
 -1      6565    3    0    1
 -2      1541      2449      2034      2340
 -1      6566    3    0    2
 -2      1068       435       806      2692
 -1      6567    3    0    2
 -2       435      1068      1067      2692
 -1      6568    3    0    2
 -2       952       412       951      2695
 -1      6569    3    0    1
 -2      2138      3040      3692      3452
 -1      6570    3    0    2
 -2      2379      2695      1515      1516
 -1      6571    3    0    2
 -2      2693       261      1645      2694
 -1      6572    3    0    2
 -2      2697      2693      1625      1626
 -1      6573    3    0    2
 -2       412       952       740      2695
 -1      6574    3    0    2
 -2      2252       740       952      2695
 -1      6575    3    0    1
 -2       701      1546      3813      3870
 -1      6576    3    0    2
 -2      2871       295      1625      1626
 -1      6577    3    0    1
 -2      2187       261      2694      1646
 -1      6578    3    0    2
 -2      2698      2694      1645      1646
 -1      6579    3    0    2
 -2       626      2698      1645      1646
 -1      6580    3    0    2
 -2      1153      1154      2745      2746
 -1      6581    3    0    1
 -2      2045       626      2187      2698
 -1      6582    3    0    2
 -2      2738      2737      2740      2741
 -1      6583    3    0    1
 -2      1612      2461      2069       378
 -1      6584    3    0    1
 -2      2162       243      2247      3328
 -1      6585    3    0    2
 -2       693      2851      2854      2858
 -1      6586    3    0    1
 -2      1864      2187      2694      2698
 -1      6587    3    0    2
 -2      2697      2694      1645      2698
 -1      6588    3    0    1
 -2      3333       985      3735      3736
 -1      6589    3    0    1
 -2      1864      2045      2187      2698
 -1      6590    3    0    2
 -2      2697      2698      1645       713
 -1      6591    3    0    2
 -2      2737      2700      2738      2739
 -1      6592    3    0    2
 -2      2850      1126      2852      2854
 -1      6593    3    0    2
 -2       108      1290      2884       186
 -1      6594    3    0    2
 -2       949      2848      2852      2856
 -1      6595    3    0    2
 -2      2734      2732      1145      1146
 -1      6596    3    0    1
 -2      3836      3513      3852      3917
 -1      6597    3    0    2
 -2      1144      2735      2736      2737
 -1      6598    3    0    1
 -2      2537      3833      1021      2550
 -1      6599    3    0    2
 -2      2851      2847      2854      2858
 -1      6600    3    0    1
 -2       708      2106      1331      3523
 -1      6601    3    0    1
 -2      2303       373      2701      3733
 -1      6602    3    0    1
 -2      2025      2202      1312      3347
 -1      6603    3    0    1
 -2      1826       170      3620      3925
 -1      6604    3    0    1
 -2      3504      3422      3794      3902
 -1      6605    3    0    1
 -2      2630       683      1082      3795
 -1      6606    3    0    1
 -2      1846      1990      2215      3656
 -1      6607    3    0    1
 -2      1927       262      2144      1119
 -1      6608    3    0    2
 -2      2882      1292      2889      2894
 -1      6609    3    0    2
 -2      2384       373      2701      2702
 -1      6610    3    0    2
 -2      2343      2344      3083      3085
 -1      6611    3    0    2
 -2      2701      2302       373      2303
 -1      6612    3    0    1
 -2      2144       692      2420      2711
 -1      6613    3    0    2
 -2      2469      2404      1159      1160
 -1      6614    3    0    1
 -2       106      1139      2728      3846
 -1      6615    3    0    2
 -2      1288       411      2888      2891
 -1      6616    3    0    1
 -2      2255      2869      3473      3894
 -1      6617    3    0    1
 -2      2267      2677      2684      3714
 -1      6618    3    0    1
 -2      2184      1936       957      2997
 -1      6619    3    0    1
 -2      2010       692      2144      2711
 -1      6620    3    0    1
 -2      2056       252      2210      3392
 -1      6621    3    0    2
 -2      2245      1058      1057      2703
 -1      6622    3    0    2
 -2       684      2245      1057      2703
 -1      6623    3    0    2
 -2       676      3351      1619      1620
 -1      6624    3    0    2
 -2       361      1224      2805      1223
 -1      6625    3    0    2
 -2       684      1058       760      2703
 -1      6626    3    0    2
 -2      1058       684      1057      2703
 -1      6627    3    0    2
 -2       709      2404      2703      2704
 -1      6628    3    0    2
 -2      2703      2704      1396       709
 -1      6629    3    0    1
 -2       190       932      2482      3769
 -1      6630    3    0    2
 -2      2383      2384      2863      2865
 -1      6631    3    0    1
 -2       628      1794      2357      1561
 -1      6632    3    0    2
 -2       587       500      2470      1227
 -1      6633    3    0    2
 -2       769      3353      3359      3365
 -1      6634    3    0    1
 -2      1792       520      1185      3276
 -1      6635    3    0    1
 -2      1928      2076      2215      3924
 -1      6636    3    0    2
 -2      2858      1121      1256      2862
 -1      6637    3    0    2
 -2      2384      2383      2702      2865
 -1      6638    3    0    2
 -2      2862      2383      2863      2864
 -1      6639    3    0    2
 -2      2863      1122      2864      1258
 -1      6640    3    0    1
 -2      2033      3785      3643      3900
 -1      6641    3    0    1
 -2      1029      2560      1032      3746
 -1      6642    3    0    1
 -2      1711      3180      3336      3839
 -1      6643    3    0    1
 -2      1150       375      3711      3844
 -1      6644    3    0    2
 -2      3364      1493      3367      3368
 -1      6645    3    0    2
 -2      1318      2918      2923      2929
 -1      6646    3    0    2
 -2      2707      2804       361      2805
 -1      6647    3    0    2
 -2      2239      2240      2917      2926
 -1      6648    3    0    2
 -2      2707       361      2708      1647
 -1      6649    3    0    1
 -2      3769       190      3906      3910
 -1      6650    3    0    1
 -2       395      2161      1309      1648
 -1      6651    3    0    2
 -2      2751       395      1647      1648
 -1      6652    3    0    2
 -2      2708      2751      1647      1648
 -1      6653    3    0    2
 -2      2848      2849      2856      2860
 -1      6654    3    0    1
 -2      2324      2551      3685      3729
 -1      6655    3    0    1
 -2      1886      2040      2133      2709
 -1      6656    3    0    1
 -2      3703      3778      3553      3839
 -1      6657    3    0    1
 -2      1915      2040      2077      2709
 -1      6658    3    0    1
 -2      2040      1915      2133      2709
 -1      6659    3    0    1
 -2      1103       245      2667      3772
 -1      6660    3    0    2
 -2      1120       692       750      2710
 -1      6661    3    0    2
 -2       692      1120      1119      2710
 -1      6662    3    0    2
 -2      2711      2710      1598       748
 -1      6663    3    0    2
 -2      2333      2710       964      2334
 -1      6664    3    0    2
 -2       964      2333       963      2711
 -1      6665    3    0    2
 -2      2248       545      2780      1278
 -1      6666    3    0    2
 -2      2710      2711       964       748
 -1      6667    3    0    2
 -2       646       964       963      2711
 -1      6668    3    0    1
 -2      2024      2348      2825       919
 -1      6669    3    0    2
 -2       964       646       748      2711
 -1      6670    3    0    2
 -2      2377       670      1231      1232
 -1      6671    3    0    1
 -2       557       555      2197      1232
 -1      6672    3    0    2
 -2      2712      2713      1231       604
 -1      6673    3    0    1
 -2      1986       669      2531      1127
 -1      6674    3    0    1
 -2      1986      2436      2458      1127
 -1      6675    3    0    1
 -2       286      1986      2458      1127
 -1      6676    3    0    2
 -2      2268      1130      1129       705
 -1      6677    3    0    2
 -2       286      1128      2458       314
 -1      6678    3    0    2
 -2       669      1128       808      2531
 -1      6679    3    0    1
 -2      2675      2678      3764      3772
 -1      6680    3    0    2
 -2       286      1128      1127      2458
 -1      6681    3    0    2
 -2       705      1130       820      2269
 -1      6682    3    0    1
 -2      1181       524      3567      3912
 -1      6683    3    0    1
 -2      1915      2133      2709      3763
 -1      6684    3    0    1
 -2      3754      2128      3529      3812
 -1      6685    3    0    1
 -2      1690      1705      1712      3178
 -1      6686    3    0    1
 -2      2190       421      1579      3474
 -1      6687    3    0    1
 -2      2884      1288      2891      3716
 -1      6688    3    0    2
 -2      2445       636      1635      1636
 -1      6689    3    0    2
 -2       644      2442      1627      1628
 -1      6690    3    0    1
 -2      2094      1830      2690      3464
 -1      6691    3    0    1
 -2      2081      2195       837      3552
 -1      6692    3    0    1
 -2        37       121      3739      3858
 -1      6693    3    0    1
 -2       421      2190      1638      3474
 -1      6694    3    0    1
 -2      1579       421      3409      3474
 -1      6695    3    0    1
 -2      3409       421      1638      3474
 -1      6696    3    0    2
 -2      2417       520      1627      1628
 -1      6697    3    0    1
 -2      1944      3498      3500      3791
 -1      6698    3    0    1
 -2      1288      2884      1290      3716
 -1      6699    3    0    1
 -2      2094      1856      3403      3475
 -1      6700    3    0    1
 -2      2439       978      2488      3783
 -1      6701    3    0    1
 -2      3442      3813      3864      3870
 -1      6702    3    0    1
 -2      1176       685      3744      3807
 -1      6703    3    0    1
 -2      3380      3452      3762      3895
 -1      6704    3    0    1
 -2      1969       381      3729      3474
 -1      6705    3    0    1
 -2       381      1969      3730      3474
 -1      6706    3    0    1
 -2      2197      1443      3697      3584
 -1      6707    3    0    1
 -2      2075       381      1638      3474
 -1      6708    3    0    2
 -2      1131      2467      2473      1132
 -1      6709    3    0    2
 -2      2467      1131      2473      2468
 -1      6710    3    0    2
 -2       508      1610       607      2712
 -1      6711    3    0    1
 -2      1774      2369      3340      3819
 -1      6712    3    0    1
 -2      2174       656      1189      3281
 -1      6713    3    0    1
 -2      2207      3285      3852      3889
 -1      6714    3    0    1
 -2      1237      1305      2910      3780
 -1      6715    3    0    2
 -2       367      1536      1535      2416
 -1      6716    3    0    2
 -2       404      1536       673      2443
 -1      6717    3    0    1
 -2       546      2192      1588      3708
 -1      6718    3    0    1
 -2      1065       546      2784      3708
 -1      6719    3    0    1
 -2      1672      3343      3576      3897
 -1      6720    3    0    1
 -2       661      1749      2079      3234
 -1      6721    3    0    1
 -2       661       660      1749      3234
 -1      6722    3    0    2
 -2       547      2474      2475      1585
 -1      6723    3    0    1
 -2      1471      1155      3817      3853
 -1      6724    3    0    1
 -2      1668      1835      2052      3559
 -1      6725    3    0    2
 -2      1135      1136      2725      2726
 -1      6726    3    0    2
 -2      3092      3094      3105      3108
 -1      6727    3    0    2
 -2      1142       741      2729      2731
 -1      6728    3    0    1
 -2      2195       640      3176      1609
 -1      6729    3    0    2
 -2      2700      1141      2729      2731
 -1      6730    3    0    2
 -2       527      1260      1259      2773
 -1      6731    3    0    2
 -2      2723      2727      2732      2734
 -1      6732    3    0    1
 -2      1661      2802      3749      3761
 -1      6733    3    0    2
 -2      2718      2720      2730      2733
 -1      6734    3    0    2
 -2      2718      2719      2727      2730
 -1      6735    3    0    2
 -2       375       575      2740      2741
 -1      6736    3    0    1
 -2      2522      2518      3753      3895
 -1      6737    3    0    2
 -2       741      1141      2729       697
 -1      6738    3    0    2
 -2      2720       833      2722      2724
 -1      6739    3    0    2
 -2      1136      1135      2722      2724
 -1      6740    3    0    2
 -2       697      1135      2725      2726
 -1      6741    3    0    2
 -2      1510       903      1509      3204
 -1      6742    3    0    2
 -2       697       741      2723      2729
 -1      6743    3    0    1
 -2      3772      2170      3860      3911
 -1      6744    3    0    2
 -2      2739      2742      2744      2745
 -1      6745    3    0    2
 -2      2723       697      2719      2726
 -1      6746    3    0    2
 -2      2699      2700      2723      2729
 -1      6747    3    0    1
 -2      2076      1968      2773      3319
 -1      6748    3    0    1
 -2      1113        59      3702      3893
 -1      6749    3    0    1
 -2      2463      2076      2773      3319
 -1      6750    3    0    2
 -2      2718      2720      2721      2722
 -1      6751    3    0    2
 -2      3102       736      3107      3110
 -1      6752    3    0    2
 -2      2718      2720      2722      2725
 -1      6753    3    0    2
 -2       833       834      2722      2724
 -1      6754    3    0    2
 -2      1136        53      1135      2724
 -1      6755    3    0    2
 -2        53       110       833      2724
 -1      6756    3    0    2
 -2       110      1136      2722      2724
 -1      6757    3    0    2
 -2        53      1136       110      2724
 -1      6758    3    0    2
 -2       834       110      2722      2724
 -1      6759    3    0    2
 -2       833       110       834      2724
 -1      6760    3    0    1
 -2      1470       630      3141      3776
 -1      6761    3    0    1
 -2      2915      2918      3723      3822
 -1      6762    3    0    1
 -2       703      2221      3735      3777
 -1      6763    3    0    2
 -2      2718      2719      2723      2727
 -1      6764    3    0    2
 -2      2727      2718      2730      2733
 -1      6765    3    0    2
 -2      2700      2699      1141      2731
 -1      6766    3    0    2
 -2       413      1146      2732       744
 -1      6767    3    0    2
 -2      2721      1138      2728      2733
 -1      6768    3    0    2
 -2      2700      2699      2734      2735
 -1      6769    3    0    1
 -2      2163      1888      1367      3179
 -1      6770    3    0    1
 -2      2199      2163      1367      3179
 -1      6771    3    0    2
 -2      1136      2722      2725      2726
 -1      6772    3    0    2
 -2      2700      2719      2723      2729
 -1      6773    3    0    2
 -2      2719      2718      2723      2726
 -1      6774    3    0    2
 -2      2719       697      2725      2726
 -1      6775    3    0    2
 -2      1135       741      1136      2726
 -1      6776    3    0    2
 -2       697       741      1135      2726
 -1      6777    3    0    2
 -2      1138       744      2730      2733
 -1      6778    3    0    2
 -2      1141      1142      2729      2731
 -1      6779    3    0    2
 -2      2699      2700      2729      2731
 -1      6780    3    0    2
 -2      2719      2718      2720      2730
 -1      6781    3    0    2
 -2      2738      2737      2739      2740
 -1      6782    3    0    2
 -2      2463      1260      2773      1259
 -1      6783    3    0    1
 -2       527      2076      2773      1259
 -1      6784    3    0    1
 -2      3175      3698      3702      3532
 -1      6785    3    0    2
 -2      1142      1141      2699      2731
 -1      6786    3    0    2
 -2      3094      3096      3099      3100
 -1      6787    3    0    2
 -2      1115      1116      1461      3104
 -1      6788    3    0    2
 -2      1139      2721      1140      2728
 -1      6789    3    0    2
 -2       732      3095      3097      1461
 -1      6790    3    0    2
 -2       106      1138      1137      2728
 -1      6791    3    0    2
 -2      1140       106      1139      2728
 -1      6792    3    0    2
 -2      1138       107      2721      2728
 -1      6793    3    0    2
 -2      1138       106       107      2728
 -1      6794    3    0    2
 -2      2721       107      1140      2728
 -1      6795    3    0    2
 -2       106      1140       107      2728
 -1      6796    3    0    2
 -2       741      1141      1142      2729
 -1      6797    3    0    1
 -2      2124      1910      2997      3779
 -1      6798    3    0    1
 -2        43      1897      1934      3187
 -1      6799    3    0    2
 -2      2699      2736      2737      2741
 -1      6800    3    0    2
 -2      1137       744       413      2730
 -1      6801    3    0    2
 -2       744      2732      2734      1146
 -1      6802    3    0    2
 -2       744      1137      1138      2730
 -1      6803    3    0    2
 -2      1148       375      2740      2741
 -1      6804    3    0    2
 -2      1143      1144      2735      2736
 -1      6805    3    0    2
 -2      2719      2723      2727      2732
 -1      6806    3    0    2
 -2       744       413      2730      2732
 -1      6807    3    0    2
 -2      2727       744      2730      2732
 -1      6808    3    0    2
 -2       413      1146      1145      2732
 -1      6809    3    0    2
 -2      2720      2718      2721      2733
 -1      6810    3    0    2
 -2      1137      1138      2730      2733
 -1      6811    3    0    2
 -2      1138      1137      2728      2733
 -1      6812    3    0    2
 -2      2728      1137      2730      2733
 -1      6813    3    0    2
 -2      2720      2728      2730      2733
 -1      6814    3    0    2
 -2      2720      2721      2728      2733
 -1      6815    3    0    1
 -2      1949      1708      1970      3625
 -1      6816    3    0    1
 -2       527      2156      2215      1259
 -1      6817    3    0    2
 -2      2735      2700      2736      2737
 -1      6818    3    0    2
 -2      2402      1149      2401      2744
 -1      6819    3    0    2
 -2      2719      2723      2732      2734
 -1      6820    3    0    2
 -2      2737      1148      2740      2741
 -1      6821    3    0    2
 -2      2699      2734      2735      2736
 -1      6822    3    0    1
 -2      2076      2463      2773      1259
 -1      6823    3    0    2
 -2      2700      2699      2736      2737
 -1      6824    3    0    2
 -2      2732      2734      1145      2735
 -1      6825    3    0    2
 -2      2700      2699      2737      2738
 -1      6826    3    0    1
 -2      3494      3640      3662      3918
 -1      6827    3    0    1
 -2      3027      1968      3695      3319
 -1      6828    3    0    2
 -2      1145      2734      1146      2735
 -1      6829    3    0    2
 -2      2732      2719      2734      2735
 -1      6830    3    0    2
 -2      2719      2700      2723      2735
 -1      6831    3    0    2
 -2      2723      2700      2734      2735
 -1      6832    3    0    2
 -2      2719      2723      2734      2735
 -1      6833    3    0    2
 -2      1143      1144      1145      2735
 -1      6834    3    0    2
 -2      2310      2309       875      3025
 -1      6835    3    0    2
 -2      1143      1145      1146      2735
 -1      6836    3    0    2
 -2      1146      1143      2735      2736
 -1      6837    3    0    2
 -2      2734      1146      2735      2736
 -1      6838    3    0    2
 -2      2738      2739      2742      2743
 -1      6839    3    0    2
 -2      2740      2739      2743      2744
 -1      6840    3    0    2
 -2       626       713      2698      1149
 -1      6841    3    0    2
 -2      2744      1149       375      1150
 -1      6842    3    0    1
 -2       184      3718      3806      3614
 -1      6843    3    0    1
 -2      1141      1951      3197      3373
 -1      6844    3    0    1
 -2      3727      3230      3779      3897
 -1      6845    3    0    2
 -2      2737      1144      1148      2741
 -1      6846    3    0    1
 -2      3383      3434      3817      3820
 -1      6847    3    0    1
 -2       626      2045      2089      1150
 -1      6848    3    0    2
 -2      1148      1143      1147      2741
 -1      6849    3    0    1
 -2      1897        43      2133      3187
 -1      6850    3    0    2
 -2       575      2738      2740      2741
 -1      6851    3    0    1
 -2      3230      3727      3779      3780
 -1      6852    3    0    1
 -2      3434      3383      3757      3820
 -1      6853    3    0    2
 -2      1143      1144      2736      2741
 -1      6854    3    0    2
 -2      2700      2699      2738      2739
 -1      6855    3    0    2
 -2      2736      1144      2737      2741
 -1      6856    3    0    2
 -2      2699      2700      1141      2739
 -1      6857    3    0    2
 -2      1141      1142      2699      2739
 -1      6858    3    0    1
 -2      1418       853      3061      3841
 -1      6859    3    0    1
 -2       962       420      3408      3798
 -1      6860    3    0    2
 -2      2699       573      2738      2739
 -1      6861    3    0    2
 -2      2699      2737      2738      2741
 -1      6862    3    0    2
 -2       573      2699      1142      2739
 -1      6863    3    0    2
 -2      1142       529       573      2739
 -1      6864    3    0    2
 -2       529      1142      1141      2739
 -1      6865    3    0    2
 -2       575       375      1147      2741
 -1      6866    3    0    2
 -2      1143      1148      1144      2741
 -1      6867    3    0    2
 -2      1147       375      1148      2741
 -1      6868    3    0    2
 -2      2463      1260      1259       648
 -1      6869    3    0    2
 -2      2698       626      1149      1150
 -1      6870    3    0    2
 -2      2402      2697      1149      2698
 -1      6871    3    0    2
 -2       375      2740      2743      2744
 -1      6872    3    0    2
 -2      2401      2697      1151      1152
 -1      6873    3    0    2
 -2      2742      2401      2745      2746
 -1      6874    3    0    1
 -2      3703      1141      3711      3458
 -1      6875    3    0    2
 -2       527      1260      2773       571
 -1      6876    3    0    2
 -2      3351      3350      3357      3360
 -1      6877    3    0    2
 -2       375       575      1149      2743
 -1      6878    3    0    1
 -2       929      2352      1987       665
 -1      6879    3    0    2
 -2      2744      1149      2401      2743
 -1      6880    3    0    2
 -2      2401      2402      2745      2746
 -1      6881    3    0    2
 -2      2739      2742      2743      2744
 -1      6882    3    0    2
 -2      1154      2742      2745      2746
 -1      6883    3    0    2
 -2      2279      1070      2843      2278
 -1      6884    3    0    2
 -2      2742      2401      2743      2744
 -1      6885    3    0    1
 -2      3131      3128      3137      3820
 -1      6886    3    0    2
 -2       696      1152      1151      2697
 -1      6887    3    0    2
 -2      2402      2401      2697      1151
 -1      6888    3    0    2
 -2       696      2402      2697      1151
 -1      6889    3    0    1
 -2      1141      1951      3458      3478
 -1      6890    3    0    2
 -2      2402      2401      1151      2746
 -1      6891    3    0    2
 -2      2402      1151      2745      2746
 -1      6892    3    0    2
 -2       696      1152      2697       742
 -1      6893    3    0    2
 -2      1151      1153      2745      2746
 -1      6894    3    0    2
 -2      1154      1151      1152      2746
 -1      6895    3    0    2
 -2      1151      2401      1152      2746
 -1      6896    3    0    2
 -2       529      1154       573      2742
 -1      6897    3    0    2
 -2      1123      1124      3352      3354
 -1      6898    3    0    2
 -2      2742       529      1153      2745
 -1      6899    3    0    2
 -2      2401      2402      2744      2745
 -1      6900    3    0    2
 -2      2742      2401      2744      2745
 -1      6901    3    0    2
 -2      1154      2742      1153      2745
 -1      6902    3    0    2
 -2       828      2625      2749      1566
 -1      6903    3    0    1
 -2      2028       630      2102      1470
 -1      6904    3    0    2
 -2      3147      2748       589      2747
 -1      6905    3    0    2
 -2      1151      1154      1153      2746
 -1      6906    3    0    1
 -2       658      1890      1948      2749
 -1      6907    3    0    2
 -2      2749      2625      1565      1566
 -1      6908    3    0    2
 -2      2392      2391      1055      2747
 -1      6909    3    0    2
 -2      2391       497      1055      2747
 -1      6910    3    0    2
 -2      2392      1055      1056      2747
 -1      6911    3    0    1
 -2      3238      3249      3254      3728
 -1      6912    3    0    2
 -2      3128      3131      3133      3140
 -1      6913    3    0    2
 -2      1056       497       591      2747
 -1      6914    3    0    2
 -2       497      1056      1055      2747
 -1      6915    3    0    2
 -2       909       502       910      2748
 -1      6916    3    0    2
 -2       589       502       909      2748
 -1      6917    3    0    2
 -2      2748      2747       909       589
 -1      6918    3    0    1
 -2       532      2011      3708      3824
 -1      6919    3    0    2
 -2      3127      3128      3130      3137
 -1      6920    3    0    1
 -2      1960       380      2031      1556
 -1      6921    3    0    2
 -2      2749      2750      1556       419
 -1      6922    3    0    1
 -2      2384      2863      2865      3758
 -1      6923    3    0    1
 -2      1681      1984      3518      3557
 -1      6924    3    0    1
 -2      3040      3199      3691      3692
 -1      6925    3    0    2
 -2      2913      2914      2920      2925
 -1      6926    3    0    1
 -2      3093      3097      3112      3706
 -1      6927    3    0    2
 -2      1321      1322      2931      2932
 -1      6928    3    0    1
 -2      2344      3078      3083      3689
 -1      6929    3    0    2
 -2      2229       772      2493      1500
 -1      6930    3    0    2
 -2       427      1508       811      2236
 -1      6931    3    0    1
 -2      3778      3515      3553      3839
 -1      6932    3    0    1
 -2      1401      1075      3695      3908
 -1      6933    3    0    2
 -2      3030      1403      3032      3034
 -1      6934    3    0    2
 -2      1413      1428      1414      3060
 -1      6935    3    0    1
 -2       684      1730      2247      1159
 -1      6936    3    0    2
 -2       498      1316      2804      1315
 -1      6937    3    0    2
 -2      2751      2752      1313       631
 -1      6938    3    0    1
 -2      2247      1730      2403      1159
 -1      6939    3    0    2
 -2      2404      2403      2469      1159
 -1      6940    3    0    2
 -2      1159      2703      2704       684
 -1      6941    3    0    2
 -2       684      1160      1159      2703
 -1      6942    3    0    2
 -2      2617       560      2754      2755
 -1      6943    3    0    1
 -2      2411      2240      2933      3828
 -1      6944    3    0    2
 -2       506      1160       584      2469
 -1      6945    3    0    2
 -2       684      1160      2703       760
 -1      6946    3    0    1
 -2      3298      3296      3307      3705
 -1      6947    3    0    1
 -2       955      3797      3879      3887
 -1      6948    3    0    2
 -2      1053      2307      1054      3183
 -1      6949    3    0    1
 -2      1075       272      3695      3908
 -1      6950    3    0    1
 -2       531      1888      1053      3183
 -1      6951    3    0    2
 -2       531      1368      1367      3183
 -1      6952    3    0    2
 -2      1054       531      1053      3183
 -1      6953    3    0    1
 -2      1622       676      3742      3743
 -1      6954    3    0    2
 -2      2465      2466      1368      3183
 -1      6955    3    0    1
 -2      1748      1690      1961      3178
 -1      6956    3    0    2
 -2      3022      2623      3026      3027
 -1      6957    3    0    1
 -2       384       541      2098      3799
 -1      6958    3    0    2
 -2      2756      2757      2760      2763
 -1      6959    3    0    1
 -2      3008      2148      3707      3745
 -1      6960    3    0    2
 -2      2418      2419      2890      1629
 -1      6961    3    0    2
 -2      2757       685      2756      2760
 -1      6962    3    0    2
 -2      1064      2758      2761      2765
 -1      6963    3    0    1
 -2      1288       411      3716      3759
 -1      6964    3    0    2
 -2      1166      1165      2765      2766
 -1      6965    3    0    1
 -2      2025      2202      3347      3471
 -1      6966    3    0    1
 -2       677      2048      2095      1497
 -1      6967    3    0    2
 -2      2762      2757      2763      2768
 -1      6968    3    0    2
 -2       685      2758      2756      1163
 -1      6969    3    0    1
 -2       999      2515      2518      3753
 -1      6970    3    0    2
 -2       124      1171      1172      1174
 -1      6971    3    0    2
 -2       764       633      2768      2769
 -1      6972    3    0    2
 -2       685      1164      2756       759
 -1      6973    3    0    2
 -2      1063      1064      2761      1169
 -1      6974    3    0    2
 -2      2451      2450      2764      2771
 -1      6975    3    0    2
 -2      2450      2451      1168      2771
 -1      6976    3    0    2
 -2      3127      3130      3135      3136
 -1      6977    3    0    1
 -2      3376       981      3413      3783
 -1      6978    3    0    1
 -2       981      2439      2490      3783
 -1      6979    3    0    2
 -2      2451      1111      1112      2770
 -1      6980    3    0    2
 -2      2761      1063      1169      1170
 -1      6981    3    0    1
 -2      3405      2207      3529      3812
 -1      6982    3    0    1
 -2      2619      3684      3787      3528
 -1      6983    3    0    2
 -2      2756       685       759      2760
 -1      6984    3    0    2
 -2      2451      2450      2760      2764
 -1      6985    3    0    1
 -2       402      2515       999      3753
 -1      6986    3    0    1
 -2      2048       677      2331      1497
 -1      6987    3    0    1
 -2      1205        49      1434      3694
 -1      6988    3    0    2
 -2      2450      2469      1167      1168
 -1      6989    3    0    2
 -2      3130      1393      3135      3136
 -1      6990    3    0    1
 -2      3068      1205      1434      3694
 -1      6991    3    0    2
 -2      1064      2761      1169      2765
 -1      6992    3    0    2
 -2      2768      2757      2769      2770
 -1      6993    3    0    2
 -2       506      1168      2469       584
 -1      6994    3    0    1
 -2      2159      2276      3198      3639
 -1      6995    3    0    1
 -2      1372      1320      1620      3742
 -1      6996    3    0    1
 -2       396      1223      3379      3749
 -1      6997    3    0    1
 -2      3177      3471      3637      3638
 -1      6998    3    0    2
 -2       506      1168      1167      2469
 -1      6999    3    0    1
 -2      1497      2493       677      2331
 -1      7000    3    0    2
 -2      2758      2756      2759      2761
 -1      7001    3    0    2
 -2      2758      2757      2756      2762
 -1      7002    3    0    1
 -2      1223       396      3369      3749
 -1      7003    3    0    2
 -2      2760      2764      1175      2771
 -1      7004    3    0    2
 -2      2762       764      2763      2766
 -1      7005    3    0    2
 -2      1166       764      2762      2766
 -1      7006    3    0    2
 -2      2758      2761      2765      2766
 -1      7007    3    0    2
 -2      2419      2418      2461      1629
 -1      7008    3    0    2
 -2      1165      2762      2765      2766
 -1      7009    3    0    2
 -2      2762      2758      2765      2766
 -1      7010    3    0    2
 -2      1166       633      1165      2762
 -1      7011    3    0    2
 -2       633      1166       764      2762
 -1      7012    3    0    2
 -2      2759      1171      1173      1174
 -1      7013    3    0    2
 -2      1172      1171      2759      1174
 -1      7014    3    0    2
 -2      1063      2759      1173      1174
 -1      7015    3    0    1
 -2      3640      3494      3673      3925
 -1      7016    3    0    1
 -2       557      1942      2091      1601
 -1      7017    3    0    1
 -2      2048       242      2095      1497
 -1      7018    3    0    2
 -2       764      2762      2763      2768
 -1      7019    3    0    2
 -2      2757      2756      2762      2763
 -1      7020    3    0    2
 -2      2614      2613      3134      3144
 -1      7021    3    0    2
 -2       759      2760      2764      1175
 -1      7022    3    0    2
 -2      2763       764      2768      2769
 -1      7023    3    0    2
 -2      2757      2760      2763      2769
 -1      7024    3    0    2
 -2      2450      2451      2760      2769
 -1      7025    3    0    2
 -2       685       759      2760      2764
 -1      7026    3    0    2
 -2      3129      3134      3139      3141
 -1      7027    3    0    2
 -2      2764       685      1175      1176
 -1      7028    3    0    1
 -2       508      1942      1606      3533
 -1      7029    3    0    1
 -2      1778      1741      2093      3581
 -1      7030    3    0    2
 -2       374      1630      2461       572
 -1      7031    3    0    2
 -2      1169      2761      1170      2765
 -1      7032    3    0    2
 -2       126      1166      1165      2765
 -1      7033    3    0    2
 -2      1170       126      1169      2765
 -1      7034    3    0    2
 -2      1166       128      2761      2765
 -1      7035    3    0    2
 -2      1166       126       128      2765
 -1      7036    3    0    2
 -2      2761       128      1170      2765
 -1      7037    3    0    2
 -2       126      1170       128      2765
 -1      7038    3    0    2
 -2      1165      1166      2762      2766
 -1      7039    3    0    2
 -2      2760      2451      2764      2771
 -1      7040    3    0    2
 -2       677      1498       775      2494
 -1      7041    3    0    2
 -2       124       127      1171      1173
 -1      7042    3    0    2
 -2      2230      2229      2290      1497
 -1      7043    3    0    2
 -2       242      1498      1497      2290
 -1      7044    3    0    2
 -2      1171      2759      1173      2767
 -1      7045    3    0    2
 -2      1171      1172      2759      2767
 -1      7046    3    0    2
 -2      2758      2756      1163      2767
 -1      7047    3    0    2
 -2      2758      1064      2759      2767
 -1      7048    3    0    2
 -2      2759      1064      1173      2767
 -1      7049    3    0    2
 -2      1163      1172      1171      2767
 -1      7050    3    0    2
 -2      1164      2756      2759      2767
 -1      7051    3    0    2
 -2      1164      2759      1172      2767
 -1      7052    3    0    2
 -2      1172      1163      1164      2767
 -1      7053    3    0    2
 -2      2450      2451      2769      2770
 -1      7054    3    0    1
 -2      1111      2469      3752      2450
 -1      7055    3    0    1
 -2       402       995      2517      3753
 -1      7056    3    0    2
 -2      2757      2450      2760      2770
 -1      7057    3    0    1
 -2      2058      1111      3090      3752
 -1      7058    3    0    2
 -2       680       765      3134      3144
 -1      7059    3    0    2
 -2       685       759      2764      1175
 -1      7060    3    0    2
 -2       764       633      2769      2770
 -1      7061    3    0    2
 -2       633      1112      1111      2770
 -1      7062    3    0    2
 -2      2451      1112      2769      2770
 -1      7063    3    0    2
 -2      1112       764      2769      2770
 -1      7064    3    0    2
 -2      1112       633       764      2770
 -1      7065    3    0    2
 -2      2992      2288      1385      1386
 -1      7066    3    0    1
 -2       242      2048      2331      1497
 -1      7067    3    0    1
 -2      1320      1158      3723      3742
 -1      7068    3    0    1
 -2      3275      2135      3387      3742
 -1      7069    3    0    1
 -2      3355      3350      3366      3749
 -1      7070    3    0    2
 -2      2450      1167      2764      2771
 -1      7071    3    0    2
 -2      1167      2450      1168      2771
 -1      7072    3    0    2
 -2      1175      2764      1176      2771
 -1      7073    3    0    2
 -2      2764      1167      1176      2771
 -1      7074    3    0    2
 -2      1167      1168      1175      2771
 -1      7075    3    0    2
 -2      1167      1175      1176      2771
 -1      7076    3    0    2
 -2       771      1177      3131       630
 -1      7077    3    0    2
 -2      1162      2463      2464      2772
 -1      7078    3    0    1
 -2      2863      2384      3732      3758
 -1      7079    3    0    2
 -2      2463      1162      1161      2772
 -1      7080    3    0    2
 -2       537      2463      1161      2772
 -1      7081    3    0    2
 -2       537      1162       569      2772
 -1      7082    3    0    2
 -2      1162       537      1161      2772
 -1      7083    3    0    1
 -2       537      1968      2463      2773
 -1      7084    3    0    1
 -2      1968       537      2076      2773
 -1      7085    3    0    2
 -2      2772      2773      1260       571
 -1      7086    3    0    1
 -2      2449       864      2034      2319
 -1      7087    3    0    2
 -2      2614      2613      3145      3146
 -1      7088    3    0    1
 -2      1863      3695      3539      3908
 -1      7089    3    0    1
 -2       272      1863      3539      3908
 -1      7090    3    0    1
 -2      3774       835      3822      3660
 -1      7091    3    0    2
 -2      3132      1472      3140      1475
 -1      7092    3    0    1
 -2      2039      2097      3882      3662
 -1      7093    3    0    1
 -2      2641        36      3879      3922
 -1      7094    3    0    1
 -2      1823      1833      1873      2774
 -1      7095    3    0    2
 -2      1178       771      3131      3133
 -1      7096    3    0    1
 -2      1549      1265      3257      3803
 -1      7097    3    0    1
 -2      1833      1681      1906      2774
 -1      7098    3    0    1
 -2      2039      3607      3875      3882
 -1      7099    3    0    1
 -2      1323        47      3822      3660
 -1      7100    3    0    1
 -2      3803      1265      3669      3670
 -1      7101    3    0    1
 -2      1546       701      3570      3870
 -1      7102    3    0    1
 -2      3005      3451      3759      3488
 -1      7103    3    0    1
 -2      1410      3699      3770      3841
 -1      7104    3    0    2
 -2       747      2835      2840      1245
 -1      7105    3    0    1
 -2      2849      2848      2853      3710
 -1      7106    3    0    1
 -2      2279      1179      2845      3784
 -1      7107    3    0    1
 -2       690      2169      2303      1181
 -1      7108    3    0    2
 -2      2279      2278      1179      2775
 -1      7109    3    0    2
 -2       523      2279      1179      2775
 -1      7110    3    0    2
 -2      2303      2302      2422      1181
 -1      7111    3    0    1
 -2       152      1894      1015      3831
 -1      7112    3    0    2
 -2       523      1180       579      2775
 -1      7113    3    0    2
 -2      1180       523      1179      2775
 -1      7114    3    0    2
 -2      2333       964       963      2776
 -1      7115    3    0    2
 -2      1070      2776      2279      1069
 -1      7116    3    0    2
 -2      2227      1062      2606      1061
 -1      7117    3    0    2
 -2      2775      2776      1070       577
 -1      7118    3    0    2
 -2       964       522       963      2776
 -1      7119    3    0    2
 -2      2776      2775       964       577
 -1      7120    3    0    2
 -2       522       964       577      2776
 -1      7121    3    0    2
 -2      2451      1111      2770      2450
 -1      7122    3    0    2
 -2      1070       522       577      2776
 -1      7123    3    0    2
 -2       522      1070      1069      2776
 -1      7124    3    0    2
 -2       690      1182      1181      2422
 -1      7125    3    0    2
 -2       524      1182       576      2701
 -1      7126    3    0    1
 -2      2295      1948      1133      2777
 -1      7127    3    0    1
 -2      1948       268      1133      2777
 -1      7128    3    0    2
 -2       690      1182      2422       746
 -1      7129    3    0    1
 -2      2163      2425       993      2779
 -1      7130    3    0    2
 -2       268      1134      1133      2777
 -1      7131    3    0    2
 -2       319      2294      1134      2777
 -1      7132    3    0    2
 -2      1134       268       319      2777
 -1      7133    3    0    2
 -2      2425      2424       993      2779
 -1      7134    3    0    2
 -2      2777      2294       275      2778
 -1      7135    3    0    1
 -2      1749      2163      2249      2779
 -1      7136    3    0    1
 -2       545      1749      2249      2779
 -1      7137    3    0    1
 -2       852      1483      3763      3855
 -1      7138    3    0    2
 -2      2424       994       993      2779
 -1      7139    3    0    2
 -2      2781      2782      3038      3039
 -1      7140    3    0    2
 -2      2424       563       994      2779
 -1      7141    3    0    2
 -2       379       994       563      2779
 -1      7142    3    0    2
 -2       994       379       993      2779
 -1      7143    3    0    2
 -2       650       733      2621      2781
 -1      7144    3    0    2
 -2      2779      2248       545      2780
 -1      7145    3    0    2
 -2      2620       650      2621      2781
 -1      7146    3    0    2
 -2       687       781      3164      3165
 -1      7147    3    0    2
 -2      2618      2617      2755      1183
 -1      7148    3    0    2
 -2       733      1408      1407      3035
 -1      7149    3    0    2
 -2      3037      2310      3038      3039
 -1      7150    3    0    2
 -2      3035       733      3036      1407
 -1      7151    3    0    1
 -2      2959       880      3329      3713
 -1      7152    3    0    1
 -2      2959      2956      2962      3720
 -1      7153    3    0    1
 -2      1372      3351      3362      3771
 -1      7154    3    0    2
 -2       530      1184      1183      2755
 -1      7155    3    0    2
 -2       530      1184      2755       560
 -1      7156    3    0    1
 -2      2914      2240      2922      3691
 -1      7157    3    0    1
 -2      1185      2416      3785       520
 -1      7158    3    0    2
 -2      2262      1185      2263      3166
 -1      7159    3    0    2
 -2      2417      2416      1185       520
 -1      7160    3    0    2
 -2       520      1186      1185      2417
 -1      7161    3    0    2
 -2       520      1186      2417       596
 -1      7162    3    0    1
 -2      2174       656      2393      1189
 -1      7163    3    0    1
 -2      3468      3683      3795      3797
 -1      7164    3    0    1
 -2      2016       271      2393      3117
 -1      7165    3    0    2
 -2       656      1190       727      2611
 -1      7166    3    0    2
 -2      1190      2393      2611      1189
 -1      7167    3    0    1
 -2      3107      3093      3112      3706
 -1      7168    3    0    1
 -2      3534      1881      1765      1958
 -1      7169    3    0    1
 -2      1353       384      3124      3799
 -1      7170    3    0    1
 -2       627      1612      3399      3672
 -1      7171    3    0    2
 -2      1354       425      1353      2946
 -1      7172    3    0    2
 -2      2396      2426      1353      1354
 -1      7173    3    0    1
 -2      3126      1751      3709      3721
 -1      7174    3    0    2
 -2      2941      2397      2946      2947
 -1      7175    3    0    1
 -2      2849      2847      2859      3710
 -1      7176    3    0    2
 -2      2393      3116       926      3117
 -1      7177    3    0    1
 -2       662       983      3298      3705
 -1      7178    3    0    1
 -2      3296      3298      3305      3705
 -1      7179    3    0    1
 -2      1191      2978      2346      1973
 -1      7180    3    0    1
 -2       640       397      3816      3535
 -1      7181    3    0    1
 -2      1973       430      2099      1191
 -1      7182    3    0    2
 -2      2345      2346      2459      1191
 -1      7183    3    0    2
 -2       566      2349      1066      2784
 -1      7184    3    0    2
 -2      1066       546       566      2784
 -1      7185    3    0    2
 -2       546      1066      1065      2784
 -1      7186    3    0    2
 -2      1072       532      1071      2785
 -1      7187    3    0    1
 -2      2346      1973      2459      1191
 -1      7188    3    0    1
 -2      2161       501      1201      3495
 -1      7189    3    0    2
 -2       281       315      2459      1191
 -1      7190    3    0    2
 -2      3589      2508      3590      3591
 -1      7191    3    0    2
 -2      2431      2430      3592      3593
 -1      7192    3    0    1
 -2       501      2161      1309      3495
 -1      7193    3    0    1
 -2      2132      2434      3388      3495
 -1      7194    3    0    1
 -2       501      2434      1201      3495
 -1      7195    3    0    1
 -2      2161      2209      1309      3495
 -1      7196    3    0    1
 -2      1211      1218      3789      3617
 -1      7197    3    0    2
 -2      2715      2716      3604      3605
 -1      7198    3    0    1
 -2       423       656      2065      3883
 -1      7199    3    0    2
 -2      2791      1197      2792      2793
 -1      7200    3    0    2
 -2       762       634      2790      2796
 -1      7201    3    0    2
 -2      1196       761      2798      2799
 -1      7202    3    0    2
 -2      1195      1196      2798      2799
 -1      7203    3    0    2
 -2      2788      2791      2792      2793
 -1      7204    3    0    2
 -2      2786      2788      2798      2799
 -1      7205    3    0    1
 -2      2160      3450      3808      3836
 -1      7206    3    0    2
 -2      2791      2786      2792      2796
 -1      7207    3    0    2
 -2       634      1197      2792      2796
 -1      7208    3    0    2
 -2      2786      2788      2789      2791
 -1      7209    3    0    2
 -2       284      1540      1539      2457
 -1      7210    3    0    2
 -2      2333      2775      1599      1600
 -1      7211    3    0    1
 -2      1762      1773      2068      3502
 -1      7212    3    0    2
 -2      2786      2787      2788      2792
 -1      7213    3    0    2
 -2       924       923      2791      2793
 -1      7214    3    0    2
 -2      1198      1197      2791      2793
 -1      7215    3    0    1
 -2      2616      3453      3797      3887
 -1      7216    3    0    1
 -2      1404       265      3756      3920
 -1      7217    3    0    2
 -2      2434      2605      1201      1202
 -1      7218    3    0    2
 -2      2954      2356      1340      2955
 -1      7219    3    0    2
 -2      2790       634      2787      2796
 -1      7220    3    0    2
 -2      2788       924      2791      2793
 -1      7221    3    0    2
 -2      2787      2786      2790      2796
 -1      7222    3    0    2
 -2       923        37       924      2789
 -1      7223    3    0    2
 -2      2786      2787      2792      2796
 -1      7224    3    0    2
 -2      2321      2447      1311      1312
 -1      7225    3    0    2
 -2       924       923      2789      2791
 -1      7226    3    0    2
 -2      2788       924      2789      2791
 -1      7227    3    0    2
 -2      1198      2791      2792      2796
 -1      7228    3    0    2
 -2      2789      1196      2794      2799
 -1      7229    3    0    2
 -2       924      2788      2789      2794
 -1      7230    3    0    2
 -2      1200      1199      2789      2794
 -1      7231    3    0    2
 -2      2434      2435      1202      2800
 -1      7232    3    0    2
 -2      2786      2787      2790      2795
 -1      7233    3    0    2
 -2        37      1200      1199      2789
 -1      7234    3    0    2
 -2        37      1200      2789       125
 -1      7235    3    0    2
 -2      1197      1198      2791      2792
 -1      7236    3    0    2
 -2      2447       246      1311      1312
 -1      7237    3    0    1
 -2        65      3335      3857      3635
 -1      7238    3    0    1
 -2      2461       374      3451      3786
 -1      7239    3    0    1
 -2       501       361      2161      1201
 -1      7240    3    0    1
 -2      2167      2102      3439      3826
 -1      7241    3    0    1
 -2      3801        64      3803      3670
 -1      7242    3    0    2
 -2       129       130      1197      2793
 -1      7243    3    0    2
 -2       129       924       130      2793
 -1      7244    3    0    2
 -2       129      1198      2791      2793
 -1      7245    3    0    2
 -2       129      1197      1198      2793
 -1      7246    3    0    2
 -2       923       129      2791      2793
 -1      7247    3    0    2
 -2       924       129       923      2793
 -1      7248    3    0    1
 -2      2683      2283      3764      3878
 -1      7249    3    0    2
 -2        37       924      2789      2794
 -1      7250    3    0    2
 -2      1200      1195      1199      2794
 -1      7251    3    0    2
 -2      2789      1196      1200      2794
 -1      7252    3    0    2
 -2      1195      1200      1196      2794
 -1      7253    3    0    2
 -2      1196      1195      2794      2799
 -1      7254    3    0    2
 -2       761      2795      2798      2799
 -1      7255    3    0    2
 -2      2788      2786      2789      2799
 -1      7256    3    0    2
 -2      2795      2786      2798      2799
 -1      7257    3    0    2
 -2      2435      2434      2797      2800
 -1      7258    3    0    2
 -2       634      1198      1197      2796
 -1      7259    3    0    2
 -2       758       682      2354      1311
 -1      7260    3    0    2
 -2       264      1308       299      2669
 -1      7261    3    0    2
 -2       501      2434      2605      1201
 -1      7262    3    0    2
 -2      2786      2787      2795      2798
 -1      7263    3    0    2
 -2       501      1202      1201      2605
 -1      7264    3    0    1
 -2      2998      3198      3774      3639
 -1      7265    3    0    2
 -2       635      2227      2353      1309
 -1      7266    3    0    1
 -2      3177      2025      3772      3637
 -1      7267    3    0    1
 -2      1223      2804      3838      2706
 -1      7268    3    0    2
 -2       634      1202       762      2797
 -1      7269    3    0    2
 -2       763       635      2353      1309
 -1      7270    3    0    2
 -2      2790      2435      2797      2800
 -1      7271    3    0    1
 -2       628      2356      2357      1203
 -1      7272    3    0    2
 -2      1196       681      1195      2798
 -1      7273    3    0    2
 -2      1201      1202      2797      2800
 -1      7274    3    0    2
 -2       762      2790      2797      2800
 -1      7275    3    0    2
 -2       681      1196       761      2798
 -1      7276    3    0    2
 -2      2788      2794      2798      2799
 -1      7277    3    0    2
 -2      2788      2789      2794      2799
 -1      7278    3    0    2
 -2      2434      1201      2797      2800
 -1      7279    3    0    2
 -2      1201      2434      1202      2800
 -1      7280    3    0    1
 -2      2583      2256      3700      3722
 -1      7281    3    0    2
 -2      2434      2801      1467      1468
 -1      7282    3    0    2
 -2      2787      2434      2790      2801
 -1      7283    3    0    2
 -2      2434      2435      2790      2801
 -1      7284    3    0    2
 -2      2787      2790      2795      2801
 -1      7285    3    0    2
 -2      2435       761      2795      2801
 -1      7286    3    0    2
 -2      2790      2435      2795      2801
 -1      7287    3    0    1
 -2       665      2131       929      1203
 -1      7288    3    0    1
 -2       665       628      2131      1203
 -1      7289    3    0    1
 -2      2645      2267      2684      3714
 -1      7290    3    0    2
 -2      2356       619      2427      1203
 -1      7291    3    0    2
 -2       619       386      2427      1203
 -1      7292    3    0    2
 -2       434       805      3072      3078
 -1      7293    3    0    2
 -2      3117      3116       926       291
 -1      7294    3    0    1
 -2      1757      2064      3563      3609
 -1      7295    3    0    1
 -2        99       936      2550      3833
 -1      7296    3    0    2
 -2      3116      3117      1583       291
 -1      7297    3    0    1
 -2      3742      3394      3743      3771
 -1      7298    3    0    1
 -2       676      1620      3742      3771
 -1      7299    3    0    1
 -2      2195       837      3552      3865
 -1      7300    3    0    1
 -2      2059      3200      3721      3530
 -1      7301    3    0    1
 -2       130      1197      2793      2802
 -1      7302    3    0    1
 -2      3349      1124      3362      3719
 -1      7303    3    0    1
 -2      1173       127      3693      3740
 -1      7304    3    0    1
 -2      3547      1294      3896      3663
 -1      7305    3    0    1
 -2      1064      2758      2765      3693
 -1      7306    3    0    1
 -2       959      1357      3812      3635
 -1      7307    3    0    2
 -2       690      1390      2422      1389
 -1      7308    3    0    1
 -2      3019      3695      3811      3890
 -1      7309    3    0    1
 -2      1520       706      3701      3836
 -1      7310    3    0    2
 -2      2301       264      2669      1307
 -1      7311    3    0    1
 -2       635      2209      2227      1309
 -1      7312    3    0    2
 -2      1511      1616      3354      1512
 -1      7313    3    0    1
 -2       127      1171      1173      3693
 -1      7314    3    0    1
 -2      1920       136      1922      3497
 -1      7315    3    0    2
 -2      2804      2705      1223      2805
 -1      7316    3    0    2
 -2      2604      2806      2807      2813
 -1      7317    3    0    2
 -2       138        44      2820      2823
 -1      7318    3    0    2
 -2      2809      1216      2814      2816
 -1      7319    3    0    2
 -2      2603      2604      2806      2807
 -1      7320    3    0    2
 -2      2314      2313      2806      2807
 -1      7321    3    0    1
 -2      1220      3751      3790      3791
 -1      7322    3    0    1
 -2      3808      2942      3809      3917
 -1      7323    3    0    1
 -2      3181      1301      3201      3293
 -1      7324    3    0    2
 -2      1208      2818      2820      2823
 -1      7325    3    0    2
 -2      2604      2813      2817      2819
 -1      7326    3    0    2
 -2      2821      2603      2822      2824
 -1      7327    3    0    1
 -2       136      2822      1222      3751
 -1      7328    3    0    2
 -2      2314      2313      1210      2812
 -1      7329    3    0    2
 -2      1208      1215      2816      2818
 -1      7330    3    0    1
 -2       372      2811      3469      3789
 -1      7331    3    0    1
 -2       136      1920      2410      3791
 -1      7332    3    0    2
 -2      2604      2819      2821      2822
 -1      7333    3    0    1
 -2      2391      2115      2748      3849
 -1      7334    3    0    1
 -2      2606       503      1467      3388
 -1      7335    3    0    1
 -2      1218       408      3789      3790
 -1      7336    3    0    2
 -2      2314      2806      2808      2812
 -1      7337    3    0    2
 -2      2806       678      2808      2812
 -1      7338    3    0    2
 -2      2313      1209      1210      2812
 -1      7339    3    0    2
 -2      2313      2806      2807      2808
 -1      7340    3    0    2
 -2      2807       779      2810      2815
 -1      7341    3    0    1
 -2      1936      1910      3270      3503
 -1      7342    3    0    1
 -2      3284      3717      3751      3789
 -1      7343    3    0    2
 -2      2806      2807      2808      2809
 -1      7344    3    0    1
 -2       499      2178      1059      2825
 -1      7345    3    0    2
 -2      1213      1214      2822      1221
 -1      7346    3    0    2
 -2      1213      1214      2821      2822
 -1      7347    3    0    2
 -2      2314      2313      2807      2815
 -1      7348    3    0    2
 -2       779      2807      2810      2813
 -1      7349    3    0    1
 -2       509      2035      1335      3376
 -1      7350    3    0    1
 -2      2717      1817      3696      3375
 -1      7351    3    0    1
 -2      2819      1213      2822      3751
 -1      7352    3    0    1
 -2      2997      1295      3779      3503
 -1      7353    3    0    1
 -2      2102      2095      2167      3436
 -1      7354    3    0    1
 -2      1425      1410      3770      3636
 -1      7355    3    0    1
 -2       185      3517      3815      3618
 -1      7356    3    0    1
 -2      2390      3208      3218      3701
 -1      7357    3    0    1
 -2      2024      2825      2178      2811
 -1      7358    3    0    1
 -2       919      2825      2811       372
 -1      7359    3    0    1
 -2       919      2811      2024       372
 -1      7360    3    0    1
 -2      3571      3856      3620      3904
 -1      7361    3    0    2
 -2       779       408      2810      1217
 -1      7362    3    0    1
 -2       499      1670      2178      2825
 -1      7363    3    0    2
 -2      2821      2822      1221      2824
 -1      7364    3    0    2
 -2      1211      2314      2810      2815
 -1      7365    3    0    2
 -2      2313      2314      1211      2815
 -1      7366    3    0    2
 -2      1220      1219      2817      2819
 -1      7367    3    0    2
 -2      2806      2314      2807      2815
 -1      7368    3    0    2
 -2      2810       779      1217      2815
 -1      7369    3    0    2
 -2      2807      2806      2810      2813
 -1      7370    3    0    2
 -2      2603      2604      2807      2813
 -1      7371    3    0    1
 -2      1944      1897      3499      3500
 -1      7372    3    0    1
 -2      2813       408      3751      3789
 -1      7373    3    0    1
 -2      1897      1944      3498      3500
 -1      7374    3    0    1
 -2      2813      2604      3717      3751
 -1      7375    3    0    1
 -2      3201      2175      3292      3293
 -1      7376    3    0    1
 -2      3497      1897      3498      3500
 -1      7377    3    0    1
 -2      2181      2084      2276      3470
 -1      7378    3    0    2
 -2      2604      2603      2809      2814
 -1      7379    3    0    2
 -2       678      2806      2809      2814
 -1      7380    3    0    2
 -2      2603      2604      2817      2819
 -1      7381    3    0    2
 -2       774       678      2809      2814
 -1      7382    3    0    2
 -2       779      2807      2813      2817
 -1      7383    3    0    2
 -2       678      1216      1215      2814
 -1      7384    3    0    2
 -2      2807      2603      2813      2817
 -1      7385    3    0    2
 -2       137       136      2822      1221
 -1      7386    3    0    2
 -2       408      2813      1220      2817
 -1      7387    3    0    2
 -2       774      2809      1216      2814
 -1      7388    3    0    2
 -2      1216       678       774      2814
 -1      7389    3    0    2
 -2      2810      1217      1218      2815
 -1      7390    3    0    2
 -2      1211      2810      1218      2815
 -1      7391    3    0    2
 -2      1212      1211      1217      2815
 -1      7392    3    0    2
 -2      1217      1211      1218      2815
 -1      7393    3    0    2
 -2      1216      1215      2814      2816
 -1      7394    3    0    1
 -2      2009      2002      3420      3543
 -1      7395    3    0    2
 -2      2604      2603      2818      2820
 -1      7396    3    0    2
 -2      1207      1208      2816      2818
 -1      7397    3    0    2
 -2      2604      2603      2816      2818
 -1      7398    3    0    1
 -2      2024      2825      2811       919
 -1      7399    3    0    1
 -2       509       981      3001      3376
 -1      7400    3    0    1
 -2      1220      1213      2819      3751
 -1      7401    3    0    2
 -2      1207      1215      1216      2816
 -1      7402    3    0    2
 -2      1207      1208      1215      2816
 -1      7403    3    0    2
 -2      2603      2816      2818      2820
 -1      7404    3    0    2
 -2       408       779      2813      2817
 -1      7405    3    0    1
 -2      2469      2450      3423      3441
 -1      7406    3    0    2
 -2      2816      1207      2818      2820
 -1      7407    3    0    2
 -2      2819      1213      2821      2822
 -1      7408    3    0    2
 -2       779       408      1219      2817
 -1      7409    3    0    2
 -2      1219       408      1220      2817
 -1      7410    3    0    2
 -2      2603      2604      2821      2822
 -1      7411    3    0    1
 -2      2324      2555      3729      3730
 -1      7412    3    0    1
 -2      1027       547      2556      3730
 -1      7413    3    0    2
 -2      1213      1214      2819      2821
 -1      7414    3    0    2
 -2      1209      2313      1210      2825
 -1      7415    3    0    2
 -2      3348      3349      3352      3356
 -1      7416    3    0    1
 -2      2178      2348      1059      2825
 -1      7417    3    0    2
 -2      2817      2603      2819      2821
 -1      7418    3    0    1
 -2      3751      3284      3789      3790
 -1      7419    3    0    2
 -2      1207      1208      2818      2820
 -1      7420    3    0    2
 -2       138        44      1207      2820
 -1      7421    3    0    2
 -2      1214      2821      2822      1221
 -1      7422    3    0    2
 -2      1207        44      1208      2820
 -1      7423    3    0    2
 -2      1219      2817      2819      2821
 -1      7424    3    0    2
 -2      1214      1219      2819      2821
 -1      7425    3    0    2
 -2        44      1208      2820      2823
 -1      7426    3    0    2
 -2      2603      2604      2819      2821
 -1      7427    3    0    2
 -2      2818      2604      2820      2823
 -1      7428    3    0    1
 -2       500      2111      3090      3441
 -1      7429    3    0    1
 -2      2247      2403      3423      3441
 -1      7430    3    0    1
 -2      1910      1936      2997      3503
 -1      7431    3    0    1
 -2      1378      1283      3475      3773
 -1      7432    3    0    1
 -2      2410       136      3751      3792
 -1      7433    3    0    1
 -2      1618      1124      3354      3719
 -1      7434    3    0    2
 -2       136      2822      1221      1222
 -1      7435    3    0    2
 -2      2822      1213      1221      1222
 -1      7436    3    0    2
 -2        44       914       913      2823
 -1      7437    3    0    2
 -2       914       138      2820      2823
 -1      7438    3    0    2
 -2       914        44       138      2823
 -1      7439    3    0    1
 -2      2038      2017      3292      3293
 -1      7440    3    0    2
 -2      2603      2820      2823      2824
 -1      7441    3    0    2
 -2      2822       137      1221      2824
 -1      7442    3    0    2
 -2       913      2822      2823      2824
 -1      7443    3    0    2
 -2       914       913      2823      2824
 -1      7444    3    0    2
 -2      2604      2603      2823      2824
 -1      7445    3    0    2
 -2      2603      2604      2822      2824
 -1      7446    3    0    2
 -2      2822      2604      2823      2824
 -1      7447    3    0    2
 -2       136       137      2822      2824
 -1      7448    3    0    2
 -2       913       136      2822      2824
 -1      7449    3    0    2
 -2       136       914       137      2824
 -1      7450    3    0    2
 -2       914       136       913      2824
 -1      7451    3    0    2
 -2      1059      2347      1060      2825
 -1      7452    3    0    1
 -2       528      2689      3111      3842
 -1      7453    3    0    2
 -2      2705      2804      1223      2706
 -1      7454    3    0    2
 -2       499      1209      1210      2825
 -1      7455    3    0    2
 -2      2347       592      1060      2825
 -1      7456    3    0    2
 -2       499      1060       592      2825
 -1      7457    3    0    2
 -2       592      2313      1209      2825
 -1      7458    3    0    2
 -2       499       592      1209      2825
 -1      7459    3    0    2
 -2      1060       499      1059      2825
 -1      7460    3    0    2
 -2       361      1224       590      2805
 -1      7461    3    0    2
 -2       372       920       919      2826
 -1      7462    3    0    2
 -2      1212       372      1211      2826
 -1      7463    3    0    1
 -2       136      1920      1922      2827
 -1      7464    3    0    2
 -2       770       629      2597      1225
 -1      7465    3    0    1
 -2      2486      2481      3715      3748
 -1      7466    3    0    1
 -2      1811      2218      2381      1226
 -1      7467    3    0    1
 -2       629      1811      2381      1226
 -1      7468    3    0    1
 -2      1811       629      2218      1226
 -1      7469    3    0    2
 -2       629      2381      2597      1226
 -1      7470    3    0    2
 -2      2597      2381      1225      1226
 -1      7471    3    0    2
 -2       629      2597      1225      1226
 -1      7472    3    0    1
 -2      2002      1947      3420      3543
 -1      7473    3    0    2
 -2       632       709      2704      1227
 -1      7474    3    0    2
 -2      2470      2469      1228       500
 -1      7475    3    0    2
 -2      2404      2469      1228      2470
 -1      7476    3    0    2
 -2       500      2470      1227      1228
 -1      7477    3    0    1
 -2      2403      2247      2704      1228
 -1      7478    3    0    1
 -2      2247       632      2704      1228
 -1      7479    3    0    1
 -2      2827      1920      3502      3792
 -1      7480    3    0    1
 -2        44      2827      3502      3792
 -1      7481    3    0    1
 -2       913        44      2823      3792
 -1      7482    3    0    1
 -2      1922      2068      1920      2067
 -1      7483    3    0    1
 -2      2068      1922      1920      2827
 -1      7484    3    0    1
 -2      1689      1922      2068      2827
 -1      7485    3    0    1
 -2      1773      1689      2068      2827
 -1      7486    3    0    1
 -2      1604      2828      2061      2336
 -1      7487    3    0    1
 -2      1436      1205      3697      3584
 -1      7488    3    0    1
 -2      1738       287      2112      1229
 -1      7489    3    0    1
 -2       438      1738      2112      1229
 -1      7490    3    0    2
 -2      2828      2829      1604       248
 -1      7491    3    0    2
 -2      2828      2335      1604      2829
 -1      7492    3    0    2
 -2      2375       905       906      2829
 -1      7493    3    0    2
 -2      2829      2828       905       248
 -1      7494    3    0    2
 -2      2375      2828       905      2829
 -1      7495    3    0    2
 -2       248       312       905      2829
 -1      7496    3    0    2
 -2       905       312       906      2829
 -1      7497    3    0    2
 -2      2376      1230      1229      2828
 -1      7498    3    0    1
 -2      2376      2112      2828      1229
 -1      7499    3    0    1
 -2      2112       287      2828      1229
 -1      7500    3    0    2
 -2       287      1230       311      2828
 -1      7501    3    0    2
 -2      3075      1443      1444      3080
 -1      7502    3    0    1
 -2      1942       557      2197      1232
 -1      7503    3    0    2
 -2      2713      2377      1231      1232
 -1      7504    3    0    2
 -2       557      2713      1231      1232
 -1      7505    3    0    1
 -2      2195       670      2377      1232
 -1      7506    3    0    1
 -2      1942      2195      2377      1232
 -1      7507    3    0    1
 -2       670      2195      2197      1232
 -1      7508    3    0    1
 -2      1942      2377      2713      1232
 -1      7509    3    0    1
 -2       557      1942      2713      1232
 -1      7510    3    0    1
 -2      2195      1942      2197      1232
 -1      7511    3    0    1
 -2      1994      2231      2291      1233
 -1      7512    3    0    1
 -2       259      1994      2291      1233
 -1      7513    3    0    2
 -2      2231      1234      2291      1233
 -1      7514    3    0    2
 -2       259      1234      1233      2291
 -1      7515    3    0    2
 -2       259      1234      2291       306
 -1      7516    3    0    1
 -2      2976      2056      2141      2977
 -1      7517    3    0    2
 -2      3206      3210      3212      3214
 -1      7518    3    0    1
 -2       375      1148      2740      3703
 -1      7519    3    0    1
 -2      3174      2084      3739      3484
 -1      7520    3    0    2
 -2       360      1236       593      2411
 -1      7521    3    0    2
 -2      2896      1297      2899      2910
 -1      7522    3    0    2
 -2      2836      2831      2839      2842
 -1      7523    3    0    2
 -2      2902      1237      1305      2910
 -1      7524    3    0    1
 -2      2402       696      2698      3802
 -1      7525    3    0    1
 -2      2541      2537      2543      3696
 -1      7526    3    0    1
 -2      3683      2630      3724      3795
 -1      7527    3    0    1
 -2      2001      2090      3505      3793
 -1      7528    3    0    1
 -2      1664      3332      3726      3623
 -1      7529    3    0    1
 -2      1020       704      2539      3696
 -1      7530    3    0    2
 -2      2896      2899      2900      2902
 -1      7531    3    0    1
 -2      3272      1023      3731      3674
 -1      7532    3    0    2
 -2       112      1244       116      2833
 -1      7533    3    0    1
 -2      1439       161      3750      3506
 -1      7534    3    0    1
 -2      3684       402      3753      3804
 -1      7535    3    0    1
 -2      2156       527      2215      3656
 -1      7536    3    0    1
 -2      1795      1967      2001      3793
 -1      7537    3    0    2
 -2      1240       751      2836      2841
 -1      7538    3    0    1
 -2      1746      2001      3505      3793
 -1      7539    3    0    2
 -2      2832       869      2833      2838
 -1      7540    3    0    2
 -2      2831      2839      2842      2844
 -1      7541    3    0    1
 -2       668      2361       883      3745
 -1      7542    3    0    2
 -2       410      1570      1569      2859
 -1      7543    3    0    1
 -2      3463      2179      3766      3878
 -1      7544    3    0    2
 -2       751      2836      2839      2842
 -1      7545    3    0    2
 -2       645       747      2830      2831
 -1      7546    3    0    2
 -2      2384       373      2702      1569
 -1      7547    3    0    2
 -2      2833       112      1243      2838
 -1      7548    3    0    2
 -2       870       112       116      2833
 -1      7549    3    0    1
 -2      1670      2825      3717      3789
 -1      7550    3    0    1
 -2      1241       645      3794      3554
 -1      7551    3    0    2
 -2       869      2832      2834      2837
 -1      7552    3    0    1
 -2      3571      1650      3630      3904
 -1      7553    3    0    2
 -2      2836       751      2839      2841
 -1      7554    3    0    2
 -2       869      2832      2833      2834
 -1      7555    3    0    1
 -2      3741      3555      3832      3886
 -1      7556    3    0    2
 -2      2832      2830      2833      2834
 -1      7557    3    0    2
 -2      2832       645      2830      2831
 -1      7558    3    0    2
 -2       112       870       869      2833
 -1      7559    3    0    2
 -2       870       869      2833      2834
 -1      7560    3    0    2
 -2       869       112      2833      2838
 -1      7561    3    0    1
 -2       683      2630      3683      3795
 -1      7562    3    0    2
 -2      2830      2832      2833      2838
 -1      7563    3    0    2
 -2      1244      2833      1243      2838
 -1      7564    3    0    2
 -2      2830      2836      2839      2841
 -1      7565    3    0    2
 -2      2839       751      2842      2844
 -1      7566    3    0    2
 -2      2383      2384      2702      1569
 -1      7567    3    0    1
 -2       542      1553      3564      3864
 -1      7568    3    0    2
 -2       411      1630      2890      1629
 -1      7569    3    0    2
 -2      1240       691      1239      2836
 -1      7570    3    0    2
 -2       645       747      2835      2840
 -1      7571    3    0    1
 -2      2144       260      2420      2877
 -1      7572    3    0    2
 -2       691      1240       751      2836
 -1      7573    3    0    2
 -2       751       691      2836      2842
 -1      7574    3    0    2
 -2      2279      1069      2840      2843
 -1      7575    3    0    1
 -2      2200      3506      3901      3324
 -1      7576    3    0    2
 -2      2830      2831      2835      2839
 -1      7577    3    0    2
 -2       409      1250      2423       712
 -1      7578    3    0    1
 -2      2148      3088      3726      3745
 -1      7579    3    0    1
 -2      1810      3517      3583      3893
 -1      7580    3    0    2
 -2       870       869      2834      2837
 -1      7581    3    0    2
 -2      1239      1240      2834      2837
 -1      7582    3    0    2
 -2       113       187       869      2837
 -1      7583    3    0    2
 -2       187       113      1239      2837
 -1      7584    3    0    2
 -2       113       870      2834      2837
 -1      7585    3    0    2
 -2       113       869       870      2837
 -1      7586    3    0    2
 -2      1240       113      2834      2837
 -1      7587    3    0    2
 -2      1239       113      1240      2837
 -1      7588    3    0    1
 -2      3200      3151      3721      3892
 -1      7589    3    0    1
 -2      1110      2683      2687      3878
 -1      7590    3    0    2
 -2      1241      1244      1243      2838
 -1      7591    3    0    2
 -2      1242      2830      2833      2838
 -1      7592    3    0    2
 -2      1242      2833      1244      2838
 -1      7593    3    0    2
 -2      1244      1241      1242      2838
 -1      7594    3    0    1
 -2       170      1650      3571      3620
 -1      7595    3    0    1
 -2      2586      3684      3722      3804
 -1      7596    3    0    1
 -2      3683      1978      3468      3795
 -1      7597    3    0    2
 -2      1239      1240      2836      2841
 -1      7598    3    0    2
 -2      1240      1239      2834      2841
 -1      7599    3    0    2
 -2      2830      2832      2836      2841
 -1      7600    3    0    2
 -2      2832      2830      2834      2841
 -1      7601    3    0    2
 -2      1239      2836      2837      2841
 -1      7602    3    0    2
 -2      2834      1239      2837      2841
 -1      7603    3    0    2
 -2      2836      2832      2837      2841
 -1      7604    3    0    2
 -2      2832      2834      2837      2841
 -1      7605    3    0    2
 -2       731      1578       422      2548
 -1      7606    3    0    1
 -2      1974       390      3344      3819
 -1      7607    3    0    1
 -2      3785      3232      3899      3644
 -1      7608    3    0    2
 -2      2243      1250      2423      1249
 -1      7609    3    0    1
 -2      3805      3384      3843      3895
 -1      7610    3    0    2
 -2      1179      1248      1180      2844
 -1      7611    3    0    1
 -2       509      2013      2035      3416
 -1      7612    3    0    2
 -2      2278      2279      2840      2843
 -1      7613    3    0    2
 -2      2279      1070      1069      2843
 -1      7614    3    0    2
 -2      1245      2840      1246      2843
 -1      7615    3    0    2
 -2      2840      1069      1246      2843
 -1      7616    3    0    2
 -2      1069      1070      1245      2843
 -1      7617    3    0    2
 -2      1069      1245      1246      2843
 -1      7618    3    0    2
 -2      1179      1180      2278      2844
 -1      7619    3    0    2
 -2      2844      2842      1247      1248
 -1      7620    3    0    1
 -2      2053      2144      2243      2877
 -1      7621    3    0    1
 -2       627      2069      1534      3399
 -1      7622    3    0    2
 -2      2278      2279      1179      2844
 -1      7623    3    0    2
 -2      2842      2844      1247      2845
 -1      7624    3    0    2
 -2      2831      2835      2844      2845
 -1      7625    3    0    2
 -2       751      2842      2844      1248
 -1      7626    3    0    2
 -2      2279      1179      2844      2845
 -1      7627    3    0    2
 -2       691      1248      2842       751
 -1      7628    3    0    2
 -2       691      1248      1247      2842
 -1      7629    3    0    2
 -2       409      1250      1249      2423
 -1      7630    3    0    1
 -2      2126      2069      1612      3399
 -1      7631    3    0    1
 -2        67      1651      3856      3904
 -1      7632    3    0    2
 -2      2842      2831      2844      2845
 -1      7633    3    0    2
 -2      2384      2857      2859      1569
 -1      7634    3    0    2
 -2       373      1570      2702      1569
 -1      7635    3    0    2
 -2      2384      2383      2857      1569
 -1      7636    3    0    2
 -2      2835      2831      2840      2845
 -1      7637    3    0    2
 -2      2278      2279      2844      2845
 -1      7638    3    0    2
 -2      2279      2278      2840      2845
 -1      7639    3    0    2
 -2      2840      2278      2843      2845
 -1      7640    3    0    2
 -2      2835      2840      2843      2845
 -1      7641    3    0    2
 -2      2835      2278      2844      2845
 -1      7642    3    0    2
 -2      2278      2835      2843      2845
 -1      7643    3    0    1
 -2      2169      2243      2423      1249
 -1      7644    3    0    1
 -2      2169      2053      2243      1249
 -1      7645    3    0    1
 -2       409      2053      2169      1249
 -1      7646    3    0    1
 -2       409      2169      2423      1249
 -1      7647    3    0    2
 -2      2846      2848      2850      2853
 -1      7648    3    0    2
 -2      2846      2850      2852      2854
 -1      7649    3    0    2
 -2      2384      2383      2851      2857
 -1      7650    3    0    1
 -2       682      2025      1312      3347
 -1      7651    3    0    2
 -2      2383      2384      2851      2858
 -1      7652    3    0    2
 -2      1126      1125      2850      2855
 -1      7653    3    0    2
 -2      2850      2848      2852      2855
 -1      7654    3    0    1
 -2      1419       898      3709      3847
 -1      7655    3    0    2
 -2      2848      2849      2853      2856
 -1      7656    3    0    2
 -2      2231       242      2290      1397
 -1      7657    3    0    2
 -2      1253       749      2859      2861
 -1      7658    3    0    2
 -2      2857      2849      2859      2861
 -1      7659    3    0    2
 -2      2383      2384      2858      2862
 -1      7660    3    0    2
 -2       950       949      2856      2860
 -1      7661    3    0    1
 -2      3396      3381      3740      3582
 -1      7662    3    0    2
 -2      1126      2850      2852      2855
 -1      7663    3    0    2
 -2      1126       693       745      2850
 -1      7664    3    0    2
 -2       693      1126      1125      2850
 -1      7665    3    0    1
 -2      1492      1520      3852      3917
 -1      7666    3    0    1
 -2      3177      3182      3471      3638
 -1      7667    3    0    2
 -2      2383      2384      2862      2863
 -1      7668    3    0    2
 -2      2847      2384      2857      2859
 -1      7669    3    0    2
 -2      2383      2857      1569      1570
 -1      7670    3    0    1
 -2      2095       242      2177      1397
 -1      7671    3    0    1
 -2       373      2303      1269      3733
 -1      7672    3    0    1
 -2       393       631      2177      1397
 -1      7673    3    0    2
 -2       949      2848      2856      2860
 -1      7674    3    0    1
 -2       360      2135      1503      3275
 -1      7675    3    0    2
 -2      2846      2848      2853      2856
 -1      7676    3    0    1
 -2       251      2134      1333      3401
 -1      7677    3    0    2
 -2      2847      2846      2851      2854
 -1      7678    3    0    2
 -2       745       693      2851      2854
 -1      7679    3    0    2
 -2       693       745      2850      2854
 -1      7680    3    0    2
 -2      2850      2846      2853      2854
 -1      7681    3    0    2
 -2      2847      2850      2853      2854
 -1      7682    3    0    2
 -2      2846      2847      2853      2854
 -1      7683    3    0    2
 -2       949       950      2852      2855
 -1      7684    3    0    2
 -2      1125      1252      1251      2855
 -1      7685    3    0    2
 -2      1126      2852      1252      2855
 -1      7686    3    0    2
 -2      1252      1125      1126      2855
 -1      7687    3    0    2
 -2      1252       114      1251      2855
 -1      7688    3    0    2
 -2       114       950       949      2855
 -1      7689    3    0    2
 -2      2852       115      1252      2855
 -1      7690    3    0    2
 -2       114      1252       115      2855
 -1      7691    3    0    2
 -2       950       115      2852      2855
 -1      7692    3    0    2
 -2       950       114       115      2855
 -1      7693    3    0    2
 -2      2849      2856      2860      2861
 -1      7694    3    0    2
 -2      2849      2846      2856      2861
 -1      7695    3    0    2
 -2      2846      2849      2857      2861
 -1      7696    3    0    1
 -2      2758      2765      3693      3891
 -1      7697    3    0    1
 -2      2509      3592      3594      3882
 -1      7698    3    0    1
 -2       393      1994      2177      3006
 -1      7699    3    0    1
 -2      2177       242      2331      1397
 -1      7700    3    0    1
 -2      2025      3347      3407      3829
 -1      7701    3    0    1
 -2       688      1994      1233      3196
 -1      7702    3    0    2
 -2       524      2701      2864      2865
 -1      7703    3    0    2
 -2       693       745      2851      2858
 -1      7704    3    0    2
 -2      2850       693      2854      2858
 -1      7705    3    0    2
 -2      2847      2850      2854      2858
 -1      7706    3    0    1
 -2       910      2193      3457      3849
 -1      7707    3    0    1
 -2      2758      2757      2762      3891
 -1      7708    3    0    2
 -2      1372      3351      3360      3362
 -1      7709    3    0    2
 -2      1121      1122      2862      2863
 -1      7710    3    0    2
 -2      3363      2705      3364      3367
 -1      7711    3    0    2
 -2       693       745      2858      1255
 -1      7712    3    0    2
 -2       749       410      1253      2859
 -1      7713    3    0    2
 -2      1253       410      1254      2859
 -1      7714    3    0    1
 -2      2095      2177      1313      1397
 -1      7715    3    0    2
 -2       950        70       949      2860
 -1      7716    3    0    2
 -2        70      1118      1117      2860
 -1      7717    3    0    2
 -2       117       950      2856      2860
 -1      7718    3    0    2
 -2        70       950       117      2860
 -1      7719    3    0    2
 -2      1118       117      2856      2860
 -1      7720    3    0    2
 -2      1118        70       117      2860
 -1      7721    3    0    2
 -2      1117      2849      2860      2861
 -1      7722    3    0    2
 -2      1118      1117      2860      2861
 -1      7723    3    0    2
 -2      2849      1117      1254      2861
 -1      7724    3    0    2
 -2      1254      1253      2859      2861
 -1      7725    3    0    2
 -2      2849      1254      2859      2861
 -1      7726    3    0    2
 -2      1117      1118      1253      2861
 -1      7727    3    0    2
 -2      1117      1253      1254      2861
 -1      7728    3    0    1
 -2      1968      2075      2096      3649
 -1      7729    3    0    1
 -2       928      1021      3718      3544
 -1      7730    3    0    2
 -2      1121      1122      1255      2862
 -1      7731    3    0    2
 -2      1121      1255      1256      2862
 -1      7732    3    0    2
 -2      2858      1121      2862      2863
 -1      7733    3    0    2
 -2      2384      2858      2862      2863
 -1      7734    3    0    2
 -2      3351      3349      3360      3362
 -1      7735    3    0    2
 -2      2625      1644      2626      2777
 -1      7736    3    0    2
 -2      1123      1618      1124      3354
 -1      7737    3    0    2
 -2      3350      3351      3357      3361
 -1      7738    3    0    2
 -2       524      1258      2864       576
 -1      7739    3    0    2
 -2      1122      2862      2863      2864
 -1      7740    3    0    2
 -2      1257       524      2864      2865
 -1      7741    3    0    2
 -2      2863      2864      1257      1258
 -1      7742    3    0    2
 -2      2383      2863      2864      2865
 -1      7743    3    0    1
 -2      2074      3232      3414      3448
 -1      7744    3    0    2
 -2       524      1258      1257      2864
 -1      7745    3    0    1
 -2       679      1811      2193      3568
 -1      7746    3    0    2
 -2      2864      2863      1257      2865
 -1      7747    3    0    2
 -2      2701      2702      2864      2865
 -1      7748    3    0    1
 -2      3561      2139      3832      3885
 -1      7749    3    0    1
 -2      3364      1493      3368      3838
 -1      7750    3    0    2
 -2      2702      2383      2864      2865
 -1      7751    3    0    1
 -2      2074      1934      3232      3448
 -1      7752    3    0    1
 -2      2868      3273      3804      3905
 -1      7753    3    0    1
 -2      2135      2047      1503      3275
 -1      7754    3    0    1
 -2       678      1215      3542      3826
 -1      7755    3    0    1
 -2      2084       924      3739      3796
 -1      7756    3    0    1
 -2       498       360      2047      3275
 -1      7757    3    0    1
 -2      3643      3785      3899      3900
 -1      7758    3    0    1
 -2      2052       633      1165      3487
 -1      7759    3    0    1
 -2       626      2045      1150      3711
 -1      7760    3    0    1
 -2      2047       360      1503      3275
 -1      7761    3    0    1
 -2      1661      3379      3743      3749
 -1      7762    3    0    2
 -2      3349      3356      3360      3362
 -1      7763    3    0    1
 -2       556      1774      1996      1429
 -1      7764    3    0    1
 -2      2011       382      2065      3418
 -1      7765    3    0    2
 -2      1511       769      3353      3359
 -1      7766    3    0    1
 -2      1148      1144      3703      3844
 -1      7767    3    0    1
 -2       530      2036      1271      3443
 -1      7768    3    0    2
 -2      1650      1651      3586      3588
 -1      7769    3    0    1
 -2      2942      2940      3808      3809
 -1      7770    3    0    1
 -2      2004      1995      2532      3443
 -1      7771    3    0    1
 -2      3695      2185      3756      3811
 -1      7772    3    0    1
 -2      2001      1981      3180      3515
 -1      7773    3    0    2
 -2      3013      3019      3023      3028
 -1      7774    3    0    2
 -2       658      1264      2749       828
 -1      7775    3    0    2
 -2       658      1264      1263      2749
 -1      7776    3    0    1
 -2      1953      3770      3634      3636
 -1      7777    3    0    1
 -2       286      2106      2458      3523
 -1      7778    3    0    1
 -2      3335      3405      3812      3635
 -1      7779    3    0    1
 -2       872      3295      3309      3834
 -1      7780    3    0    2
 -2       542      1264       620      2472
 -1      7781    3    0    1
 -2      1890      1948      2749      3261
 -1      7782    3    0    2
 -2      3239      3243      3244      3252
 -1      7783    3    0    2
 -2      3239      3240      3244      3250
 -1      7784    3    0    1
 -2      2175      3293      3317      3884
 -1      7785    3    0    2
 -2      1545      3247      1546      3253
 -1      7786    3    0    1
 -2      3381      1796      3740      3582
 -1      7787    3    0    2
 -2      2284       605      2455      1557
 -1      7788    3    0    2
 -2      2285      2284      2455      1557
 -1      7789    3    0    1
 -2      1812       248      1604      3574
 -1      7790    3    0    1
 -2      3739      3174      3484      3887
 -1      7791    3    0    1
 -2      1935      2032      2080      3381
 -1      7792    3    0    1
 -2      1935      1796      2032      3381
 -1      7793    3    0    1
 -2      3074      3068      3081      3741
 -1      7794    3    0    1
 -2      3019      3016      3023      3811
 -1      7795    3    0    1
 -2      1360      3371      2427       386
 -1      7796    3    0    1
 -2      1674      2022      3583      3893
 -1      7797    3    0    1
 -2      3347       638      3829      3637
 -1      7798    3    0    2
 -2       373      2303      1270      1269
 -1      7799    3    0    2
 -2      2423      1270      2303      1269
 -1      7800    3    0    2
 -2       929      2254       930      2869
 -1      7801    3    0    2
 -2      2302       373      2303      1270
 -1      7802    3    0    1
 -2      2075      2717      3729      3474
 -1      7803    3    0    1
 -2      1966       277      2874      1517
 -1      7804    3    0    2
 -2      2254       613       930      2869
 -1      7805    3    0    2
 -2       550       930       613      2869
 -1      7806    3    0    2
 -2       930       550       929      2869
 -1      7807    3    0    1
 -2       629      1811      2218      3436
 -1      7808    3    0    1
 -2      2303      2169      2423      1269
 -1      7809    3    0    1
 -2      2169       409      2423      1269
 -1      7810    3    0    2
 -2      2302       373      1270      2702
 -1      7811    3    0    1
 -2      3278      3756      3866      3920
 -1      7812    3    0    2
 -2       373      1270      2702       578
 -1      7813    3    0    2
 -2      2871      2252       951      2253
 -1      7814    3    0    2
 -2       951       952      2252      2872
 -1      7815    3    0    2
 -2      2872      2871       951       261
 -1      7816    3    0    2
 -2      2252      2871       951      2872
 -1      7817    3    0    2
 -2       952       261       296      2872
 -1      7818    3    0    2
 -2       261       952       951      2872
 -1      7819    3    0    2
 -2       652      1272      2610       718
 -1      7820    3    0    2
 -2       395      2751      1641      1642
 -1      7821    3    0    2
 -2       652      1272      1271      2610
 -1      7822    3    0    1
 -2      1313      2751      3173      2601
 -1      7823    3    0    1
 -2      2004      1869      2031      1271
 -1      7824    3    0    1
 -2      2031      1869      2087      1271
 -1      7825    3    0    1
 -2       932       980      3715      3906
 -1      7826    3    0    2
 -2       530      1272       560      2755
 -1      7827    3    0    1
 -2       844       991      3738      3632
 -1      7828    3    0    2
 -2       544      2532      2754      1273
 -1      7829    3    0    2
 -2       702      1274       715      2609
 -1      7830    3    0    2
 -2       544      1274      1273      2754
 -1      7831    3    0    1
 -2      1992       417      2249      1275
 -1      7832    3    0    1
 -2       417      1992      1053      1275
 -1      7833    3    0    2
 -2      2249       417      2270      1275
 -1      7834    3    0    2
 -2      2248      2249      2270      1275
 -1      7835    3    0    2
 -2      2249      2248      2779      1275
 -1      7836    3    0    2
 -2       379      1276      1275      2779
 -1      7837    3    0    1
 -2       379       531      2163      1275
 -1      7838    3    0    1
 -2      2163       531      1053      1275
 -1      7839    3    0    1
 -2      2163      2249      2779      1275
 -1      7840    3    0    1
 -2       379      2163      2779      1275
 -1      7841    3    0    2
 -2       417      1276      2270      1275
 -1      7842    3    0    2
 -2      2248      2779       545      2249
 -1      7843    3    0    2
 -2      1052      2250      1051      2873
 -1      7844    3    0    2
 -2      2258       842       841      2873
 -1      7845    3    0    2
 -2       267      2258       841      2873
 -1      7846    3    0    2
 -2       267       842       290      2873
 -1      7847    3    0    2
 -2      1052       267       290      2873
 -1      7848    3    0    2
 -2       842       267       841      2873
 -1      7849    3    0    2
 -2       267      1052      1051      2873
 -1      7850    3    0    2
 -2       860       277       289      2874
 -1      7851    3    0    1
 -2       546      1749      1065      1277
 -1      7852    3    0    1
 -2       546       545      1749      1277
 -1      7853    3    0    1
 -2      1749      2249      2271      1277
 -1      7854    3    0    1
 -2       660      1749      2271      1277
 -1      7855    3    0    2
 -2       545      1278       561      2780
 -1      7856    3    0    1
 -2      1955      1954      1964      2875
 -1      7857    3    0    1
 -2       508      1942      3176      1609
 -1      7858    3    0    1
 -2      2062      2058      1473      3849
 -1      7859    3    0    1
 -2      3404      3801      3647      3661
 -1      7860    3    0    2
 -2      2286      1280      2688      2287
 -1      7861    3    0    2
 -2      2286       382      2688      1279
 -1      7862    3    0    1
 -2      1187      2975      3767      3799
 -1      7863    3    0    2
 -2       382      1280       570      2688
 -1      7864    3    0    2
 -2       100      1375      1376      1381
 -1      7865    3    0    2
 -2       382      1280      2688      1279
 -1      7866    3    0    2
 -2      2980      2981      2985      2986
 -1      7867    3    0    1
 -2      1973       430      1341      3619
 -1      7868    3    0    2
 -2      1281      1382      1381      2990
 -1      7869    3    0    1
 -2      3191        59      3702      3773
 -1      7870    3    0    1
 -2       190      3581      3906      3910
 -1      7871    3    0    1
 -2      3175      3191      3702      3773
 -1      7872    3    0    1
 -2      1703      2002      2168      3404
 -1      7873    3    0    2
 -2      1282      2980      2981      2985
 -1      7874    3    0    2
 -2      1281      1382      2990      1282
 -1      7875    3    0    2
 -2       699       734      2983      2994
 -1      7876    3    0    1
 -2      1241      3793      3794      3902
 -1      7877    3    0    2
 -2       260      2243      1249      2876
 -1      7878    3    0    2
 -2      2879      2418      2886      2890
 -1      7879    3    0    2
 -2      2878      2880      2888      2891
 -1      7880    3    0    2
 -2       260      1250       297      2876
 -1      7881    3    0    2
 -2      1250       260      1249      2876
 -1      7882    3    0    2
 -2      2420      1120      1119      2877
 -1      7883    3    0    2
 -2      2420      2876      1120      2877
 -1      7884    3    0    2
 -2      1120       262      1119      2877
 -1      7885    3    0    1
 -2       941      2452      2056      2388
 -1      7886    3    0    2
 -2      2876      2877      1390       298
 -1      7887    3    0    2
 -2      2877      2876      1120       298
 -1      7888    3    0    2
 -2       262      1120       298      2877
 -1      7889    3    0    2
 -2      2878      2879      2887      2888
 -1      7890    3    0    1
 -2       393      1994      2231      1397
 -1      7891    3    0    1
 -2      2604      2806      2813      3717
 -1      7892    3    0    2
 -2      2884      1288      2885      2891
 -1      7893    3    0    2
 -2       839      2880      2881      2884
 -1      7894    3    0    2
 -2       743       416      2889      2894
 -1      7895    3    0    2
 -2       839      2880      2884      2885
 -1      7896    3    0    2
 -2      1290      1289      2884      2885
 -1      7897    3    0    2
 -2      1293      1294      2892      2895
 -1      7898    3    0    1
 -2      1994       393      2177      1397
 -1      7899    3    0    2
 -2       108      1290      1289      2884
 -1      7900    3    0    1
 -2      1083       955      3879      3887
 -1      7901    3    0    1
 -2      1215      2814      2818      3717
 -1      7902    3    0    2
 -2       840       839      2881      2884
 -1      7903    3    0    2
 -2      2880      2878      2881      2884
 -1      7904    3    0    1
 -2       408      2810      1218      3789
 -1      7905    3    0    2
 -2      1294       416      2892      2895
 -1      7906    3    0    2
 -2       378       574      2462      1293
 -1      7907    3    0    2
 -2      2887      2878      2888      2891
 -1      7908    3    0    1
 -2      2314      2806      3717      3789
 -1      7909    3    0    1
 -2      1208      1215      2818      3717
 -1      7910    3    0    2
 -2       694      1298      1297      2896
 -1      7911    3    0    2
 -2       839       840      2881      2883
 -1      7912    3    0    2
 -2       109       111      1285      2883
 -1      7913    3    0    2
 -2       111       109       839      2883
 -1      7914    3    0    2
 -2       109      1285      1286      2883
 -1      7915    3    0    2
 -2       839       109       840      2883
 -1      7916    3    0    1
 -2      1944      2082      2811      3790
 -1      7917    3    0    1
 -2      2466      1367      3183      3767
 -1      7918    3    0    2
 -2      1398      2231      2290      1397
 -1      7919    3    0    2
 -2       108       840       186      2884
 -1      7920    3    0    1
 -2      3832      3863      3631      3886
 -1      7921    3    0    2
 -2       840       108       839      2884
 -1      7922    3    0    2
 -2      2418      2461      1294      2419
 -1      7923    3    0    1
 -2       522      2912      3507      3800
 -1      7924    3    0    2
 -2      1285      1286      2881      2893
 -1      7925    3    0    2
 -2      1289       108      2884      2885
 -1      7926    3    0    2
 -2       108       839      2884      2885
 -1      7927    3    0    2
 -2      1290      1287      1289      2885
 -1      7928    3    0    2
 -2      1287      1290      1288      2885
 -1      7929    3    0    2
 -2      2880      2878      2882      2893
 -1      7930    3    0    2
 -2       411      2887      2888      2891
 -1      7931    3    0    2
 -2      2886      2879      2889      2894
 -1      7932    3    0    1
 -2      1210      2314      2812      3717
 -1      7933    3    0    1
 -2      1220       408      3499      3790
 -1      7934    3    0    1
 -2      1215       678      2814      3717
 -1      7935    3    0    1
 -2      2515       402      2517      3753
 -1      7936    3    0    2
 -2      2878      2880      2881      2893
 -1      7937    3    0    2
 -2      2419       411      2887      2890
 -1      7938    3    0    2
 -2       411       739      2888      2890
 -1      7939    3    0    1
 -2      2814      2604      2818      3717
 -1      7940    3    0    2
 -2      2418      2879      2886      2892
 -1      7941    3    0    1
 -2      2967      3690      3720      3767
 -1      7942    3    0    1
 -2      2238      2650      2656      3724
 -1      7943    3    0    2
 -2      2886      2419      2892      2895
 -1      7944    3    0    1
 -2      1005      1003      3684      3787
 -1      7945    3    0    2
 -2      2419      2418      2886      2892
 -1      7946    3    0    2
 -2       411       739      1287      2888
 -1      7947    3    0    2
 -2       411      1287      1288      2888
 -1      7948    3    0    2
 -2      1294      2462      2418      1293
 -1      7949    3    0    2
 -2      2882      2878      2889      2893
 -1      7950    3    0    1
 -2      2314      2806      2812      3717
 -1      7951    3    0    2
 -2      2878      2879      2882      2889
 -1      7952    3    0    2
 -2      1291      2882      1292      2889
 -1      7953    3    0    2
 -2      1291      2882      2889      2893
 -1      7954    3    0    1
 -2       678      2806      2814      3717
 -1      7955    3    0    2
 -2      1292       416      1291      2889
 -1      7956    3    0    1
 -2      3005      2073      3732      3759
 -1      7957    3    0    1
 -2      1629      1569      3451      3759
 -1      7958    3    0    2
 -2       416      1292       743      2889
 -1      7959    3    0    2
 -2      2418      2419      2886      2890
 -1      7960    3    0    2
 -2      2886      2419      2887      2890
 -1      7961    3    0    2
 -2      2879      2886      2887      2890
 -1      7962    3    0    2
 -2      2880      2878      2884      2891
 -1      7963    3    0    2
 -2      1287      1288      2888      2891
 -1      7964    3    0    2
 -2      1288      1287      2885      2891
 -1      7965    3    0    2
 -2      2880      2884      2885      2891
 -1      7966    3    0    2
 -2      2885      1287      2888      2891
 -1      7967    3    0    2
 -2      2880      2885      2888      2891
 -1      7968    3    0    2
 -2       752      2896      2897      2898
 -1      7969    3    0    2
 -2      2902      1303      1304      2910
 -1      7970    3    0    1
 -2      2225      1986      1337      3344
 -1      7971    3    0    2
 -2       416       743      1293      2892
 -1      7972    3    0    2
 -2       416      1293      1294      2892
 -1      7973    3    0    2
 -2      2881      2880      2883      2893
 -1      7974    3    0    2
 -2      1285      2881      2883      2893
 -1      7975    3    0    2
 -2      2882      1291      1292      2893
 -1      7976    3    0    2
 -2      1286      1285      1291      2893
 -1      7977    3    0    2
 -2      2880      2882      2883      2893
 -1      7978    3    0    2
 -2      2882      1285      2883      2893
 -1      7979    3    0    2
 -2      1291      1285      1292      2893
 -1      7980    3    0    2
 -2      1285      2882      1292      2893
 -1      7981    3    0    1
 -2      1471      3140      1476      3817
 -1      7982    3    0    2
 -2      2886      2892      2894      2895
 -1      7983    3    0    2
 -2      2419      2418      2892      2895
 -1      7984    3    0    2
 -2      2418      1294      1293      2895
 -1      7985    3    0    1
 -2      1367      2199      3179      3767
 -1      7986    3    0    2
 -2      2889      2886      2894      2895
 -1      7987    3    0    2
 -2       416      2889      2894      2895
 -1      7988    3    0    1
 -2      2466      1187      2975      3767
 -1      7989    3    0    1
 -2      2840      2831      3794      3800
 -1      7990    3    0    2
 -2      2418      1293      2892      2895
 -1      7991    3    0    2
 -2      2900      1237      1238      2902
 -1      7992    3    0    2
 -2      2899      1237      2900      2902
 -1      7993    3    0    1
 -2      2042       526      2078      1301
 -1      7994    3    0    2
 -2      1297       694      2896      2899
 -1      7995    3    0    2
 -2      2907      2898      2909      2911
 -1      7996    3    0    1
 -2      2518      2525      3753      3843
 -1      7997    3    0    2
 -2      1295      1296      2903      2904
 -1      7998    3    0    1
 -2      1153      1151      2745      3802
 -1      7999    3    0    2
 -2       752      2898      2907      2911
 -1      8000    3    0    1
 -2      1105      2208      3177      3182
 -1      8001    3    0    1
 -2      1711      2086      2089      2912
 -1      8002    3    0    1
 -2      1150       375      2744      3711
 -1      8003    3    0    2
 -2       694       752      2898      2907
 -1      8004    3    0    2
 -2       672      2707      2751      1647
 -1      8005    3    0    1
 -2      3285      3701      3513      3852
 -1      8006    3    0    2
 -2      2897      2901      2903      2905
 -1      8007    3    0    2
 -2      2896       694      2897      2899
 -1      8008    3    0    2
 -2      2897      2896      2899      2903
 -1      8009    3    0    1
 -2       401      2586      3722      3804
 -1      8010    3    0    2
 -2      2898      2897      2907      2909
 -1      8011    3    0    1
 -2      3154      3153      3163      3760
 -1      8012    3    0    2
 -2      2906       957       637      2909
 -1      8013    3    0    1
 -2      3747      3172      3865      3877
 -1      8014    3    0    2
 -2      2896      2897      2901      2903
 -1      8015    3    0    2
 -2      1502      3297      3303      3304
 -1      8016    3    0    2
 -2      1237      1300      1299      2900
 -1      8017    3    0    2
 -2      2897      2898      2906      2909
 -1      8018    3    0    2
 -2      1302       752      2907      2911
 -1      8019    3    0    2
 -2      2898      2260      2906      2909
 -1      8020    3    0    1
 -2      2181      2084       924      3174
 -1      8021    3    0    1
 -2      2939       425      2946      3124
 -1      8022    3    0    2
 -2      1237      1300      2900      1238
 -1      8023    3    0    2
 -2      1299      1237      2900      2908
 -1      8024    3    0    1
 -2      2541      2538      2548      3696
 -1      8025    3    0    1
 -2      3619      2039      3875      3888
 -1      8026    3    0    1
 -2      3467      3801      3803      3670
 -1      8027    3    0    2
 -2      2707      2708      2751      1647
 -1      8028    3    0    1
 -2       142      1001      2523      3843
 -1      8029    3    0    2
 -2       958      2260       957      2906
 -1      8030    3    0    2
 -2      2905      2897      2906      2909
 -1      8031    3    0    2
 -2       757      2901      2903      2904
 -1      8032    3    0    2
 -2      2901      2896      2903      2904
 -1      8033    3    0    2
 -2       757       637      2903      2905
 -1      8034    3    0    2
 -2      1298      1297      2896      2910
 -1      8035    3    0    1
 -2      3121      2041      3706      3755
 -1      8036    3    0    1
 -2       936      2539      2550      3696
 -1      8037    3    0    2
 -2      1303      1306      2902      1304
 -1      8038    3    0    2
 -2       757       637      1295      2903
 -1      8039    3    0    2
 -2      2901       757      2903      2905
 -1      8040    3    0    2
 -2       757      1295      1296      2903
 -1      8041    3    0    2
 -2       637      2905      2906      2909
 -1      8042    3    0    2
 -2      2896      2899      2903      2904
 -1      8043    3    0    2
 -2      2899      2896      2900      2904
 -1      8044    3    0    1
 -2      2094      1856      2690      3403
 -1      8045    3    0    2
 -2      1302      1301      2261      2911
 -1      8046    3    0    1
 -2      2184       636      2753      3182
 -1      8047    3    0    1
 -2       684      1730      2753      3182
 -1      8048    3    0    2
 -2      2261      1301      2907      2911
 -1      8049    3    0    2
 -2       957       757      2906       637
 -1      8050    3    0    2
 -2       957       757       958      2906
 -1      8051    3    0    1
 -2      2539      2537      2550      3696
 -1      8052    3    0    2
 -2      1303      1306       118      1305
 -1      8053    3    0    2
 -2      1238      2902      1305      1306
 -1      8054    3    0    2
 -2      2897       694      2898      2907
 -1      8055    3    0    2
 -2      1237      1238      2902      1305
 -1      8056    3    0    2
 -2      1302       694      1301      2907
 -1      8057    3    0    1
 -2      2195      3172      3816      3877
 -1      8058    3    0    2
 -2       694      1302       752      2907
 -1      8059    3    0    1
 -2      3530      3699      3810      3892
 -1      8060    3    0    2
 -2      2899      2903      2904      2908
 -1      8061    3    0    2
 -2      2900      2899      2904      2908
 -1      8062    3    0    2
 -2      2903      1295      2904      2908
 -1      8063    3    0    2
 -2      1300      1299      2900      2908
 -1      8064    3    0    2
 -2      1295      1296      2904      2908
 -1      8065    3    0    2
 -2        52      1296      1295      2908
 -1      8066    3    0    2
 -2      1300        52      1299      2908
 -1      8067    3    0    2
 -2      1296      2900      2904      2908
 -1      8068    3    0    2
 -2      1296       119      2900      2908
 -1      8069    3    0    2
 -2      1296        52       119      2908
 -1      8070    3    0    2
 -2      2900       119      1300      2908
 -1      8071    3    0    2
 -2        52      1300       119      2908
 -1      8072    3    0    1
 -2       278       925      3234      3562
 -1      8073    3    0    2
 -2      2898      2260      2909      2911
 -1      8074    3    0    2
 -2      2896      2899      2902      2910
 -1      8075    3    0    2
 -2      1303      2902      1305      2910
 -1      8076    3    0    2
 -2      1303      1306      1304       118
 -1      8077    3    0    2
 -2       118      1306      1304       120
 -1      8078    3    0    2
 -2      1306      1303      2902      1305
 -1      8079    3    0    1
 -2      2537      2541      2547      3696
 -1      8080    3    0    1
 -2      2539      2538      2543      3696
 -1      8081    3    0    2
 -2      1297      1298      1303      2910
 -1      8082    3    0    2
 -2      1298      2896      2902      2910
 -1      8083    3    0    2
 -2      1303      1298      1304      2910
 -1      8084    3    0    2
 -2      1298      2902      1304      2910
 -1      8085    3    0    2
 -2      2261      2907      2909      2911
 -1      8086    3    0    2
 -2      2260      2261      2909      2911
 -1      8087    3    0    1
 -2       647      2283      2683      3878
 -1      8088    3    0    1
 -2       966       999      3684      3804
 -1      8089    3    0    1
 -2      2748      2613      3148      3849
 -1      8090    3    0    1
 -2      2089      2086       963      2912
 -1      8091    3    0    1
 -2      2630      1082      2632      3795
 -1      8092    3    0    1
 -2      2010       522       963      2912
 -1      8093    3    0    1
 -2      2086      2010       963      2912
 -1      8094    3    0    1
 -2       522      1807      2089      2912
 -1      8095    3    0    1
 -2      1806      1782      1843      3654
 -1      8096    3    0    1
 -2      3266      3273      3722      3804
 -1      8097    3    0    1
 -2       522      2089       963      2912
 -1      8098    3    0    1
 -2      1806      1843      1893      3654
 -1      8099    3    0    1
 -2       966      2586      1044      3804
 -1      8100    3    0    1
 -2       411      2887      3716      3786
 -1      8101    3    0    1
 -2      3381       127      3397      3740
 -1      8102    3    0    1
 -2      1531       550      3227      3850
 -1      8103    3    0    1
 -2      1197      2793      2802      3682
 -1      8104    3    0    1
 -2      1197      2792      2793      3682
 -1      8105    3    0    1
 -2      3704       701      3813      3870
 -1      8106    3    0    1
 -2       634      1197      2802      3682
 -1      8107    3    0    1
 -2      2132       634      2802      3682
 -1      8108    3    0    1
 -2      1796      2032      3381      3740
 -1      8109    3    0    1
 -2      2981      2983      2984      3702
 -1      8110    3    0    1
 -2      1612      2695      2069      2380
 -1      8111    3    0    2
 -2      2435       761      2801      1468
 -1      8112    3    0    2
 -2      2606      2605      1468       585
 -1      8113    3    0    1
 -2      2481      2482      3715      3769
 -1      8114    3    0    1
 -2      2135      1235      3691      3723
 -1      8115    3    0    1
 -2      2914      2916      2921      3723
 -1      8116    3    0    1
 -2       676      1622      3742      3437
 -1      8117    3    0    1
 -2      2922      2914      3691      3723
 -1      8118    3    0    1
 -2      2476      2482      3748      3769
 -1      8119    3    0    1
 -2      2482       974       976      3769
 -1      8120    3    0    1
 -2      2916      2915      2921      3723
 -1      8121    3    0    1
 -2      1320      1158      2916      3723
 -1      8122    3    0    1
 -2      3199      2135      3691      3723
 -1      8123    3    0    2
 -2      2354      2321      1311      1312
 -1      8124    3    0    2
 -2       682      2354      1311      1312
 -1      8125    3    0    1
 -2      1079       683      2636      3858
 -1      8126    3    0    2
 -2       242      1398      2290      1397
 -1      8127    3    0    1
 -2      2411      2242      1503      3828
 -1      8128    3    0    2
 -2        57      1417      1423      1424
 -1      8129    3    0    1
 -2       631       393      2047      1315
 -1      8130    3    0    1
 -2      1315      2751      2708      2047
 -1      8131    3    0    1
 -2       244      2601      3173      1642
 -1      8132    3    0    1
 -2      2177      2047      2218      1313
 -1      8133    3    0    2
 -2      2752      2751      1315       631
 -1      8134    3    0    1
 -2      2967       657      2971      3690
 -1      8135    3    0    2
 -2       498      1316       588      2804
 -1      8136    3    0    2
 -2      1157      1320      2916      1319
 -1      8137    3    0    2
 -2       631      1316      2752       767
 -1      8138    3    0    2
 -2       777      1318      2918      2919
 -1      8139    3    0    2
 -2      2918      2914      2919      2921
 -1      8140    3    0    1
 -2       708      2106      2428      1331
 -1      8141    3    0    1
 -2      2956      2967      2971      3690
 -1      8142    3    0    2
 -2      1158      2915      2924      2927
 -1      8143    3    0    2
 -2      2914      2913      2917      2919
 -1      8144    3    0    2
 -2      3041      3044      3042      3049
 -1      8145    3    0    2
 -2      1413      1414      3057      3060
 -1      8146    3    0    2
 -2      2239      2240      2930      2931
 -1      8147    3    0    1
 -2      2409       109      3686      3775
 -1      8148    3    0    2
 -2      1317      2929      1329      1330
 -1      8149    3    0    2
 -2      2914      2913      2919      2921
 -1      8150    3    0    1
 -2      2034       643      2449      1333
 -1      8151    3    0    2
 -2      3043      3041      3044      3045
 -1      8152    3    0    2
 -2      2914      2913      2921      2925
 -1      8153    3    0    1
 -2      1808      3236      3395      3769
 -1      8154    3    0    2
 -2       521       594      2932      2933
 -1      8155    3    0    1
 -2      1365      1362      2971      3690
 -1      8156    3    0    2
 -2      2915      2916      2921      2927
 -1      8157    3    0    2
 -2      2913      2915      2918      2921
 -1      8158    3    0    2
 -2      2913      2914      2917      2920
 -1      8159    3    0    1
 -2       657      1365      2971      3690
 -1      8160    3    0    2
 -2      2914      2240      2920      2922
 -1      8161    3    0    2
 -2       689      1318      1317      2918
 -1      8162    3    0    2
 -2       776      2920      2922      2925
 -1      8163    3    0    2
 -2      1318       689       777      2918
 -1      8164    3    0    2
 -2      2693       261      2872      1645
 -1      8165    3    0    2
 -2      2240      2239      2917      2920
 -1      8166    3    0    2
 -2      2914      2240      2917      2920
 -1      8167    3    0    2
 -2      2916      2914      2921      2925
 -1      8168    3    0    2
 -2      2239      2240      1235      2920
 -1      8169    3    0    2
 -2      2239      1235      1236      2920
 -1      8170    3    0    2
 -2       140       139      2924      1325
 -1      8171    3    0    2
 -2      2915      2913      2918      2923
 -1      8172    3    0    2
 -2      1235      1236      2920      2922
 -1      8173    3    0    2
 -2       394      1236      1235      2922
 -1      8174    3    0    2
 -2      1236       776      2920      2922
 -1      8175    3    0    2
 -2      1236       394       776      2922
 -1      8176    3    0    1
 -2      1902      1938      3563      3870
 -1      8177    3    0    2
 -2      2917      2926      1327      2930
 -1      8178    3    0    2
 -2      2918      2913      2919      2923
 -1      8179    3    0    2
 -2      1318      2918      2919      2923
 -1      8180    3    0    2
 -2      2917      2914      2919      2926
 -1      8181    3    0    2
 -2       689      2917      2919      2926
 -1      8182    3    0    1
 -2      2999      1817      3375      3806
 -1      8183    3    0    2
 -2      2240      2914      2917      2926
 -1      8184    3    0    2
 -2       777      2917      2926      1327
 -1      8185    3    0    2
 -2      2239      2240      2926      2930
 -1      8186    3    0    2
 -2       651      3048      3051      3055
 -1      8187    3    0    2
 -2      2930      2239      2931      2932
 -1      8188    3    0    2
 -2      2913      2915      2921      2927
 -1      8189    3    0    2
 -2      2916      1157      2925      2927
 -1      8190    3    0    2
 -2      2915      2913      2923      2927
 -1      8191    3    0    1
 -2      3808      3513      3836      3917
 -1      8192    3    0    1
 -2      3151      1751      3200      3847
 -1      8193    3    0    2
 -2      1322      2930      2931      2932
 -1      8194    3    0    2
 -2      1158       139      1157      2924
 -1      8195    3    0    1
 -2       284      1986      2106      3389
 -1      8196    3    0    2
 -2       139      1158       140      2924
 -1      8197    3    0    1
 -2      1955      1964      2142      2999
 -1      8198    3    0    2
 -2      2920      2914      2922      2925
 -1      8199    3    0    2
 -2      2914      2916      2922      2925
 -1      8200    3    0    2
 -2      1319      2916       394      1320
 -1      8201    3    0    2
 -2      2916      1319       394      2925
 -1      8202    3    0    2
 -2      2916       394      2922      2925
 -1      8203    3    0    2
 -2       394       776      2922      2925
 -1      8204    3    0    2
 -2       776       394      1319      2925
 -1      8205    3    0    2
 -2       689       777      2926      1327
 -1      8206    3    0    2
 -2      3048       651      3049      3055
 -1      8207    3    0    2
 -2      2917      2239      2926      2930
 -1      8208    3    0    1
 -2       156      1893       972      3715
 -1      8209    3    0    2
 -2       689       777      2917      2926
 -1      8210    3    0    2
 -2      2918       689      2919      2926
 -1      8211    3    0    2
 -2      2914      2918      2919      2926
 -1      8212    3    0    1
 -2      1681      1833      1984      3557
 -1      8213    3    0    2
 -2      1318      1317      2929      1329
 -1      8214    3    0    2
 -2      2926       689      1327      1328
 -1      8215    3    0    2
 -2      2921      2916      2925      2927
 -1      8216    3    0    2
 -2      2913      2921      2925      2927
 -1      8217    3    0    2
 -2      1157      1158      2924      2927
 -1      8218    3    0    2
 -2      1158      1157      2916      2927
 -1      8219    3    0    1
 -2      3490      3714      3829      3848
 -1      8220    3    0    2
 -2      2298      2299       904      3203
 -1      8221    3    0    2
 -2      2240      2931      2932      2933
 -1      8222    3    0    1
 -2      2011       382      1071      1447
 -1      8223    3    0    1
 -2       382      2011      2065      1447
 -1      8224    3    0    1
 -2      2962      2956      2971      3690
 -1      8225    3    0    2
 -2      2915      1158      2924      2928
 -1      8226    3    0    2
 -2       836       835      2923      2928
 -1      8227    3    0    2
 -2      1158       140      2924      2928
 -1      8228    3    0    2
 -2      2924       140      1325      2928
 -1      8229    3    0    1
 -2      2881       109      3716      3775
 -1      8230    3    0    1
 -2      1291      1286      2893      3775
 -1      8231    3    0    2
 -2       835      1326      1325      2928
 -1      8232    3    0    1
 -2       953      2442      2210       404
 -1      8233    3    0    2
 -2       836      2923      2924      2928
 -1      8234    3    0    2
 -2       836      2924      1326      2928
 -1      8235    3    0    2
 -2      1326       835       836      2928
 -1      8236    3    0    2
 -2       835      2923      2928      2929
 -1      8237    3    0    2
 -2       835       836      2923      2929
 -1      8238    3    0    2
 -2      1324       835      1323      2929
 -1      8239    3    0    2
 -2       643      1334       793      2449
 -1      8240    3    0    2
 -2      2320      2319      2449      1333
 -1      8241    3    0    1
 -2      3418      2011      3427      3755
 -1      8242    3    0    2
 -2      2923       836      1324      2929
 -1      8243    3    0    2
 -2       835      1324       836      2929
 -1      8244    3    0    2
 -2      2239      2411      2932      2412
 -1      8245    3    0    2
 -2      1327      2926      1328      2930
 -1      8246    3    0    2
 -2      2926      1321      1328      2930
 -1      8247    3    0    2
 -2      1321      1322      1327      2930
 -1      8248    3    0    2
 -2      1321      1327      1328      2930
 -1      8249    3    0    2
 -2      1323      1324      2929      1329
 -1      8250    3    0    2
 -2      2931      1321      2932      2933
 -1      8251    3    0    2
 -2      1324        47       141      1329
 -1      8252    3    0    2
 -2        47      1324      1323      1329
 -1      8253    3    0    2
 -2      1323        47      1329      1330
 -1      8254    3    0    2
 -2      2929      1323      1329      1330
 -1      8255    3    0    1
 -2       666      1973      2119      3402
 -1      8256    3    0    2
 -2      2926      1321      2930      2931
 -1      8257    3    0    2
 -2      2240      2926      2930      2931
 -1      8258    3    0    2
 -2      1321      1322      2930      2931
 -1      8259    3    0    2
 -2      1321       521      2932      2933
 -1      8260    3    0    1
 -2      1986       286      2458      3523
 -1      8261    3    0    2
 -2      2411      2240      2932      2933
 -1      8262    3    0    1
 -2      1373      3067      3081      3741
 -1      8263    3    0    2
 -2       799      2335      2608      1596
 -1      8264    3    0    2
 -2      1322       521       594      2932
 -1      8265    3    0    2
 -2       521      1322      1321      2932
 -1      8266    3    0    2
 -2       594       521      2412      2933
 -1      8267    3    0    2
 -2       594      2412      2932      2933
 -1      8268    3    0    1
 -2       708       671      2091      1331
 -1      8269    3    0    1
 -2      2428      2106      2458      1331
 -1      8270    3    0    1
 -2      2106       286      2458      1331
 -1      8271    3    0    1
 -2      3260      1902      3704      3442
 -1      8272    3    0    2
 -2       708      1332      2691       786
 -1      8273    3    0    2
 -2       708      2428      2691      1331
 -1      8274    3    0    2
 -2       708      1332      1331      2691
 -1      8275    3    0    1
 -2      1953      2152      3282      3782
 -1      8276    3    0    2
 -2       286      1332       314      2458
 -1      8277    3    0    1
 -2      1804      1766      1818      3655
 -1      8278    3    0    1
 -2      3076      1373      3081      3750
 -1      8279    3    0    1
 -2      3658      3817      3677      3678
 -1      8280    3    0    1
 -2      3721      3699      3530      3892
 -1      8281    3    0    1
 -2      1079      2636      3797      3858
 -1      8282    3    0    2
 -2       903       904      1509      3203
 -1      8283    3    0    1
 -2      3468      2616      3797      3858
 -1      8284    3    0    1
 -2      2188      2082      3414      3469
 -1      8285    3    0    1
 -2      3506      3750      3622      3909
 -1      8286    3    0    1
 -2       386      2131      1203      3916
 -1      8287    3    0    1
 -2      3386      3283      2107      1702
 -1      8288    3    0    1
 -2       152       849      3830      3831
 -1      8289    3    0    1
 -2      1404       265      3032      3756
 -1      8290    3    0    2
 -2      2299      2298      1015      3203
 -1      8291    3    0    1
 -2      1817      2999      3521      3806
 -1      8292    3    0    2
 -2       509      1336       606      2456
 -1      8293    3    0    1
 -2       436      1974      1988      1337
 -1      8294    3    0    1
 -2      1974       390      1988      1337
 -1      8295    3    0    1
 -2       641      2112      2376      3316
 -1      8296    3    0    2
 -2      1402      1401      3017      3022
 -1      8297    3    0    2
 -2      2225      1338      2530      2226
 -1      8298    3    0    2
 -2      2225       436      2530      1337
 -1      8299    3    0    2
 -2       436      1338       804      2530
 -1      8300    3    0    2
 -2      1338      2225      2530      1337
 -1      8301    3    0    1
 -2      2195      1942      2377      1609
 -1      8302    3    0    1
 -2      1105       636      2680      3764
 -1      8303    3    0    1
 -2       885      2364       890      3707
 -1      8304    3    0    2
 -2      2356       384      2426      1339
 -1      8305    3    0    1
 -2      2966       653      2972      3720
 -1      8306    3    0    1
 -2      2472      2467      3259      3859
 -1      8307    3    0    1
 -2       887      3550      3851      3650
 -1      8308    3    0    1
 -2      2956      2967      3690      3720
 -1      8309    3    0    2
 -2       384       617      2426      1339
 -1      8310    3    0    1
 -2      2015      2297      1011      2935
 -1      8311    3    0    1
 -2      1901      1692      1972      2937
 -1      8312    3    0    1
 -2      2836      2831      2842      3903
 -1      8313    3    0    1
 -2      1972       187      2171      2937
 -1      8314    3    0    2
 -2      1012       276      1011      2935
 -1      8315    3    0    2
 -2      2296       317      1012      2935
 -1      8316    3    0    2
 -2       276      1012       317      2935
 -1      8317    3    0    1
 -2       187      1889      2171      2937
 -1      8318    3    0    2
 -2      2296      2935       873      2936
 -1      8319    3    0    2
 -2       873       874      2296      2936
 -1      8320    3    0    2
 -2       874       280       318      2936
 -1      8321    3    0    2
 -2       280       874       873      2936
 -1      8322    3    0    1
 -2      1746      2001      2090      3505
 -1      8323    3    0    1
 -2      1692      1901      1967      2937
 -1      8324    3    0    1
 -2      1795      1692      1967      2937
 -1      8325    3    0    1
 -2      1901      1972      2171      2937
 -1      8326    3    0    1
 -2      1901      1889      1967      2937
 -1      8327    3    0    1
 -2      1889      1901      2171      2937
 -1      8328    3    0    1
 -2      3854      3174       955      3887
 -1      8329    3    0    2
 -2       387      1342      1341      2715
 -1      8330    3    0    1
 -2      3037      2310      3039      3883
 -1      8331    3    0    1
 -2      1633      3600      1660      3875
 -1      8332    3    0    2
 -2       387      1342      2715       614
 -1      8333    3    0    2
 -2      1370      2967      2974      2975
 -1      8334    3    0    1
 -2       426      2015      2955      2357
 -1      8335    3    0    1
 -2      2015      2292      2935      1344
 -1      8336    3    0    1
 -2       276      2015      2935      1344
 -1      8337    3    0    2
 -2      2935      2292      1343      1344
 -1      8338    3    0    2
 -2       276      2935      1343      1344
 -1      8339    3    0    1
 -2      1756      2098      1344      3265
 -1      8340    3    0    1
 -2      2098       426      1344      3265
 -1      8341    3    0    1
 -2      1948       275      1568      3265
 -1      8342    3    0    1
 -2       700       426      2098      3265
 -1      8343    3    0    1
 -2      2015      1756      2098      1344
 -1      8344    3    0    2
 -2      2318      1345      3289       428
 -1      8345    3    0    1
 -2      1801      1836      1346      3290
 -1      8346    3    0    1
 -2        63       857      3289      3290
 -1      8347    3    0    1
 -2      1818      1971      2318      3290
 -1      8348    3    0    1
 -2      1801       428      2318      3290
 -1      8349    3    0    2
 -2      2340      2339      2449      1573
 -1      8350    3    0    2
 -2       857       917      3288      3289
 -1      8351    3    0    1
 -2      1801      1836      2064      1346
 -1      8352    3    0    2
 -2       425      2938      2939      2941
 -1      8353    3    0    2
 -2      2397      2396      2946      2947
 -1      8354    3    0    1
 -2      3046      3048      3056      3892
 -1      8355    3    0    1
 -2       655       424      3427      3755
 -1      8356    3    0    1
 -2       635      2162      2196      1575
 -1      8357    3    0    1
 -2      3706      2041      3418      3755
 -1      8358    3    0    2
 -2      2396      2952      1359      2397
 -1      8359    3    0    2
 -2      1360      2952      2396      2953
 -1      8360    3    0    1
 -2      2946      2939      3124      3808
 -1      8361    3    0    1
 -2      1669      1870      2050      3337
 -1      8362    3    0    2
 -2      2942      2939      2945      2950
 -1      8363    3    0    1
 -2      3753      2868      3804      3905
 -1      8364    3    0    1
 -2      2831      2840      2845      3800
 -1      8365    3    0    1
 -2      1978      3683      3064      3724
 -1      8366    3    0    2
 -2       959       960      2943      2944
 -1      8367    3    0    1
 -2       683      1082      3795      3578
 -1      8368    3    0    2
 -2      1348       826      2942      2948
 -1      8369    3    0    1
 -2      3688      3121      3706      3755
 -1      8370    3    0    2
 -2       826       429      2942      2950
 -1      8371    3    0    1
 -2      2940      2942      2951      3809
 -1      8372    3    0    2
 -2      1360       429      2952      2953
 -1      8373    3    0    2
 -2      2967      2466      2973      2974
 -1      8374    3    0    2
 -2      1348       429      1347      2942
 -1      8375    3    0    1
 -2      3804      1039      3512      3905
 -1      8376    3    0    2
 -2       429      1348       826      2942
 -1      8377    3    0    1
 -2      3219       433      3221      3832
 -1      8378    3    0    2
 -2      2293      2954      1561      1562
 -1      8379    3    0    2
 -2      2938      2939      2941      2945
 -1      8380    3    0    2
 -2      2938      1349      2940      2949
 -1      8381    3    0    2
 -2      2942       826      2945      2948
 -1      8382    3    0    2
 -2      1351      1358        65      1357
 -1      8383    3    0    2
 -2       826       429      2950      2952
 -1      8384    3    0    2
 -2      2939      2938      2942      2945
 -1      8385    3    0    2
 -2      1350      1349      2938      2949
 -1      8386    3    0    2
 -2      2938      2940      2944      2949
 -1      8387    3    0    1
 -2      2396      2939      2946      3808
 -1      8388    3    0    2
 -2       959      2940      2943      2951
 -1      8389    3    0    1
 -2      2939      2396      2953      3808
 -1      8390    3    0    1
 -2       429      2950      2953      3808
 -1      8391    3    0    1
 -2       367      1926      1490      3881
 -1      8392    3    0    2
 -2      1355       959      2943      2951
 -1      8393    3    0    1
 -2      2755       544      3062      3810
 -1      8394    3    0    1
 -2      2238      2646      2650      3724
 -1      8395    3    0    1
 -2      1909       283      1387      3125
 -1      8396    3    0    2
 -2      2396      2939      2941      2946
 -1      8397    3    0    2
 -2       822      2941      2946      2947
 -1      8398    3    0    2
 -2       384      1354      2426       617
 -1      8399    3    0    2
 -2       384      2396      2426      1353
 -1      8400    3    0    2
 -2       384      1354      1353      2426
 -1      8401    3    0    1
 -2      2762      2757      2768      3891
 -1      8402    3    0    1
 -2      1459       105      3100      3688
 -1      8403    3    0    2
 -2       425       822      2941      2946
 -1      8404    3    0    2
 -2      1353      1354      2946      2947
 -1      8405    3    0    2
 -2      2396      1353      2946      2947
 -1      8406    3    0    2
 -2      1353      2396      1354      2947
 -1      8407    3    0    2
 -2      2952      1360      2396      1359
 -1      8408    3    0    1
 -2      3094      3099      3101      3688
 -1      8409    3    0    1
 -2       550       929      3850      3916
 -1      8410    3    0    2
 -2       959      1356      1355      2943
 -1      8411    3    0    2
 -2      2396      2426      1359      2427
 -1      8412    3    0    2
 -2      2939      2941      2945      2952
 -1      8413    3    0    2
 -2       959      1356      2943       960
 -1      8414    3    0    1
 -2      3741      3555      3561      3832
 -1      8415    3    0    2
 -2      1351      1358      2944      1352
 -1      8416    3    0    1
 -2      1261      3019      3811      3890
 -1      8417    3    0    1
 -2      2396      1360      2953      3808
 -1      8418    3    0    2
 -2       826      2942      2945      2950
 -1      8419    3    0    1
 -2       243      1395      3328      3406
 -1      8420    3    0    1
 -2      2196       635      1575      3406
 -1      8421    3    0    2
 -2      1351      1358      1352        65
 -1      8422    3    0    1
 -2      2858       693      1256      3837
 -1      8423    3    0    2
 -2      1358      1351      2944      1357
 -1      8424    3    0    2
 -2        65      1358      1352       172
 -1      8425    3    0    2
 -2       386       619      2427      1359
 -1      8426    3    0    2
 -2      1347      1348      2942      2948
 -1      8427    3    0    2
 -2      2940       959      2944      2949
 -1      8428    3    0    2
 -2      2944       959      1357      2949
 -1      8429    3    0    2
 -2      1349      1352      1351      2949
 -1      8430    3    0    2
 -2      1350      2938      2944      2949
 -1      8431    3    0    2
 -2      1350      2944      1352      2949
 -1      8432    3    0    2
 -2      1352      1349      1350      2949
 -1      8433    3    0    1
 -2       681       683      3795      3578
 -1      8434    3    0    2
 -2      2939      2396      2941      2953
 -1      8435    3    0    1
 -2      3704      3260      3442      3813
 -1      8436    3    0    2
 -2      2942      1347      2948      2951
 -1      8437    3    0    2
 -2      2943      2940      2948      2951
 -1      8438    3    0    2
 -2      2940      2942      2948      2951
 -1      8439    3    0    2
 -2      1347      1348      2948      2951
 -1      8440    3    0    2
 -2      1356      1355      2943      2951
 -1      8441    3    0    2
 -2       192       174      1347      2951
 -1      8442    3    0    2
 -2       174       192      1355      2951
 -1      8443    3    0    2
 -2      1348      2943      2948      2951
 -1      8444    3    0    2
 -2      1348       174      2943      2951
 -1      8445    3    0    2
 -2      1347       174      1348      2951
 -1      8446    3    0    2
 -2       174      1355      1356      2951
 -1      8447    3    0    2
 -2      2943       174      1356      2951
 -1      8448    3    0    2
 -2      3213      3218      1527      3224
 -1      8449    3    0    2
 -2       613       550      2869      3226
 -1      8450    3    0    2
 -2      3213      2389      3218      3224
 -1      8451    3    0    2
 -2      2390      2389      2870      3227
 -1      8452    3    0    2
 -2      2389      2390      3218      3224
 -1      8453    3    0    2
 -2       429       826      1359      2952
 -1      8454    3    0    2
 -2       429      1359      1360      2952
 -1      8455    3    0    2
 -2      2941      2396      2952      2953
 -1      8456    3    0    2
 -2      2939      2941      2952      2953
 -1      8457    3    0    2
 -2      2958      2956      2966      2967
 -1      8458    3    0    2
 -2      2957      2960      2961      2963
 -1      8459    3    0    2
 -2      2466      2465      2974      2975
 -1      8460    3    0    1
 -2       385      2005      2014      1507
 -1      8461    3    0    2
 -2      2356      2358      1203      2954
 -1      8462    3    0    2
 -2       628      2356      1203      2954
 -1      8463    3    0    2
 -2       825      1203      1204      2954
 -1      8464    3    0    2
 -2       825       628      1203      2954
 -1      8465    3    0    2
 -2      1340      2955      2356      1339
 -1      8466    3    0    2
 -2      2954      2955      1340       823
 -1      8467    3    0    2
 -2       823       426      1343      2955
 -1      8468    3    0    2
 -2      1343       426      1344      2955
 -1      8469    3    0    2
 -2       426       823      1339      2955
 -1      8470    3    0    2
 -2      2955      2954      1343       823
 -1      8471    3    0    2
 -2      1339       823      1340      2955
 -1      8472    3    0    2
 -2      2958      2966      2969      2972
 -1      8473    3    0    1
 -2      2187      1864      2694      1625
 -1      8474    3    0    1
 -2      2163       653      2199      1367
 -1      8475    3    0    1
 -2      1424        57      3770      3636
 -1      8476    3    0    2
 -2       944      2959      2963      2970
 -1      8477    3    0    2
 -2       810      2960      2966      2969
 -1      8478    3    0    2
 -2      2959      2957      2961      2963
 -1      8479    3    0    2
 -2       653       810      2960      2966
 -1      8480    3    0    2
 -2       657      1366       832      2964
 -1      8481    3    0    2
 -2      2960      2956      2966      2968
 -1      8482    3    0    2
 -2      2960      2958      2966      2969
 -1      8483    3    0    1
 -2      3799      1370      3652      3653
 -1      8484    3    0    2
 -2      2958      2960      2966      2968
 -1      8485    3    0    1
 -2      1353       384      3799      3653
 -1      8486    3    0    2
 -2       653       810      2969      2972
 -1      8487    3    0    2
 -2      1649      1650      3586      3588
 -1      8488    3    0    2
 -2       653       810       943      2960
 -1      8489    3    0    2
 -2       653       943       944      2960
 -1      8490    3    0    2
 -2      2960      2957      2961      2968
 -1      8491    3    0    2
 -2      2969       810      1368      2972
 -1      8492    3    0    2
 -2      1364      2962      1363      2965
 -1      8493    3    0    2
 -2      1369      1187      1370      2975
 -1      8494    3    0    2
 -2      1368      1367      2466      2972
 -1      8495    3    0    1
 -2      1974       436      1988      3125
 -1      8496    3    0    1
 -2       644      2141      2188      1506
 -1      8497    3    0    1
 -2      1711      1807      3330      3336
 -1      8498    3    0    2
 -2      2960       943      2961      2963
 -1      8499    3    0    2
 -2      2967      2466      2972      2973
 -1      8500    3    0    2
 -2       653      1368       810      2972
 -1      8501    3    0    2
 -2      2966       653      2969      2972
 -1      8502    3    0    1
 -2      2163       379       993      1367
 -1      8503    3    0    1
 -2       653      2163       993      1367
 -1      8504    3    0    1
 -2      1888       531      2163      1367
 -1      8505    3    0    2
 -2      1362      2962      1364      2965
 -1      8506    3    0    2
 -2        56      1362      1364      2965
 -1      8507    3    0    2
 -2      1363        56      1364      2965
 -1      8508    3    0    2
 -2       181        56      1363      2965
 -1      8509    3    0    2
 -2        56       181      1361      2965
 -1      8510    3    0    2
 -2        56      1361      1362      2965
 -1      8511    3    0    2
 -2      2957      2959      2962      2970
 -1      8512    3    0    1
 -2      1705      1746      1981      3180
 -1      8513    3    0    2
 -2       832       657      2964      2967
 -1      8514    3    0    2
 -2      2466      2465      2973      2974
 -1      8515    3    0    2
 -2      2959      2957      2963      2970
 -1      8516    3    0    1
 -2      1711      2001      2090      3180
 -1      8517    3    0    2
 -2      2958       832      2964      2967
 -1      8518    3    0    1
 -2      2130      2110      2395      3189
 -1      8519    3    0    2
 -2      2958      2967      2972      2973
 -1      8520    3    0    2
 -2      1113        59      2986      2988
 -1      8521    3    0    2
 -2       653       810      2966      2969
 -1      8522    3    0    2
 -2      1368      2969      2972      2973
 -1      8523    3    0    1
 -2      1315      2751      2047       631
 -1      8524    3    0    2
 -2       943       944      2963      2970
 -1      8525    3    0    2
 -2      2957      2962      2965      2970
 -1      8526    3    0    2
 -2       944       177      2959      2970
 -1      8527    3    0    2
 -2      2962       879      1363      2970
 -1      8528    3    0    2
 -2      2962      1363      2965      2970
 -1      8529    3    0    2
 -2       880       176       879      2970
 -1      8530    3    0    2
 -2       176       944       943      2970
 -1      8531    3    0    2
 -2       176       880       177      2970
 -1      8532    3    0    2
 -2       944       176       177      2970
 -1      8533    3    0    2
 -2      1368       653      1367      2972
 -1      8534    3    0    1
 -2      3191      2018      3702      3893
 -1      8535    3    0    2
 -2      2466      2465      1368      2972
 -1      8536    3    0    2
 -2       657      1366      2964      1365
 -1      8537    3    0    2
 -2      2969      2958      2972      2973
 -1      8538    3    0    1
 -2      3380      2868      3753      3905
 -1      8539    3    0    2
 -2      2466      2465      2972      2973
 -1      8540    3    0    2
 -2      3183      3184      1187       541
 -1      8541    3    0    1
 -2      1760        59      2022      3403
 -1      8542    3    0    1
 -2      1981      1746      2001      3180
 -1      8543    3    0    2
 -2      2964      2956      2957      2968
 -1      8544    3    0    2
 -2       657      2964      2967      2971
 -1      8545    3    0    2
 -2      1362      2962      2965      2971
 -1      8546    3    0    1
 -2      1973       666      2978      1608
 -1      8547    3    0    1
 -2       893       881      2371      3726
 -1      8548    3    0    1
 -2      2350      2079      1065      3327
 -1      8549    3    0    2
 -2      2962      2957      2965      2971
 -1      8550    3    0    2
 -2      1365      2964      1361      1366
 -1      8551    3    0    2
 -2      1361      1362      2965      2971
 -1      8552    3    0    2
 -2      1362      1361      1365      2971
 -1      8553    3    0    2
 -2      2957      2964      2965      2971
 -1      8554    3    0    1
 -2      1341      2978      1973      2400
 -1      8555    3    0    2
 -2      2964      1365      1361      2971
 -1      8556    3    0    2
 -2      2964      1361      2965      2971
 -1      8557    3    0    2
 -2      2958      2967      2973      2974
 -1      8558    3    0    2
 -2      1369      1370      2974      2975
 -1      8559    3    0    2
 -2      1188      2465      1187      2975
 -1      8560    3    0    2
 -2      2465      1188      2974      2975
 -1      8561    3    0    2
 -2      2465      2466      1187      2975
 -1      8562    3    0    2
 -2      1188      1369      2974      2975
 -1      8563    3    0    1
 -2      2188      2141      2976      1506
 -1      8564    3    0    1
 -2       522      1069      2912      3800
 -1      8565    3    0    2
 -2      2958       832      2967      2974
 -1      8566    3    0    1
 -2       430      1973      2099      3619
 -1      8567    3    0    2
 -2       832       657      2967      2974
 -1      8568    3    0    1
 -2      3068       933      3076      3750
 -1      8569    3    0    2
 -2      2967       657      1370      2974
 -1      8570    3    0    1
 -2       506      1167      3000      3744
 -1      8571    3    0    2
 -2       657       832      1369      2974
 -1      8572    3    0    2
 -2       657      1369      1370      2974
 -1      8573    3    0    2
 -2      1188      1187      1369      2975
 -1      8574    3    0    2
 -2      3352      3354      1615      1617
 -1      8575    3    0    1
 -2      2467      3238      3247      3728
 -1      8576    3    0    1
 -2       687      1488      3785      3899
 -1      8577    3    0    2
 -2      1512      1511      3353      3359
 -1      8578    3    0    1
 -2      2288       537      2773      3698
 -1      8579    3    0    1
 -2      2014      2235       427      1853
 -1      8580    3    0    1
 -2      3484      3174      3854      3887
 -1      8581    3    0    1
 -2       555      2197      1443      3689
 -1      8582    3    0    1
 -2      2344       555      1443      3689
 -1      8583    3    0    2
 -2      2390      3218      3224      3225
 -1      8584    3    0    2
 -2      2978      2399      1341      2979
 -1      8585    3    0    2
 -2      3069      3068      3073      3074
 -1      8586    3    0    1
 -2       688       625      2976      2977
 -1      8587    3    0    2
 -2      1341      2399      1342      2979
 -1      8588    3    0    2
 -2      2399      2978      1341      2400
 -1      8589    3    0    2
 -2      2979      2978      1191       430
 -1      8590    3    0    2
 -2      2345      2978      1191      2979
 -1      8591    3    0    2
 -2       430      1342       812      2979
 -1      8592    3    0    2
 -2      1191       812      1192      2979
 -1      8593    3    0    2
 -2      1342       430      1341      2979
 -1      8594    3    0    2
 -2       430       812      1191      2979
 -1      8595    3    0    2
 -2      3068      1205      3069      3073
 -1      8596    3    0    1
 -2       696      1864      2156      2995
 -1      8597    3    0    2
 -2       738       649      1281      2980
 -1      8598    3    0    2
 -2      1281      2985      2990      1381
 -1      8599    3    0    2
 -2      2693      2871      1625      1626
 -1      8600    3    0    2
 -2      2980      1282      2981      2984
 -1      8601    3    0    2
 -2      1281       649      1282      2980
 -1      8602    3    0    2
 -2      2623      2622      3022      3026
 -1      8603    3    0    1
 -2      2783       541      3767      3799
 -1      8604    3    0    2
 -2      2284      1335      1336      3315
 -1      8605    3    0    2
 -2      1403      1404      3030      3032
 -1      8606    3    0    2
 -2       738       649      2982      2987
 -1      8607    3    0    2
 -2      2356      1340      2426      2358
 -1      8608    3    0    1
 -2      2639      2645      3714      3862
 -1      8609    3    0    1
 -2      1881      3534      1765      3677
 -1      8610    3    0    2
 -2      2981      1282      2985      2990
 -1      8611    3    0    2
 -2      2982      2288      2987      2991
 -1      8612    3    0    2
 -2      1375      2990      1381      1382
 -1      8613    3    0    2
 -2       649      2982      2987      2991
 -1      8614    3    0    1
 -2      1789      1703      2168      3404
 -1      8615    3    0    2
 -2      1113      1114      2985      2986
 -1      8616    3    0    2
 -2      2981      1113      2985      2986
 -1      8617    3    0    1
 -2      1370      3690      3767      3799
 -1      8618    3    0    2
 -2        59      1114      1113      2986
 -1      8619    3    0    2
 -2      1114        59       102      2986
 -1      8620    3    0    2
 -2        59       102      2986      2988
 -1      8621    3    0    2
 -2      1284        59      1283      2988
 -1      8622    3    0    2
 -2       102      1284      2986      2988
 -1      8623    3    0    2
 -2        59      1284       102      2988
 -1      8624    3    0    1
 -2      2975      1370      3767      3799
 -1      8625    3    0    2
 -2      2288      2289      2987      2991
 -1      8626    3    0    1
 -2       537      1856      1917      1385
 -1      8627    3    0    2
 -2       738       649      2987      2991
 -1      8628    3    0    2
 -2       508      1610      2712      1609
 -1      8629    3    0    1
 -2      3739       121      3797      3858
 -1      8630    3    0    2
 -2      2982      2980      2987      2992
 -1      8631    3    0    1
 -2       271      1863      2174      3281
 -1      8632    3    0    1
 -2      3340      2360      3707      3819
 -1      8633    3    0    1
 -2      2215      3373      3458      3802
 -1      8634    3    0    2
 -2      2985      1376      2990      1381
 -1      8635    3    0    2
 -2      2983      2981      2984      2989
 -1      8636    3    0    2
 -2      2980      2981      2986      2989
 -1      8637    3    0    2
 -2      2981      2980      2984      2989
 -1      8638    3    0    2
 -2      1284      2986      2988      2989
 -1      8639    3    0    2
 -2       100      1382       185      1375
 -1      8640    3    0    2
 -2      2986      2981      2988      2989
 -1      8641    3    0    2
 -2      2981      2983      2988      2989
 -1      8642    3    0    2
 -2      1377      2983      1283      1378
 -1      8643    3    0    2
 -2      2983      1377      1283      2989
 -1      8644    3    0    2
 -2      2983      1283      2988      2989
 -1      8645    3    0    2
 -2      1283      1284      2988      2989
 -1      8646    3    0    2
 -2      1284      1283      1377      2989
 -1      8647    3    0    1
 -2       287      1738      2061      1595
 -1      8648    3    0    2
 -2       527      1380       571      2773
 -1      8649    3    0    2
 -2      1113      2981      2985      2990
 -1      8650    3    0    2
 -2       738       649      2991      1383
 -1      8651    3    0    2
 -2       905      2375       906      3315
 -1      8652    3    0    1
 -2      1895      3383      3776      3820
 -1      8653    3    0    2
 -2      1114      2985      1376      2990
 -1      8654    3    0    2
 -2      1376      1113      1114      2990
 -1      8655    3    0    1
 -2      2076       527      2773      3814
 -1      8656    3    0    2
 -2      2288      2982      2987      2992
 -1      8657    3    0    2
 -2      2289      2288      2987      2992
 -1      8658    3    0    2
 -2      2289      2288      2992      1386
 -1      8659    3    0    2
 -2      2984      2983      2989      2992
 -1      8660    3    0    2
 -2      2980      2984      2989      2992
 -1      8661    3    0    2
 -2      2980      2982      2984      2992
 -1      8662    3    0    2
 -2      1402       735      3022      3026
 -1      8663    3    0    2
 -2      2288      2772      1385      1386
 -1      8664    3    0    1
 -2      2208      3463      3765      3878
 -1      8665    3    0    1
 -2      2396      2160      3124      3371
 -1      8666    3    0    2
 -2       100      1382      1375      1381
 -1      8667    3    0    2
 -2       649      2991      1383      1384
 -1      8668    3    0    1
 -2      1282      2990      3702      3815
 -1      8669    3    0    2
 -2      2991      2987      1383      2993
 -1      8670    3    0    2
 -2      1379      2288      2991      2993
 -1      8671    3    0    2
 -2      2288      1379      1380      2993
 -1      8672    3    0    2
 -2      2991      1383      1384      2993
 -1      8673    3    0    2
 -2      1379      2991      1384      2993
 -1      8674    3    0    2
 -2      1380      1379      1383      2993
 -1      8675    3    0    2
 -2      1383      1379      1384      2993
 -1      8676    3    0    2
 -2       537      1386      2772       569
 -1      8677    3    0    2
 -2       537      2288      2772      1385
 -1      8678    3    0    1
 -2      2645      1089      3714      3862
 -1      8679    3    0    2
 -2       537      1386      1385      2772
 -1      8680    3    0    2
 -2      2984      2983      2992      2994
 -1      8681    3    0    2
 -2      2982      2984      2992      2994
 -1      8682    3    0    2
 -2      2288      2992      1385      2994
 -1      8683    3    0    1
 -2      2022        59      3191      3403
 -1      8684    3    0    2
 -2      2983      2992       734      2989
 -1      8685    3    0    2
 -2      2992      2983       734      2994
 -1      8686    3    0    2
 -2      1386       699      1385      2994
 -1      8687    3    0    1
 -2      3205      2599      2223      2217
 -1      8688    3    0    2
 -2      2992       734      1386      2994
 -1      8689    3    0    2
 -2       699      1386       734      2994
 -1      8690    3    0    2
 -2      3020      3013      3023      3028
 -1      8691    3    0    1
 -2      2156      1864      2215      2995
 -1      8692    3    0    1
 -2      2998      3774      3526      3660
 -1      8693    3    0    1
 -2      1864      2186      2215      2995
 -1      8694    3    0    1
 -2      1863      3537      3649      3908
 -1      8695    3    0    1
 -2      1259      3319      3890      3924
 -1      8696    3    0    2
 -2       283      1388       316      2460
 -1      8697    3    0    1
 -2      1151      2402      3711      3802
 -1      8698    3    0    1
 -2      3684      2154      3266      3804
 -1      8699    3    0    2
 -2      2243       690      2422      1389
 -1      8700    3    0    2
 -2       262      1390      2877       298
 -1      8701    3    0    2
 -2       690      1390       746      2422
 -1      8702    3    0    1
 -2      2144      2169      2243      1389
 -1      8703    3    0    1
 -2      2144      2243      2877      1389
 -1      8704    3    0    1
 -2       262      2144      2877      1389
 -1      8705    3    0    2
 -2       262      1390      1389      2877
 -1      8706    3    0    1
 -2      2061      1812      1604      3574
 -1      8707    3    0    1
 -2       670      2081       901      3584
 -1      8708    3    0    1
 -2      1307      1927      3860      2996
 -1      8709    3    0    1
 -2      2144      1927      2169      1389
 -1      8710    3    0    1
 -2       998      3805      3843      3895
 -1      8711    3    0    1
 -2      2197       670      1232      3584
 -1      8712    3    0    1
 -2      2046      1942      3176      3861
 -1      8713    3    0    1
 -2       414       690      1927      2996
 -1      8714    3    0    1
 -2      1927       690      1389      2996
 -1      8715    3    0    1
 -2       192       168      3809      3917
 -1      8716    3    0    1
 -2      2522      2515      2527      3895
 -1      8717    3    0    1
 -2      1267      3218      1528      3850
 -1      8718    3    0    2
 -2       967       968      3212      3223
 -1      8719    3    0    1
 -2      1796      3193      3693      3485
 -1      8720    3    0    2
 -2       821       664      2433      1495
 -1      8721    3    0    1
 -2      1936       637       957      2997
 -1      8722    3    0    1
 -2      2200      3750      3506      3909
 -1      8723    3    0    1
 -2       532      2011      1071      3708
 -1      8724    3    0    1
 -2      2940      2949      3754      3809
 -1      8725    3    0    1
 -2      3837      3768      2850      3922
 -1      8726    3    0    1
 -2      2047       498      1315      1503
 -1      8727    3    0    1
 -2       393      2047      1315      1503
 -1      8728    3    0    1
 -2      2152      1953      3444      3782
 -1      8729    3    0    1
 -2      3264      3699      3770      3782
 -1      8730    3    0    1
 -2      3015      2310      3032      3756
 -1      8731    3    0    1
 -2       265      3015      3032      3756
 -1      8732    3    0    1
 -2      2717      1969      3685      3729
 -1      8733    3    0    1
 -2       360       498      2047      1503
 -1      8734    3    0    1
 -2      3209      1520      3701      3852
 -1      8735    3    0    2
 -2      2242       393      3195      1503
 -1      8736    3    0    2
 -2      2713      1602      2440      1601
 -1      8737    3    0    1
 -2      3207      3701      3788      3852
 -1      8738    3    0    1
 -2      2197      1232      1443      3584
 -1      8739    3    0    2
 -2       765      1393      3130      3136
 -1      8740    3    0    1
 -2       981      2490       686      3001
 -1      8741    3    0    1
 -2      2481       972      2486      3715
 -1      8742    3    0    2
 -2      3129      3127      3134      3136
 -1      8743    3    0    1
 -2       662      2192      3321      3818
 -1      8744    3    0    2
 -2      3131      3127      3133      3139
 -1      8745    3    0    1
 -2      1897      1934      1944      3499
 -1      8746    3    0    1
 -2      1825       364      2013      1541
 -1      8747    3    0    1
 -2      1893      1758       972      3001
 -1      8748    3    0    1
 -2      1758       686       972      3001
 -1      8749    3    0    1
 -2      1924      1910      1936      3425
 -1      8750    3    0    1
 -2      1968      3175      3698      3773
 -1      8751    3    0    1
 -2      1809      2005      2014      3377
 -1      8752    3    0    1
 -2      1948      1565      3265      3377
 -1      8753    3    0    1
 -2       284      2106      2428      1539
 -1      8754    3    0    1
 -2       284      1909      2106      1539
 -1      8755    3    0    1
 -2       648      2623      3019      3890
 -1      8756    3    0    1
 -2       436      1974      1337      3389
 -1      8757    3    0    1
 -2      2147      3387      3723      3742
 -1      8758    3    0    1
 -2      2087       268      1133      3003
 -1      8759    3    0    1
 -2       841      2087      1133      3003
 -1      8760    3    0    1
 -2       267      2087       841      3003
 -1      8761    3    0    2
 -2       632      1396      2704       709
 -1      8762    3    0    1
 -2       272      3695      3756      3811
 -1      8763    3    0    2
 -2       632      1396      1395      2704
 -1      8764    3    0    1
 -2      2131       386      1203      3371
 -1      8765    3    0    2
 -2       243      1396       302      2446
 -1      8766    3    0    1
 -2       696      1864      2995      1625
 -1      8767    3    0    1
 -2      2057      2055      3113      3118
 -1      8768    3    0    1
 -2      1263      1809      3377      3564
 -1      8769    3    0    1
 -2       105        55      2332      3004
 -1      8770    3    0    1
 -2       130      2802      3739      3796
 -1      8771    3    0    1
 -2      2641      2633      2662      3683
 -1      8772    3    0    1
 -2      1290      2884       186      3725
 -1      8773    3    0    1
 -2       683      2628      2636      3683
 -1      8774    3    0    1
 -2      1926      1879      3231      3428
 -1      8775    3    0    1
 -2      1117      1288      1290      3725
 -1      8776    3    0    1
 -2      1986       669      1996      1429
 -1      8777    3    0    1
 -2      1803      3331      3332      3623
 -1      8778    3    0    1
 -2      1907      1667      3737      3798
 -1      8779    3    0    1
 -2      1667      3325      3737      3798
 -1      8780    3    0    1
 -2      3719       188      3774      3796
 -1      8781    3    0    1
 -2      2884      1290      3716      3725
 -1      8782    3    0    1
 -2      2481      3715      3748      3769
 -1      8783    3    0    1
 -2        70      1117      1290      3725
 -1      8784    3    0    2
 -2      1302       526       580      3391
 -1      8785    3    0    1
 -2      1986      2225      2531      1429
 -1      8786    3    0    2
 -2       669      1430      2531       808
 -1      8787    3    0    1
 -2      2134       252       953      3401
 -1      8788    3    0    1
 -2      1667      2072      3325      3798
 -1      8789    3    0    2
 -2      1632      1631      3588      3603
 -1      8790    3    0    1
 -2      1479      3280      3428      3760
 -1      8791    3    0    1
 -2      1479      3162      3163      3760
 -1      8792    3    0    1
 -2      1355       959      2951      3809
 -1      8793    3    0    1
 -2      2134       643      1333      3401
 -1      8794    3    0    1
 -2      1445       389      3085      3823
 -1      8795    3    0    2
 -2       934       933      3068      1433
 -1      8796    3    0    2
 -2       556      1430       610      3009
 -1      8797    3    0    1
 -2       669      1986      2531      1429
 -1      8798    3    0    1
 -2      1774      1986      1996      1429
 -1      8799    3    0    1
 -2      2560      1029      2568      3746
 -1      8800    3    0    1
 -2       190      3558      3581      3910
 -1      8801    3    0    1
 -2      2119      3494      3662      3918
 -1      8802    3    0    2
 -2      2241       593      2411      1504
 -1      8803    3    0    1
 -2      1929        71      3331      3339
 -1      8804    3    0    1
 -2      2124        52      3779      3897
 -1      8805    3    0    1
 -2       668      1774      2369      3008
 -1      8806    3    0    1
 -2       390      1974      1988      3341
 -1      8807    3    0    1
 -2      1609       640      3816      3535
 -1      8808    3    0    1
 -2      3176      1609      3816      3535
 -1      8809    3    0    2
 -2       802      2377      1609       640
 -1      8810    3    0    1
 -2       508      3176      3533      3535
 -1      8811    3    0    2
 -2       895       390       896      3010
 -1      8812    3    0    1
 -2       626      2086      2089      2045
 -1      8813    3    0    2
 -2      1338       390       609      3010
 -1      8814    3    0    2
 -2       735       698      3022      3026
 -1      8815    3    0    1
 -2      1789      3404      3801      3680
 -1      8816    3    0    2
 -2       875       272      3024      3025
 -1      8817    3    0    2
 -2      1076      1075      3014      3018
 -1      8818    3    0    1
 -2      2758       685      2757      3891
 -1      8819    3    0    2
 -2      1400      1399      3020      3023
 -1      8820    3    0    2
 -2       294       265      3029      3030
 -1      8821    3    0    1
 -2      2758      2762      2765      3891
 -1      8822    3    0    1
 -2      2338      2360      2369      3819
 -1      8823    3    0    2
 -2      1075      1402      1401      3017
 -1      8824    3    0    2
 -2      1161      2463      3027      3031
 -1      8825    3    0    2
 -2      2309      2310      3015      3025
 -1      8826    3    0    2
 -2      1402       698      1401      3022
 -1      8827    3    0    2
 -2      1075      3016      3017      1401
 -1      8828    3    0    1
 -2      1830      2094      2690      3403
 -1      8829    3    0    2
 -2      3011      3013      3020      3021
 -1      8830    3    0    2
 -2      3012      3011      3020      3021
 -1      8831    3    0    2
 -2      3013      3011      3018      3021
 -1      8832    3    0    2
 -2      3011      3012      3015      3024
 -1      8833    3    0    2
 -2      3015      3012      3029      3030
 -1      8834    3    0    2
 -2      3014      3013      3018      3021
 -1      8835    3    0    2
 -2      3016      3017      1401      3022
 -1      8836    3    0    2
 -2      1075       272      3014      3018
 -1      8837    3    0    2
 -2      3016      3013      3019      3023
 -1      8838    3    0    1
 -2      1528      1360      3560      3836
 -1      8839    3    0    1
 -2      2170      3235      3772      3860
 -1      8840    3    0    2
 -2      1399      3020      3023      3028
 -1      8841    3    0    2
 -2      1075      1076      3016      3018
 -1      8842    3    0    1
 -2      1817      2717      3696      3729
 -1      8843    3    0    2
 -2      2310       875      3024      3025
 -1      8844    3    0    2
 -2      3013      3011      3016      3018
 -1      8845    3    0    2
 -2      3015      2310      3024      3025
 -1      8846    3    0    2
 -2      3013      3016      3017      3018
 -1      8847    3    0    2
 -2      3016      1076      3017      3018
 -1      8848    3    0    2
 -2      3014      3013      3017      3018
 -1      8849    3    0    2
 -2      1076      3014      3017      3018
 -1      8850    3    0    1
 -2      3816      3176      3535      3821
 -1      8851    3    0    2
 -2       650       733      2781      3036
 -1      8852    3    0    1
 -2      3757      1895      3776      3820
 -1      8853    3    0    1
 -2      1177      3776      3817      3820
 -1      8854    3    0    2
 -2      3020      1400      3023      3029
 -1      8855    3    0    2
 -2      2310      2309      3032      3034
 -1      8856    3    0    1
 -2      2847      2850      2858      3837
 -1      8857    3    0    1
 -2      2463      1968      3027      3319
 -1      8858    3    0    2
 -2      3012      3020      3029      3030
 -1      8859    3    0    2
 -2      3011      3013      3016      3023
 -1      8860    3    0    1
 -2      1928      3866      3890      3924
 -1      8861    3    0    2
 -2      1075      1402      3017      1076
 -1      8862    3    0    2
 -2       735       698      3027      3031
 -1      8863    3    0    2
 -2       272       293      3014      3024
 -1      8864    3    0    2
 -2      2464      2622      3027      3031
 -1      8865    3    0    1
 -2       626      2187      2086      2045
 -1      8866    3    0    2
 -2       265      3015      3029      3030
 -1      8867    3    0    2
 -2      3012      3011      3021      3024
 -1      8868    3    0    2
 -2      1399      1400      3020      3029
 -1      8869    3    0    2
 -2      2309      3012      3015      3030
 -1      8870    3    0    2
 -2      2782      3035      3036      3037
 -1      8871    3    0    2
 -2       735       698      3026      3027
 -1      8872    3    0    1
 -2      3848      3714      1089      3862
 -1      8873    3    0    2
 -2       698      1402       735      3022
 -1      8874    3    0    1
 -2      1929      1724      3331      3332
 -1      8875    3    0    1
 -2      1978      3683      3468      3797
 -1      8876    3    0    1
 -2       380      1556      3261      3446
 -1      8877    3    0    2
 -2      3020       294      3029      3030
 -1      8878    3    0    2
 -2      3012      3011      3015      3029
 -1      8879    3    0    2
 -2      3011      3012      3020      3029
 -1      8880    3    0    2
 -2      1261      1262      1399      3023
 -1      8881    3    0    2
 -2      1261      1399      1400      3023
 -1      8882    3    0    1
 -2      1294       416      3896      3663
 -1      8883    3    0    1
 -2       944       653      2961      3720
 -1      8884    3    0    2
 -2      2309      3036      3037      3038
 -1      8885    3    0    2
 -2      2463      1162      2464      3031
 -1      8886    3    0    2
 -2       876       272       875      3025
 -1      8887    3    0    2
 -2      2310      2309      3037      3038
 -1      8888    3    0    2
 -2      2309      2310       875      3038
 -1      8889    3    0    2
 -2      3036      2781      3037      3038
 -1      8890    3    0    1
 -2      3377      1263      3564      3864
 -1      8891    3    0    2
 -2       733      1408      3035       650
 -1      8892    3    0    1
 -2      2866      3274      3758      3837
 -1      8893    3    0    2
 -2      1262      1399      3023      3028
 -1      8894    3    0    2
 -2      2310      2309      3034      3036
 -1      8895    3    0    1
 -2      1237      2899      2908      3780
 -1      8896    3    0    1
 -2      3320      3705      3818      3824
 -1      8897    3    0    2
 -2      1404       265      3030      3032
 -1      8898    3    0    1
 -2      2134      2054      2165      3491
 -1      8899    3    0    2
 -2       733       650      3035      3036
 -1      8900    3    0    2
 -2      2310      2309      3030      3032
 -1      8901    3    0    2
 -2       265      3015      3030      3032
 -1      8902    3    0    2
 -2      3015      2310      3030      3032
 -1      8903    3    0    1
 -2      3128      3130      3137      3820
 -1      8904    3    0    1
 -2      3383      1895      3757      3820
 -1      8905    3    0    1
 -2      3131      1177      3140      3820
 -1      8906    3    0    2
 -2      1261      1262      3023      3028
 -1      8907    3    0    2
 -2      3019      1261      3023      3028
 -1      8908    3    0    2
 -2      2309      3030      3032      3034
 -1      8909    3    0    2
 -2      1403      1404      3032      3034
 -1      8910    3    0    2
 -2      3019      1405      1406      3028
 -1      8911    3    0    2
 -2      1261      3019      1406      3028
 -1      8912    3    0    2
 -2      1262      1261      1405      3028
 -1      8913    3    0    2
 -2      1405      1261      1406      3028
 -1      8914    3    0    2
 -2      1399       265      1400      3029
 -1      8915    3    0    2
 -2       294      1399      3020      3029
 -1      8916    3    0    2
 -2       294       265      1399      3029
 -1      8917    3    0    2
 -2      2622      3026      3027      3031
 -1      8918    3    0    2
 -2      2310      2309      3015      3030
 -1      8919    3    0    2
 -2      3019      1405      3028      3033
 -1      8920    3    0    2
 -2       265       294      1403      3030
 -1      8921    3    0    2
 -2       265      1403      1404      3030
 -1      8922    3    0    2
 -2       698      1161      3027      3031
 -1      8923    3    0    2
 -2      1162       698       735      3031
 -1      8924    3    0    2
 -2       698      1162      1161      3031
 -1      8925    3    0    2
 -2      3035      2310      3036      3037
 -1      8926    3    0    2
 -2      1404      3032      3034      3035
 -1      8927    3    0    2
 -2      3013      3016      3019      3033
 -1      8928    3    0    2
 -2       737       648      2622      3033
 -1      8929    3    0    2
 -2      3016      3013      3017      3033
 -1      8930    3    0    2
 -2      2622      3016      3017      3033
 -1      8931    3    0    2
 -2      2622      2623      3016      3033
 -1      8932    3    0    2
 -2      3016      2623      3019      3033
 -1      8933    3    0    2
 -2      2622       648      2623      3033
 -1      8934    3    0    2
 -2      2623       648      3019      3033
 -1      8935    3    0    2
 -2      1405      3019      1406      3033
 -1      8936    3    0    2
 -2      3019       648      1406      3033
 -1      8937    3    0    2
 -2       648       737      1405      3033
 -1      8938    3    0    2
 -2       648      1405      1406      3033
 -1      8939    3    0    1
 -2      3690      3754      3799      3652
 -1      8940    3    0    1
 -2      2928       835      2929      3822
 -1      8941    3    0    2
 -2      2310      3034      3035      3036
 -1      8942    3    0    2
 -2      2310      2309      3036      3037
 -1      8943    3    0    1
 -2      2956      2966      2967      3720
 -1      8944    3    0    1
 -2      2559      2575      2596      3700
 -1      8945    3    0    2
 -2      2781      2782      3036      3037
 -1      8946    3    0    1
 -2      1973      2459      1191      3608
 -1      8947    3    0    2
 -2       650      2782      3035      3036
 -1      8948    3    0    1
 -2      1181      3447      3758      3912
 -1      8949    3    0    2
 -2       875       876      3038      3039
 -1      8950    3    0    1
 -2      2179      1927      2996      3860
 -1      8951    3    0    1
 -2      3683      1978      3400      3879
 -1      8952    3    0    1
 -2       653      1367      2972      3720
 -1      8953    3    0    2
 -2      2310       875      3038      3039
 -1      8954    3    0    1
 -2      2559      2561      2575      3700
 -1      8955    3    0    1
 -2      3050      1410      1424      3841
 -1      8956    3    0    1
 -2      3486      2998      3825      3660
 -1      8957    3    0    2
 -2      1403      1408      3035      1407
 -1      8958    3    0    1
 -2      1984       149      3518      3557
 -1      8959    3    0    1
 -2      3392       403      3426      3580
 -1      8960    3    0    1
 -2      1158       140      2928      3774
 -1      8961    3    0    1
 -2      2017      2038      3181      3201
 -1      8962    3    0    2
 -2      2781      2782      3037      3038
 -1      8963    3    0    1
 -2       439      2476      3748      3769
 -1      8964    3    0    2
 -2      2781       423      2782      3039
 -1      8965    3    0    2
 -2       721       423      2781      3039
 -1      8966    3    0    2
 -2       423       876       875      3039
 -1      8967    3    0    2
 -2       876       721      3038      3039
 -1      8968    3    0    2
 -2       876       423       721      3039
 -1      8969    3    0    2
 -2       721      2781      3038      3039
 -1      8970    3    0    1
 -2      3696      1817      3729      3806
 -1      8971    3    0    1
 -2      1362      2962      2971      3690
 -1      8972    3    0    1
 -2       261      2187       951      3398
 -1      8973    3    0    1
 -2      1520      3701      3852      3917
 -1      8974    3    0    1
 -2      2076      1928      3319      3924
 -1      8975    3    0    1
 -2      3662      2097      3918      3925
 -1      8976    3    0    1
 -2       898      3047      3709      3721
 -1      8977    3    0    1
 -2      2154      3684      3753      3804
 -1      8978    3    0    1
 -2      1370      2967      2975      3690
 -1      8979    3    0    1
 -2      1463       424      3107      3706
 -1      8980    3    0    1
 -2       526      1108      3765      3766
 -1      8981    3    0    1
 -2      1301       694      3181      3201
 -1      8982    3    0    2
 -2      1410      3050      3053      3058
 -1      8983    3    0    2
 -2       717      3044      3049      3055
 -1      8984    3    0    1
 -2      3700      2559      3712      3821
 -1      8985    3    0    2
 -2       651       717      3049      3055
 -1      8986    3    0    1
 -2      3046       659      3058      3699
 -1      8987    3    0    1
 -2      3238      2467      3249      3728
 -1      8988    3    0    1
 -2      1818      1816      1885      3277
 -1      8989    3    0    1
 -2      3024      3018      3695      3811
 -1      8990    3    0    2
 -2        92      1415      1419      1420
 -1      8991    3    0    2
 -2      3050      1424      3059      3061
 -1      8992    3    0    2
 -2      3043      3041      3045      3053
 -1      8993    3    0    2
 -2      1411      3044       717      1412
 -1      8994    3    0    1
 -2       649      2991      1384      3814
 -1      8995    3    0    1
 -2      1794      2015      2357      1561
 -1      8996    3    0    2
 -2       897       898      3044      3047
 -1      8997    3    0    2
 -2      1415      3054      1419      1420
 -1      8998    3    0    1
 -2      1556      1869      2031      3261
 -1      8999    3    0    2
 -2      2307       541      1571      3184
 -1      9000    3    0    2
 -2       627       714      2696      1611
 -1      9001    3    0    1
 -2      1097       415      3683      3734
 -1      9002    3    0    2
 -2       853       854      3047      3054
 -1      9003    3    0    2
 -2      2293      2935      1561      2292
 -1      9004    3    0    2
 -2      3041      3043      3047      3050
 -1      9005    3    0    2
 -2       854       853      1415      3054
 -1      9006    3    0    1
 -2      1631      3856      3586      3601
 -1      9007    3    0    2
 -2      3153      3152      3154      3163
 -1      9008    3    0    2
 -2      2618      2617      3052      3057
 -1      9009    3    0    2
 -2      3054       897      1419      1420
 -1      9010    3    0    2
 -2      2754      2617      2755      3063
 -1      9011    3    0    2
 -2      3043      3047      3050      3061
 -1      9012    3    0    2
 -2      1155        33      3135      3138
 -1      9013    3    0    2
 -2      1418      1417      3059      3061
 -1      9014    3    0    2
 -2      3051      3052      3046      2617
 -1      9015    3    0    2
 -2      3041      3043      3050      3053
 -1      9016    3    0    2
 -2      2618      2617      3060      3063
 -1      9017    3    0    2
 -2      3047      3043      3054      3061
 -1      9018    3    0    2
 -2       898      3044      3047      3049
 -1      9019    3    0    1
 -2      1321      2926      1328      3691
 -1      9020    3    0    2
 -2       574       378      2462      1611
 -1      9021    3    0    2
 -2      2618      3046      3051      3056
 -1      9022    3    0    2
 -2      3044      1411       717      3049
 -1      9023    3    0    2
 -2      3049      1411       717       651
 -1      9024    3    0    2
 -2      3057      2618      3060      3062
 -1      9025    3    0    2
 -2       853      3047      1416      3054
 -1      9026    3    0    2
 -2       897       898      3047      3054
 -1      9027    3    0    2
 -2      3130      3128      3135      3138
 -1      9028    3    0    1
 -2      2247      2111      1228      3441
 -1      9029    3    0    2
 -2       898      3047      3054      1419
 -1      9030    3    0    2
 -2      3051      3052      3042      3046
 -1      9031    3    0    2
 -2      3042      3046      3048      3051
 -1      9032    3    0    1
 -2      2015      2955      1561      2292
 -1      9033    3    0    2
 -2      2617      2618      3051      3056
 -1      9034    3    0    2
 -2      2617      2618      3046      3051
 -1      9035    3    0    2
 -2       651      1184       717      3051
 -1      9036    3    0    2
 -2      1184       651      1183      3051
 -1      9037    3    0    2
 -2      2716       551       612      1563
 -1      9038    3    0    2
 -2      3042       720      3046      3052
 -1      9039    3    0    2
 -2      3050      1409      3053      3059
 -1      9040    3    0    1
 -2       272       875      3024      3756
 -1      9041    3    0    1
 -2      1953      3264      3770      3782
 -1      9042    3    0    2
 -2      2400      2716      1563      1564
 -1      9043    3    0    1
 -2      2578      2583      3700      3722
 -1      9044    3    0    2
 -2      3046      3052      1421      3057
 -1      9045    3    0    1
 -2      2706      3350      3361      3838
 -1      9046    3    0    2
 -2      1417      1423      1424      3059
 -1      9047    3    0    2
 -2      3053      1409      1425      1426
 -1      9048    3    0    2
 -2      1409      1410      3050      3053
 -1      9049    3    0    2
 -2      3043      3050      3053      3059
 -1      9050    3    0    2
 -2      1418      1417      1424      3059
 -1      9051    3    0    2
 -2      2328      3116      1583      2327
 -1      9052    3    0    2
 -2       666      2978      1563      1564
 -1      9053    3    0    2
 -2      1410      3053      1425      3058
 -1      9054    3    0    2
 -2      1410      3050      1424      3059
 -1      9055    3    0    2
 -2      1415       853      1416      3054
 -1      9056    3    0    1
 -2      1661      3378      3719      3771
 -1      9057    3    0    1
 -2      2240      2926      2931      3691
 -1      9058    3    0    1
 -2      2926       689      1328      3691
 -1      9059    3    0    2
 -2      1183      2617      1184      3056
 -1      9060    3    0    2
 -2      1183      1184      3051      3056
 -1      9061    3    0    2
 -2      1184      2617      3051      3056
 -1      9062    3    0    2
 -2       765       680      3134      3136
 -1      9063    3    0    2
 -2       897       898      3054      1419
 -1      9064    3    0    2
 -2      3047      1416      3054      1419
 -1      9065    3    0    2
 -2      1416      1415      3054      1419
 -1      9066    3    0    2
 -2        92      1416       182      1419
 -1      9067    3    0    2
 -2       244       303      3120      1641
 -1      9068    3    0    1
 -2      3422      1239      3884      3903
 -1      9069    3    0    2
 -2      1416        92      1415      1419
 -1      9070    3    0    1
 -2      2200      2130      3189      3324
 -1      9071    3    0    2
 -2       659      1422      1421      3052
 -1      9072    3    0    1
 -2      3756      2185      3511      3811
 -1      9073    3    0    1
 -2      3041      3046      3058      3699
 -1      9074    3    0    2
 -2       659      1422      3052       720
 -1      9075    3    0    2
 -2      2754      2755      3062      3063
 -1      9076    3    0    1
 -2      2396      2427      1360      3808
 -1      9077    3    0    2
 -2      1424      1418      3059      3061
 -1      9078    3    0    1
 -2      1421      3046      3057      3699
 -1      9079    3    0    2
 -2      1422      1421      3052      3057
 -1      9080    3    0    2
 -2      1413      1414      1421      3057
 -1      9081    3    0    2
 -2      2292      2293      2954      1561
 -1      9082    3    0    2
 -2      1413      1421      1422      3057
 -1      9083    3    0    2
 -2      3052      1413      1422      3057
 -1      9084    3    0    2
 -2      2618      2617      3057      3060
 -1      9085    3    0    2
 -2        93        57      1417      1423
 -1      9086    3    0    1
 -2      1079      2636      2643      3797
 -1      9087    3    0    1
 -2       685      1163      3807      3891
 -1      9088    3    0    2
 -2       544       562      3062      1427
 -1      9089    3    0    2
 -2      3052      1413      3057      3060
 -1      9090    3    0    1
 -2      1973      2400      2978      1564
 -1      9091    3    0    2
 -2      1417        57      1418      1424
 -1      9092    3    0    2
 -2      1414      3057      3060      3062
 -1      9093    3    0    2
 -2      1410      1409      3050      3059
 -1      9094    3    0    1
 -2      1347       192      2951      3809
 -1      9095    3    0    2
 -2       544      2754      2755      3062
 -1      9096    3    0    2
 -2      2754       544       562      3062
 -1      9097    3    0    2
 -2      3050      3041      3053      3058
 -1      9098    3    0    2
 -2       720      3042      3046      3058
 -1      9099    3    0    2
 -2      3041      3042      3045      3058
 -1      9100    3    0    2
 -2      3041      3045      3053      3058
 -1      9101    3    0    2
 -2       659       720      3046      3058
 -1      9102    3    0    2
 -2      1425      3053      1426      3058
 -1      9103    3    0    2
 -2      3042       720      3053      3058
 -1      9104    3    0    2
 -2      3045      3042      3053      3058
 -1      9105    3    0    2
 -2      1426       659      1425      3058
 -1      9106    3    0    2
 -2      3053       720      1426      3058
 -1      9107    3    0    2
 -2       659      1426       720      3058
 -1      9108    3    0    2
 -2      2617      2618      2755      3063
 -1      9109    3    0    1
 -2      2942      1347      2951      3809
 -1      9110    3    0    1
 -2      2190      1863      3281      3537
 -1      9111    3    0    2
 -2      1409      1424      1423      3059
 -1      9112    3    0    2
 -2      1424      1409      1410      3059
 -1      9113    3    0    1
 -2       659      1425      3058      3699
 -1      9114    3    0    2
 -2       854      3047      3054      3061
 -1      9115    3    0    2
 -2       853      1417      1418      3061
 -1      9116    3    0    2
 -2      1417       854      3059      3061
 -1      9117    3    0    2
 -2       853       854      1417      3061
 -1      9118    3    0    2
 -2       854      3043      3059      3061
 -1      9119    3    0    2
 -2      3043       854      3054      3061
 -1      9120    3    0    1
 -2       265      3029      3756      3811
 -1      9121    3    0    1
 -2      1400      3023      3029      3811
 -1      9122    3    0    1
 -2      3499      1944      3500      3790
 -1      9123    3    0    2
 -2      3062       544      1427      1428
 -1      9124    3    0    1
 -2      1425      1410      3058      3699
 -1      9125    3    0    1
 -2      3083      1437      1445      3823
 -1      9126    3    0    1
 -2      3106      1115      1465      3842
 -1      9127    3    0    2
 -2      3060      3062      1427      1428
 -1      9128    3    0    2
 -2      3060      1414      3062      1428
 -1      9129    3    0    1
 -2      1421       659      3699      3782
 -1      9130    3    0    2
 -2      2755      2618      3062      3063
 -1      9131    3    0    1
 -2      1013       388      3229      3666
 -1      9132    3    0    2
 -2       526      2261      1302      1301
 -1      9133    3    0    2
 -2      2260       526      1302      3391
 -1      9134    3    0    1
 -2       840      2884      3716      3725
 -1      9135    3    0    1
 -2       840       186      2884      3725
 -1      9136    3    0    1
 -2       127      3740      3455      3840
 -1      9137    3    0    1
 -2      2066       694      1301      3481
 -1      9138    3    0    1
 -2       944       177       985      3372
 -1      9139    3    0    1
 -2       898      1411      3049      3721
 -1      9140    3    0    1
 -2        70       186      3113      3725
 -1      9141    3    0    1
 -2      2471        70      3113      3725
 -1      9142    3    0    1
 -2       526      2078      3456      3766
 -1      9143    3    0    2
 -2      1107       526      1108      3391
 -1      9144    3    0    2
 -2       504       958       583      3390
 -1      9145    3    0    2
 -2      3071      3068      3076      3081
 -1      9146    3    0    2
 -2      3068      3065      3071      3073
 -1      9147    3    0    1
 -2      1447      2065      3540      3883
 -1      9148    3    0    2
 -2      3083      3084      1445      1446
 -1      9149    3    0    2
 -2      1373      3067      3077      3081
 -1      9150    3    0    2
 -2       996       366       597      3286
 -1      9151    3    0    2
 -2       608      2534      2535      3084
 -1      9152    3    0    1
 -2       537      2076      2773      3698
 -1      9153    3    0    1
 -2      1375      1113      2990      3815
 -1      9154    3    0    1
 -2      2135      1235      3723      3742
 -1      9155    3    0    2
 -2      3308      1451      3310      3311
 -1      9156    3    0    2
 -2      3065      3066      3069      3074
 -1      9157    3    0    2
 -2       434       805      3078      1441
 -1      9158    3    0    2
 -2       962       961      3244      3250
 -1      9159    3    0    1
 -2      2498      2425      2505      3419
 -1      9160    3    0    1
 -2      1391      2242      3006      3196
 -1      9161    3    0    2
 -2      1205      3069      3073      3079
 -1      9162    3    0    2
 -2      3070      3066      3072      3078
 -1      9163    3    0    2
 -2      1441      3078      1442      3082
 -1      9164    3    0    2
 -2      2344      3066      3070      3078
 -1      9165    3    0    2
 -2      2342      2341      3301      3302
 -1      9166    3    0    2
 -2      3068       934      1433      3073
 -1      9167    3    0    1
 -2      1239       187      2837      3422
 -1      9168    3    0    1
 -2      2586       966      3684      3804
 -1      9169    3    0    2
 -2      3067      3074      3077      3081
 -1      9170    3    0    1
 -2       394       676      1620      3742
 -1      9171    3    0    1
 -2      1947      1907      3737      3543
 -1      9172    3    0    2
 -2      1206        49       164      1433
 -1      9173    3    0    2
 -2        49      1206      1205      1433
 -1      9174    3    0    2
 -2      2382      3120      1613      1614
 -1      9175    3    0    2
 -2      1205        49      1433      1434
 -1      9176    3    0    2
 -2      3065      3066      3070      3075
 -1      9177    3    0    1
 -2      2046      3746      3574      3861
 -1      9178    3    0    1
 -2      3176      3535      3821      3861
 -1      9179    3    0    2
 -2       801       641       905      3315
 -1      9180    3    0    1
 -2      1968       537      1385      3698
 -1      9181    3    0    2
 -2      3067       434      3072      3078
 -1      9182    3    0    2
 -2      3065      3073      3074      3079
 -1      9183    3    0    2
 -2      2393       271      1189      3116
 -1      9184    3    0    2
 -2      3066      3067      3072      3078
 -1      9185    3    0    2
 -2      3073      3069      3074      3079
 -1      9186    3    0    2
 -2      1431      3067      1432      3072
 -1      9187    3    0    2
 -2      3067       434      1432      3072
 -1      9188    3    0    2
 -2       434       805      1431      3072
 -1      9189    3    0    2
 -2       434      1431      1432      3072
 -1      9190    3    0    2
 -2       934      3068      3071      3073
 -1      9191    3    0    2
 -2      1206      1205      1433      3073
 -1      9192    3    0    2
 -2      1433      1205      1434      3073
 -1      9193    3    0    2
 -2      3068      1433      1434      3073
 -1      9194    3    0    2
 -2      1205      3068      1434      3073
 -1      9195    3    0    2
 -2       926       278       925      3117
 -1      9196    3    0    2
 -2      3067      3066      3072      3074
 -1      9197    3    0    2
 -2      3065      3067      3072      3074
 -1      9198    3    0    2
 -2      3066      3065      3072      3074
 -1      9199    3    0    1
 -2       555      2197      1232      1443
 -1      9200    3    0    2
 -2       805      3070      3078      1441
 -1      9201    3    0    2
 -2      2344      2343      3070      3075
 -1      9202    3    0    2
 -2      3066      2344      3070      3075
 -1      9203    3    0    2
 -2      3065      3071      3077      3081
 -1      9204    3    0    2
 -2      3069      3065      3074      3079
 -1      9205    3    0    2
 -2      1437      1446      3083      1445
 -1      9206    3    0    2
 -2      1445       389      3084      3085
 -1      9207    3    0    2
 -2      3210      3206      3212      3215
 -1      9208    3    0    2
 -2      3067      1431      1432      3077
 -1      9209    3    0    2
 -2      2231       393      1397      3195
 -1      9210    3    0    2
 -2      3067      3065      3072      3077
 -1      9211    3    0    2
 -2      3078      1437      1442      3082
 -1      9212    3    0    2
 -2      1373      3067      1432      3077
 -1      9213    3    0    2
 -2      3070      3078      1441      3082
 -1      9214    3    0    2
 -2      1431      3067      3072      3077
 -1      9215    3    0    2
 -2      3298      3294      3302      3305
 -1      9216    3    0    2
 -2       393      1398      1397      3195
 -1      9217    3    0    2
 -2       933       934      3068      3076
 -1      9218    3    0    2
 -2      3068       934      3071      3076
 -1      9219    3    0    2
 -2      1374      1373      3071      3076
 -1      9220    3    0    2
 -2      1440       933      1439      3076
 -1      9221    3    0    2
 -2       161      1440      1439      3076
 -1      9222    3    0    2
 -2      1374       161      1373      3076
 -1      9223    3    0    2
 -2      3071       934      1440      3076
 -1      9224    3    0    2
 -2       933      1440       934      3076
 -1      9225    3    0    2
 -2       162      3071      1440      3076
 -1      9226    3    0    2
 -2      1440       161       162      3076
 -1      9227    3    0    2
 -2       162      1374      3071      3076
 -1      9228    3    0    2
 -2       161      1374       162      3076
 -1      9229    3    0    2
 -2      1374      1373      1431      3077
 -1      9230    3    0    2
 -2      1431      1373      1432      3077
 -1      9231    3    0    2
 -2      2393      1190      2394      3116
 -1      9232    3    0    1
 -2      3545      3756      3876      3883
 -1      9233    3    0    2
 -2       805      3070      3072      3078
 -1      9234    3    0    2
 -2      3069      1435      1205      1436
 -1      9235    3    0    1
 -2      3125      2119      1988      3402
 -1      9236    3    0    2
 -2      1205      1206      1435      3079
 -1      9237    3    0    2
 -2      1435      3069      1205      3079
 -1      9238    3    0    1
 -2      2009      3420      3801      3543
 -1      9239    3    0    1
 -2        99      1021      3544      3833
 -1      9240    3    0    1
 -2      1942      1606      3533      3861
 -1      9241    3    0    1
 -2      3746      3493      3821      3861
 -1      9242    3    0    1
 -2       639      2046      3574      3861
 -1      9243    3    0    1
 -2      3746      2046      3493      3861
 -1      9244    3    0    2
 -2      2344       555      2535      1443
 -1      9245    3    0    2
 -2      2343      2344      2535      1443
 -1      9246    3    0    2
 -2      2344      2343      3075      1443
 -1      9247    3    0    2
 -2      3074      3065      3077      3081
 -1      9248    3    0    2
 -2      1373      3071      3076      3081
 -1      9249    3    0    2
 -2       555      1444       611      2535
 -1      9250    3    0    1
 -2        33      1882      2027      3549
 -1      9251    3    0    2
 -2      2393       926       925      3117
 -1      9252    3    0    1
 -2      1955      3007      3086      3544
 -1      9253    3    0    2
 -2      3069      3066      3075      3080
 -1      9254    3    0    2
 -2       278       926       291      3117
 -1      9255    3    0    2
 -2      3069      3075      3079      3080
 -1      9256    3    0    2
 -2      1190       271       292      3116
 -1      9257    3    0    2
 -2      1435      3069      3079      3080
 -1      9258    3    0    2
 -2      3069      1435      1436      3080
 -1      9259    3    0    2
 -2       667      1444      1443      3080
 -1      9260    3    0    2
 -2      3075       809      3079      3080
 -1      9261    3    0    2
 -2       809      3075      1444      3080
 -1      9262    3    0    2
 -2      1444       667       809      3080
 -1      9263    3    0    2
 -2       809       667      1435      3080
 -1      9264    3    0    2
 -2       809      1435      3079      3080
 -1      9265    3    0    2
 -2      1435       667      1436      3080
 -1      9266    3    0    2
 -2      1437      1441      1442      3082
 -1      9267    3    0    2
 -2      3078      1437      3082      3083
 -1      9268    3    0    2
 -2      2344      3078      3082      3083
 -1      9269    3    0    2
 -2      1437      1446      1438      3083
 -1      9270    3    0    2
 -2      3215      3208      3219      3221
 -1      9271    3    0    1
 -2      1879      1731      1999      3231
 -1      9272    3    0    2
 -2      1438      3082      3083      3084
 -1      9273    3    0    2
 -2      3083      1438      3084      1446
 -1      9274    3    0    2
 -2      2343      3083      3084      3085
 -1      9275    3    0    2
 -2       389      1446      1445      3084
 -1      9276    3    0    2
 -2      3206      3210      3214      3215
 -1      9277    3    0    2
 -2      3084      3083      1445      3085
 -1      9278    3    0    2
 -2       389      2534      3084      3085
 -1      9279    3    0    2
 -2      2534      2344      2535      3085
 -1      9280    3    0    2
 -2      2344      2343      2535      3085
 -1      9281    3    0    2
 -2      2534      2535      3084      3085
 -1      9282    3    0    1
 -2      3404      2009      3801      3543
 -1      9283    3    0    1
 -2      3793      2019      3519      3554
 -1      9284    3    0    2
 -2      2535      2343      3084      3085
 -1      9285    3    0    1
 -2      1239       691      3489      3884
 -1      9286    3    0    1
 -2       405      1926      1490      3231
 -1      9287    3    0    1
 -2      2999      1955      3007      3086
 -1      9288    3    0    1
 -2      1926      1879      1999      3231
 -1      9289    3    0    1
 -2      2547      2537      3696      3718
 -1      9290    3    0    1
 -2      1731      1879      2191      3231
 -1      9291    3    0    1
 -2      2112      2285      1335      3376
 -1      9292    3    0    1
 -2      3382      2185      3756      3545
 -1      9293    3    0    1
 -2      2475       547      1585      3730
 -1      9294    3    0    1
 -2      3686      1457      3645      3657
 -1      9295    3    0    1
 -2      2802      2132      3682      3385
 -1      9296    3    0    1
 -2      1990      2216      3197      3531
 -1      9297    3    0    1
 -2      2782      3035      3037      3876
 -1      9298    3    0    1
 -2       168      3809      3852      3889
 -1      9299    3    0    1
 -2      3442      1902      3813      3870
 -1      9300    3    0    1
 -2      2793      2802      3682      3385
 -1      9301    3    0    1
 -2       127      1173      3397      3740
 -1      9302    3    0    1
 -2      2395       837      3189      3267
 -1      9303    3    0    1
 -2      2218      2601      1313      3173
 -1      9304    3    0    1
 -2      2121      3262      3714      3873
 -1      9305    3    0    1
 -2       151       966      1003      3684
 -1      9306    3    0    1
 -2       966       999      1003      3684
 -1      9307    3    0    1
 -2        40       151      1003      3684
 -1      9308    3    0    1
 -2      3624      1970      3625      3665
 -1      9309    3    0    1
 -2      1751      1777      1907      3432
 -1      9310    3    0    1
 -2      1716      3285      3701      3513
 -1      9311    3    0    1
 -2       271      2174      1189      3281
 -1      9312    3    0    1
 -2      2107      2140      3283      3412
 -1      9313    3    0    1
 -2      2624      1969      3002      3685
 -1      9314    3    0    1
 -2      1969      2624      2717      3685
 -1      9315    3    0    1
 -2      2848      2849      2860      3710
 -1      9316    3    0    1
 -2      1816      1872      3277      3655
 -1      9317    3    0    2
 -2      2304      1450      2305       624
 -1      9318    3    0    1
 -2      2119       666      3125      1564
 -1      9319    3    0    1
 -2      1812       249       864      3370
 -1      9320    3    0    2
 -2       251      1450       310      2329
 -1      9321    3    0    1
 -2      1449       624      3871      3872
 -1      9322    3    0    2
 -2       624      1450      2305       787
 -1      9323    3    0    1
 -2      2258       267       841      3089
 -1      9324    3    0    1
 -2      1869      2087      1051      3089
 -1      9325    3    0    1
 -2      2250      1966      1051      3089
 -1      9326    3    0    1
 -2       267      2250      1051      3089
 -1      9327    3    0    1
 -2      2004      1051      1869       652
 -1      9328    3    0    1
 -2      1051      2004      1869      3089
 -1      9329    3    0    1
 -2      2258      1966      2874      3089
 -1      9330    3    0    1
 -2       267      2258      2874      3089
 -1      9331    3    0    1
 -2      2250       267      2874      3089
 -1      9332    3    0    1
 -2      1966      2250      2874      3089
 -1      9333    3    0    1
 -2      2087       267      1051      3089
 -1      9334    3    0    1
 -2      1158      2147      3723      3742
 -1      9335    3    0    1
 -2      2183      2111      2193      3090
 -1      9336    3    0    1
 -2      2058      2183      2193      3090
 -1      9337    3    0    1
 -2       500      2058      1111      3090
 -1      9338    3    0    1
 -2      2058       500      2183      3090
 -1      9339    3    0    1
 -2      3230      2124      3461      3779
 -1      9340    3    0    1
 -2      3433      3151      3525      3847
 -1      9341    3    0    1
 -2      1091      1097      3724      3868
 -1      9342    3    0    1
 -2      3483      1881      3817      3853
 -1      9343    3    0    1
 -2      1089      3508      3829      3848
 -1      9344    3    0    1
 -2      1394       680      3757      3482
 -1      9345    3    0    1
 -2       398      3533      3574      3861
 -1      9346    3    0    1
 -2      2342      3296      3308      3818
 -1      9347    3    0    1
 -2      2997      1295      3687      3779
 -1      9348    3    0    1
 -2      1479      3162      3760      3855
 -1      9349    3    0    1
 -2      2934      3528      3825      3843
 -1      9350    3    0    1
 -2      2419      2895      3786      3896
 -1      9351    3    0    1
 -2       898      1411      3721      3847
 -1      9352    3    0    1
 -2      2106      1986      2458      3523
 -1      9353    3    0    1
 -2       987      3735      3738      3777
 -1      9354    3    0    1
 -2        52      1299      2908      3779
 -1      9355    3    0    2
 -2       736      3102      3105      3108
 -1      9356    3    0    1
 -2       662       703      2192      1513
 -1      9357    3    0    2
 -2      3096      1453      3100      3108
 -1      9358    3    0    2
 -2      3092      3093      3095      3102
 -1      9359    3    0    1
 -2      2081        72       901      3694
 -1      9360    3    0    2
 -2       424      1464      1463      3107
 -1      9361    3    0    2
 -2       545      1514      2780       561
 -1      9362    3    0    1
 -2      2142      2999      3007      3122
 -1      9363    3    0    2
 -2      3096      1453      1459      3100
 -1      9364    3    0    2
 -2      1455      1456      3101      3103
 -1      9365    3    0    1
 -2      1007       921      3556      3845
 -1      9366    3    0    2
 -2      2287      2286      3104      3106
 -1      9367    3    0    1
 -2       637      1295      2903      3687
 -1      9368    3    0    1
 -2      1899      2395      3267      3865
 -1      9369    3    0    2
 -2       103      1458      1457      3098
 -1      9370    3    0    1
 -2      1033      3712      3871      3872
 -1      9371    3    0    1
 -2       921       371      3556      3845
 -1      9372    3    0    2
 -2       695       732      3095      3097
 -1      9373    3    0    1
 -2      2126       378      3547      3914
 -1      9374    3    0    1
 -2      1367      2972      3720      3767
 -1      9375    3    0    2
 -2      1453      1454      3105      3108
 -1      9376    3    0    2
 -2      3097       695      1461      1462
 -1      9377    3    0    2
 -2      2424      2779      1513      2780
 -1      9378    3    0    1
 -2      1108      3390       526      3765
 -1      9379    3    0    2
 -2       103      1456       104      3098
 -1      9380    3    0    2
 -2      1456       103      1455      3098
 -1      9381    3    0    2
 -2       947       948      3099      3100
 -1      9382    3    0    1
 -2      3716      3725      3759      3488
 -1      9383    3    0    1
 -2      2848       949      2855      3768
 -1      9384    3    0    2
 -2      3096       947      3099      3100
 -1      9385    3    0    1
 -2      2157      1754      2216      3197
 -1      9386    3    0    2
 -2       103      1458      3098       104
 -1      9387    3    0    2
 -2      3098      3094      3099      3101
 -1      9388    3    0    1
 -2      2403      2469      1159      3423
 -1      9389    3    0    1
 -2      3683      2633      3797      3879
 -1      9390    3    0    2
 -2      1453      1460      3096      1459
 -1      9391    3    0    1
 -2      3041      3047      3049      3721
 -1      9392    3    0    2
 -2      3094      3096      3098      3099
 -1      9393    3    0    2
 -2      1455      1456      3098      3101
 -1      9394    3    0    2
 -2      1458      1457      3098      3099
 -1      9395    3    0    2
 -2       947       948      1457      3099
 -1      9396    3    0    2
 -2      3096       947      3098      3099
 -1      9397    3    0    2
 -2       947      1457      1458      3099
 -1      9398    3    0    2
 -2      3098       947      1458      3099
 -1      9399    3    0    1
 -2      2069      2380      2695      1515
 -1      9400    3    0    2
 -2      1460      3096      1459      3100
 -1      9401    3    0    2
 -2      1398       393       773      3195
 -1      9402    3    0    2
 -2      2424      2425      2498      1513
 -1      9403    3    0    2
 -2       105       101      1459      3100
 -1      9404    3    0    2
 -2       948       101       105      3100
 -1      9405    3    0    1
 -2      2288      2982      2994      3698
 -1      9406    3    0    2
 -2       101       947      3096      3100
 -1      9407    3    0    2
 -2       101       948       947      3100
 -1      9408    3    0    2
 -2      1459       101      1460      3100
 -1      9409    3    0    2
 -2       101      3096      1460      3100
 -1      9410    3    0    1
 -2      1187      1370      2975      3799
 -1      9411    3    0    2
 -2       532      2784      2785      3313
 -1      9412    3    0    1
 -2      3692      2138      3452      3845
 -1      9413    3    0    2
 -2      3097      1462      3104      3106
 -1      9414    3    0    2
 -2      3110      1279      1463      3112
 -1      9415    3    0    1
 -2      2466      2967      2972      3767
 -1      9416    3    0    1
 -2      2967      2975      3690      3767
 -1      9417    3    0    1
 -2      3690      3188      3720      3767
 -1      9418    3    0    1
 -2      2182      2213      3113      3548
 -1      9419    3    0    1
 -2      3856      1819      3620      3646
 -1      9420    3    0    1
 -2      2089      1711      3844      2086
 -1      9421    3    0    2
 -2      3092      3093      3101      3103
 -1      9422    3    0    2
 -2      3093      3092      3095      3103
 -1      9423    3    0    2
 -2      3093       695      3101      3103
 -1      9424    3    0    2
 -2       695      3095      3093      3097
 -1      9425    3    0    2
 -2      3095       695      3093      3103
 -1      9426    3    0    2
 -2      1456       695       732      3103
 -1      9427    3    0    2
 -2       695      1456      1455      3103
 -1      9428    3    0    2
 -2      1115      1461      1462      3104
 -1      9429    3    0    2
 -2       568       528      2689      3109
 -1      9430    3    0    2
 -2      2688       568      2689      3109
 -1      9431    3    0    2
 -2      1454       424      1453      3105
 -1      9432    3    0    2
 -2      3104      2287      3106      3109
 -1      9433    3    0    1
 -2      1953      3444      3770      3636
 -1      9434    3    0    2
 -2       424      1454       736      3105
 -1      9435    3    0    2
 -2      3106      1116      3109      1466
 -1      9436    3    0    2
 -2      1115      1466      3106      1465
 -1      9437    3    0    2
 -2      3110      3107      1463      1464
 -1      9438    3    0    2
 -2      1280      2286      1279      3110
 -1      9439    3    0    2
 -2      2286      1280      2287      3110
 -1      9440    3    0    2
 -2      3095      3102      3107      3110
 -1      9441    3    0    1
 -2        70      2057      2471      3113
 -1      9442    3    0    2
 -2      3094      3096      3100      3108
 -1      9443    3    0    2
 -2      1453      3094      3100      3108
 -1      9444    3    0    2
 -2      1116      3104      3106      3109
 -1      9445    3    0    1
 -2      1711      1807      2912      3330
 -1      9446    3    0    1
 -2      1946      3716      3775      3896
 -1      9447    3    0    2
 -2      3106      3109      1465      1466
 -1      9448    3    0    2
 -2      2287      3106      3109      3111
 -1      9449    3    0    2
 -2      2689      2688      3109      3111
 -1      9450    3    0    1
 -2      2615      1959      3871      3872
 -1      9451    3    0    1
 -2       241      2218      1226      3119
 -1      9452    3    0    2
 -2      1279      1464      3110      1463
 -1      9453    3    0    1
 -2      2057        70       949      3113
 -1      9454    3    0    1
 -2      2055      2180      2182      3113
 -1      9455    3    0    1
 -2      3122      3464      3521      3806
 -1      9456    3    0    1
 -2      2203       526      1301      3765
 -1      9457    3    0    1
 -2      1981       106      3180      3515
 -1      9458    3    0    1
 -2      2619      3445      3825      3787
 -1      9459    3    0    2
 -2      3107      3095      3110      3112
 -1      9460    3    0    2
 -2      1115      1466      1116      3106
 -1      9461    3    0    2
 -2       528      1466      3109       568
 -1      9462    3    0    2
 -2      2286      1279      3110      3112
 -1      9463    3    0    2
 -2      3107      3110      1463      3112
 -1      9464    3    0    2
 -2       528      1466      1465      3109
 -1      9465    3    0    1
 -2      3702      3532      3814      3926
 -1      9466    3    0    1
 -2       371       521      3556      3845
 -1      9467    3    0    2
 -2      3109      3106      1465      3111
 -1      9468    3    0    2
 -2      2688      2286      2287      3111
 -1      9469    3    0    1
 -2      1751      3709      3721      3847
 -1      9470    3    0    2
 -2      2688      2287      3109      3111
 -1      9471    3    0    2
 -2      2287      2286      3110      3112
 -1      9472    3    0    1
 -2      3007       928      3718      3544
 -1      9473    3    0    1
 -2      3737       878      3801      3661
 -1      9474    3    0    2
 -2      3095      3097      3104      3112
 -1      9475    3    0    2
 -2      3097      2286      3104      3112
 -1      9476    3    0    2
 -2      2286      2287      3104      3112
 -1      9477    3    0    2
 -2      3095      2287      3110      3112
 -1      9478    3    0    2
 -2      2287      3095      3104      3112
 -1      9479    3    0    1
 -2      1882      1838      2027      3549
 -1      9480    3    0    1
 -2      2031      2036      1183      3151
 -1      9481    3    0    1
 -2      2057      2182      2213      3113
 -1      9482    3    0    1
 -2      2057      2213      2471      3113
 -1      9483    3    0    1
 -2      3236      2803      3395      3769
 -1      9484    3    0    2
 -2       242      1498      2290       305
 -1      9485    3    0    1
 -2       407      2331      2493      1499
 -1      9486    3    0    1
 -2       537      1968      2076      3698
 -1      9487    3    0    2
 -2      1234       688      1233      3196
 -1      9488    3    0    2
 -2       688      1392      1391      3196
 -1      9489    3    0    1
 -2       412      2069      2695      1515
 -1      9490    3    0    2
 -2       655       726      3301      3308
 -1      9491    3    0    2
 -2       374      1516       572      2461
 -1      9492    3    0    1
 -2      1137      2728      2730      3778
 -1      9493    3    0    1
 -2      3766      2179      3860      3878
 -1      9494    3    0    2
 -2      3294      3296      3301      3302
 -1      9495    3    0    1
 -2      3388      3795      3848      3578
 -1      9496    3    0    2
 -2       545      1514      1513      2780
 -1      9497    3    0    1
 -2      1087      3508      3848      3578
 -1      9498    3    0    1
 -2       163      1976       883      3745
 -1      9499    3    0    1
 -2      2409      2213      3114      3686
 -1      9500    3    0    1
 -2      2213      3004      3114      3686
 -1      9501    3    0    1
 -2      1959       845       403      3580
 -1      9502    3    0    1
 -2        33      2027      3434      3549
 -1      9503    3    0    2
 -2      1225       241      1226      3119
 -1      9504    3    0    2
 -2      2382       304      1225      3119
 -1      9505    3    0    1
 -2      2471      3005      3725      3488
 -1      9506    3    0    1
 -2      2719       697      2729      3778
 -1      9507    3    0    1
 -2      2574      2596      1047      3821
 -1      9508    3    0    1
 -2       406      1007      3556      3845
 -1      9509    3    0    1
 -2       689      3692      3805      3845
 -1      9510    3    0    1
 -2      3692       689      3556      3845
 -1      9511    3    0    2
 -2      1591      3308      1592      3310
 -1      9512    3    0    2
 -2      3301      3308      1591      3310
 -1      9513    3    0    1
 -2      1951       697      1141      3197
 -1      9514    3    0    1
 -2      2144       692      3317      3573
 -1      9515    3    0    1
 -2       663      2016      3474      3476
 -1      9516    3    0    2
 -2      3308      1451      1592      3310
 -1      9517    3    0    1
 -2      2179      3456      3462      3766
 -1      9518    3    0    2
 -2      3218      1267      3224      3225
 -1      9519    3    0    1
 -2       497      2028      2115      3436
 -1      9520    3    0    1
 -2      2098       384      2783      3124
 -1      9521    3    0    2
 -2       385      1508      1507      2273
 -1      9522    3    0    1
 -2      1503       360      2411      3828
 -1      9523    3    0    1
 -2       384      2396      1353      3124
 -1      9524    3    0    1
 -2      3291      3551      3832      3894
 -1      9525    3    0    1
 -2      1353      2396      2946      3124
 -1      9526    3    0    1
 -2      1132       420      3249      3728
 -1      9527    3    0    1
 -2      3126      3386      3841      3913
 -1      9528    3    0    1
 -2      1328      1321      3692      3556
 -1      9529    3    0    1
 -2      2396       384      2427      3124
 -1      9530    3    0    1
 -2      1347       192      3809      3917
 -1      9531    3    0    2
 -2      2508      3585      3587      3603
 -1      9532    3    0    2
 -2      3588      1652      1653      1654
 -1      9533    3    0    1
 -2      2084      2616      3739      3484
 -1      9534    3    0    1
 -2      3811      3511      3866      3890
 -1      9535    3    0    1
 -2      1158      2915      2916      3723
 -1      9536    3    0    1
 -2      3199      3691      3692      3723
 -1      9537    3    0    1
 -2      2918      2914      2921      3723
 -1      9538    3    0    2
 -2       503      1468       585      2606
 -1      9539    3    0    2
 -2       378      2462      1611      1612
 -1      9540    3    0    1
 -2      2492      3738      3834      3651
 -1      9541    3    0    1
 -2      2918       689      2926      3723
 -1      9542    3    0    2
 -2      2696       627      1611      1612
 -1      9543    3    0    1
 -2       188       140      3771      3774
 -1      9544    3    0    1
 -2      1794       280      2015      1561
 -1      9545    3    0    1
 -2      1039       401      2583      3722
 -1      9546    3    0    1
 -2      2583      2580      2585      3722
 -1      9547    3    0    1
 -2      1199        37      2794      3739
 -1      9548    3    0    2
 -2      3129      2613      3134      3141
 -1      9549    3    0    2
 -2      2613      2614      3134      3141
 -1      9550    3    0    1
 -2      3218      3701      3836      3850
 -1      9551    3    0    2
 -2      2614      2613      2747      1469
 -1      9552    3    0    2
 -2       680      1393      1394      3130
 -1      9553    3    0    2
 -2       680       765      1393      3130
 -1      9554    3    0    2
 -2      1177      1178      3131      3133
 -1      9555    3    0    1
 -2      3085      2534      3689      3823
 -1      9556    3    0    2
 -2      1156      1155      3132      3140
 -1      9557    3    0    2
 -2      3131      1177      3133      3140
 -1      9558    3    0    1
 -2      2011      3320      3708      3824
 -1      9559    3    0    2
 -2       771      1177      1178      3131
 -1      9560    3    0    2
 -2      3131      3128      3133      3137
 -1      9561    3    0    1
 -2      2161       501      1309      1648
 -1      9562    3    0    1
 -2      2184      1730      2753      3425
 -1      9563    3    0    1
 -2      3086      1952      3345      3833
 -1      9564    3    0    2
 -2      3127      3131      3133      3137
 -1      9565    3    0    2
 -2      3137      3129      3139      3143
 -1      9566    3    0    1
 -2       433      3832      3863      3631
 -1      9567    3    0    1
 -2      1588       662      3307      3818
 -1      9568    3    0    1
 -2      3308       655      1592      3824
 -1      9569    3    0    1
 -2      1387      2459       283      3149
 -1      9570    3    0    2
 -2      3128      3127      3130      3135
 -1      9571    3    0    2
 -2       680      3134      3136      3144
 -1      9572    3    0    1
 -2      2202       246      1312      3471
 -1      9573    3    0    2
 -2      2613      2747      1469      1470
 -1      9574    3    0    1
 -2      2073      3733      3447      3758
 -1      9575    3    0    2
 -2      3585      3586      3601      3603
 -1      9576    3    0    1
 -2      2058       680      2062      1473
 -1      9577    3    0    2
 -2      2614      2613      3146      3147
 -1      9578    3    0    2
 -2      2613      2747      3147      2614
 -1      9579    3    0    2
 -2      3128      1155      3132      3135
 -1      9580    3    0    2
 -2      3134      3129      3136      3144
 -1      9581    3    0    2
 -2      3129      3127      3137      3139
 -1      9582    3    0    2
 -2      1155       134      1156      3135
 -1      9583    3    0    2
 -2      3127      3129      3134      3139
 -1      9584    3    0    2
 -2        33       134      1155      3135
 -1      9585    3    0    2
 -2       771      3131      3139      3143
 -1      9586    3    0    1
 -2      1730       506      2753      3425
 -1      9587    3    0    2
 -2       630      1469      1470      3141
 -1      9588    3    0    2
 -2      1178      1476      1475      3140
 -1      9589    3    0    1
 -2      3732      2384      3733      3758
 -1      9590    3    0    1
 -2      2073      3274      3732      3758
 -1      9591    3    0    2
 -2      3130      3129      3136      3137
 -1      9592    3    0    2
 -2      3127      3130      3136      3137
 -1      9593    3    0    2
 -2      3129      3127      3136      3137
 -1      9594    3    0    1
 -2      2865      2701      3733      3758
 -1      9595    3    0    1
 -2      3781      3642      3283      3913
 -1      9596    3    0    2
 -2      1393      3130      3135      3138
 -1      9597    3    0    2
 -2      1393      1394      3130      3138
 -1      9598    3    0    2
 -2      1634      1633      3597      3599
 -1      9599    3    0    2
 -2        33       134      3135      3138
 -1      9600    3    0    2
 -2      1393        33      1394      3138
 -1      9601    3    0    2
 -2       134      1393      3135      3138
 -1      9602    3    0    2
 -2       134        33      1393      3138
 -1      9603    3    0    2
 -2       771      3131      3133      3139
 -1      9604    3    0    2
 -2      2614      2613      3144      3145
 -1      9605    3    0    1
 -2      3218      1267      3225      3850
 -1      9606    3    0    1
 -2       502      2058      2193      1473
 -1      9607    3    0    1
 -2      1716      3701      3551      3850
 -1      9608    3    0    1
 -2      1987      2326      1387      3149
 -1      9609    3    0    1
 -2      3529      2207      3809      3812
 -1      9610    3    0    2
 -2      3139      3129      3141      3143
 -1      9611    3    0    2
 -2      1155      1156      1471      3140
 -1      9612    3    0    1
 -2       189      1483      3162      3855
 -1      9613    3    0    1
 -2       880       177      3857      3612
 -1      9614    3    0    2
 -2      1471      1156      1472      3140
 -1      9615    3    0    2
 -2      1156      3132      1472      3140
 -1      9616    3    0    2
 -2      3131       771       630      3143
 -1      9617    3    0    2
 -2       630       771      1469      3141
 -1      9618    3    0    2
 -2       765      3134      3144      3145
 -1      9619    3    0    2
 -2      1474      3148      3146      1473
 -1      9620    3    0    2
 -2      3145      2614      3146      3147
 -1      9621    3    0    1
 -2        66       183      3738      3777
 -1      9622    3    0    1
 -2       156       972      2481      3715
 -1      9623    3    0    2
 -2       771      3139      3141      3143
 -1      9624    3    0    2
 -2       630       771      3141      3143
 -1      9625    3    0    2
 -2       132      1472       135      1475
 -1      9626    3    0    2
 -2      1472       132      1471      1475
 -1      9627    3    0    1
 -2      1668      1682      1835      3579
 -1      9628    3    0    2
 -2      1471      3140      1475      1476
 -1      9629    3    0    2
 -2       132      1471      1475      1476
 -1      9630    3    0    1
 -2      2204      2355      3857      3612
 -1      9631    3    0    1
 -2      1757      1755      2064      3609
 -1      9632    3    0    1
 -2      1257       524      2865      3758
 -1      9633    3    0    2
 -2      3130       680      3136      3144
 -1      9634    3    0    2
 -2      3129      3130      3136      3144
 -1      9635    3    0    2
 -2       765      1473      1474      3144
 -1      9636    3    0    1
 -2       980      2481       932      3715
 -1      9637    3    0    2
 -2      3144      1473      3145      3146
 -1      9638    3    0    2
 -2      2613      3144      3145      3146
 -1      9639    3    0    1
 -2      3331      1929      3332      3726
 -1      9640    3    0    1
 -2      2133      2709      3763      3613
 -1      9641    3    0    2
 -2      2613      3146      3147      3148
 -1      9642    3    0    1
 -2      1982      1141      3703      3458
 -1      9643    3    0    1
 -2       182      3432      3433      3847
 -1      9644    3    0    2
 -2       589       502      2748      3148
 -1      9645    3    0    1
 -2       156      2481       980      3715
 -1      9646    3    0    2
 -2      3148      1474      3146      3147
 -1      9647    3    0    1
 -2       432      1987      1387      3149
 -1      9648    3    0    1
 -2       283      1909      1387      3149
 -1      9649    3    0    1
 -2      2064      1902      3563      3609
 -1      9650    3    0    2
 -2      2748      3147       589      3148
 -1      9651    3    0    1
 -2      1951      2215      3373      3458
 -1      9652    3    0    1
 -2       987       703      3735      3777
 -1      9653    3    0    1
 -2       983      3309      3705      3777
 -1      9654    3    0    2
 -2       502      1474      1473      3148
 -1      9655    3    0    2
 -2      1474       589      3147      3148
 -1      9656    3    0    2
 -2      1474       502       589      3148
 -1      9657    3    0    1
 -2      2371      2361      3707      3726
 -1      9658    3    0    1
 -2      3467      3803      3609      3670
 -1      9659    3    0    1
 -2      2346       283      2459      3149
 -1      9660    3    0    1
 -2      1973      2346      2459      3149
 -1      9661    3    0    1
 -2       881      2361      2371      3726
 -1      9662    3    0    1
 -2      2416      3276      3411      3785
 -1      9663    3    0    1
 -2       643      2134      2165      3401
 -1      9664    3    0    1
 -2      1185      3161      1488      3785
 -1      9665    3    0    1
 -2      1325       835      3774      3660
 -1      9666    3    0    1
 -2      3279      1915      3428      3855
 -1      9667    3    0    1
 -2       189      3233      3509      3855
 -1      9668    3    0    2
 -2      1622      1621      3361      3363
 -1      9669    3    0    2
 -2       598      2262      2416      1489
 -1      9670    3    0    2
 -2      1479      1480      3163      3169
 -1      9671    3    0    2
 -2       784       405      3163      3168
 -1      9672    3    0    2
 -2      3157       781      3161      3165
 -1      9673    3    0    1
 -2      2281      1890      3859      3907
 -1      9674    3    0    2
 -2      3157      2263      3170      3171
 -1      9675    3    0    2
 -2      3154      3152      3155      3156
 -1      9676    3    0    2
 -2      1478        43      1477      3155
 -1      9677    3    0    2
 -2        43      1478       143      3155
 -1      9678    3    0    1
 -2       705      1804      1818      3277
 -1      9679    3    0    1
 -2      2541       970      3696      3729
 -1      9680    3    0    1
 -2       413      1137      3778      3839
 -1      9681    3    0    1
 -2      1776      1677      1826      3571
 -1      9682    3    0    2
 -2        43      1477      3155      3159
 -1      9683    3    0    2
 -2      3154      3152      3158      3167
 -1      9684    3    0    2
 -2      3154      3156      3159      3162
 -1      9685    3    0    1
 -2      1047       363      2574      3821
 -1      9686    3    0    1
 -2      1400      1261      3866      3641
 -1      9687    3    0    1
 -2      2434      2132      3682      3495
 -1      9688    3    0    2
 -2      3157      2262      3161      3166
 -1      9689    3    0    2
 -2      3154      3152      3156      3169
 -1      9690    3    0    2
 -2      1480       784      3163      3169
 -1      9691    3    0    2
 -2      3152      3153      3157      3160
 -1      9692    3    0    2
 -2      2263      2262      3157      3170
 -1      9693    3    0    2
 -2      2325      2352      1582      2326
 -1      9694    3    0    2
 -2      3156       851      1483      1484
 -1      9695    3    0    1
 -2      1936      1924      3270      3454
 -1      9696    3    0    1
 -2      1938      2005      2064      3563
 -1      9697    3    0    2
 -2      3152      3154      3163      3169
 -1      9698    3    0    1
 -2      1966       702      1995      3429
 -1      9699    3    0    1
 -2      1983      1840      1273      3429
 -1      9700    3    0    2
 -2      3153      3152      3157      3164
 -1      9701    3    0    2
 -2      3152      3153      3154      3158
 -1      9702    3    0    2
 -2      3157      3153      3164      3165
 -1      9703    3    0    1
 -2      3214      3207      3701      3832
 -1      9704    3    0    1
 -2      1965      1702      3283      3634
 -1      9705    3    0    2
 -2      3168      3153      3170      3171
 -1      9706    3    0    1
 -2      2027        33      3434      3757
 -1      9707    3    0    1
 -2      3225      1267      1531      3850
 -1      9708    3    0    1
 -2      3687      2066      3461      3780
 -1      9709    3    0    2
 -2      3155      3154      3156      3159
 -1      9710    3    0    2
 -2      1482      1481      3155      3159
 -1      9711    3    0    2
 -2       852       851      3156      3159
 -1      9712    3    0    2
 -2      3152      3153      3160      3163
 -1      9713    3    0    2
 -2      1482       852      1481      3159
 -1      9714    3    0    2
 -2       851      3155      3156      3159
 -1      9715    3    0    2
 -2      3155       851      1482      3159
 -1      9716    3    0    2
 -2       852      1482       851      3159
 -1      9717    3    0    2
 -2      1489      2263      1490      3171
 -1      9718    3    0    2
 -2      2262      2263      2416      1489
 -1      9719    3    0    1
 -2      1981      1705      3180      3510
 -1      9720    3    0    2
 -2      1486       687      3164      3165
 -1      9721    3    0    2
 -2      2262      2263      3157      3161
 -1      9722    3    0    2
 -2      1485      3158      3164      3167
 -1      9723    3    0    1
 -2      3123      2997      3687      3461
 -1      9724    3    0    2
 -2      3161       687      1487      1488
 -1      9725    3    0    2
 -2      3158      3152      3164      3167
 -1      9726    3    0    1
 -2       422       970      2541      3729
 -1      9727    3    0    1
 -2      2324      2538      2551      3729
 -1      9728    3    0    1
 -2      2032      1910      3270      3454
 -1      9729    3    0    2
 -2      3156       852      3159      3162
 -1      9730    3    0    2
 -2       852      3156      1483      3162
 -1      9731    3    0    2
 -2      1483      3156      1484      3162
 -1      9732    3    0    2
 -2       189      1480      1479      3162
 -1      9733    3    0    2
 -2       144       189      1483      3162
 -1      9734    3    0    2
 -2      1480       144      3156      3162
 -1      9735    3    0    2
 -2      1480       189       144      3162
 -1      9736    3    0    2
 -2       144      1483      1484      3162
 -1      9737    3    0    2
 -2      3156       144      1484      3162
 -1      9738    3    0    2
 -2       784       405      1479      3163
 -1      9739    3    0    2
 -2       598      1490      1489      2416
 -1      9740    3    0    2
 -2       784      1479      1480      3163
 -1      9741    3    0    2
 -2       405      3168      3170      3171
 -1      9742    3    0    2
 -2       687       781      1485      3164
 -1      9743    3    0    2
 -2       687      1485      1486      3164
 -1      9744    3    0    2
 -2       781      3157      3164      3165
 -1      9745    3    0    2
 -2      1477      1478      3155      3167
 -1      9746    3    0    1
 -2       704      3685      3696      3731
 -1      9747    3    0    1
 -2      1995       702      1273      3429
 -1      9748    3    0    1
 -2      2077      1915      2709      3233
 -1      9749    3    0    1
 -2      2709      2077      1900      2040
 -1      9750    3    0    1
 -2      1900      1731      2077      3233
 -1      9751    3    0    2
 -2      1487      3161      1488      3166
 -1      9752    3    0    2
 -2      3161      1185      1488      3166
 -1      9753    3    0    2
 -2      1185      1186      1487      3166
 -1      9754    3    0    2
 -2      1185      1487      1488      3166
 -1      9755    3    0    2
 -2      1485      1486      3158      3167
 -1      9756    3    0    2
 -2      3154      3158      3159      3167
 -1      9757    3    0    2
 -2      3155      3154      3159      3167
 -1      9758    3    0    2
 -2      3158      1477      3159      3167
 -1      9759    3    0    2
 -2      1477      3155      3159      3167
 -1      9760    3    0    2
 -2      1477      3158      1486      3167
 -1      9761    3    0    2
 -2      1478      1486      1485      3167
 -1      9762    3    0    2
 -2      1486      1478      1477      3167
 -1      9763    3    0    1
 -2      2074      1934      2082      3232
 -1      9764    3    0    2
 -2      2262      2263      1489      3171
 -1      9765    3    0    2
 -2      3153      2263      3157      3171
 -1      9766    3    0    2
 -2      1480      1479      3162      3169
 -1      9767    3    0    2
 -2      3162      1479      3163      3169
 -1      9768    3    0    2
 -2      3154      3162      3163      3169
 -1      9769    3    0    2
 -2      3154      3156      3162      3169
 -1      9770    3    0    2
 -2      2263      2262      3170      3171
 -1      9771    3    0    1
 -2      1827       191      1885      3277
 -1      9772    3    0    2
 -2      3153      3157      3160      3170
 -1      9773    3    0    1
 -2      1165      3752      3465      3891
 -1      9774    3    0    1
 -2      3091      3778      3515      3553
 -1      9775    3    0    1
 -2      2355      3459      3857      3612
 -1      9776    3    0    1
 -2      2324      2555      1578      3729
 -1      9777    3    0    2
 -2      3160       784      3168      3170
 -1      9778    3    0    2
 -2       598      1490      2416       367
 -1      9779    3    0    1
 -2        43      2133      3187      3613
 -1      9780    3    0    1
 -2      1751      1907      1941      3432
 -1      9781    3    0    2
 -2       784       405      3168      3170
 -1      9782    3    0    2
 -2      3153      3157      3170      3171
 -1      9783    3    0    2
 -2       784       405      3170      3171
 -1      9784    3    0    2
 -2       405      1489      1490      3171
 -1      9785    3    0    2
 -2      2262      1489      3170      3171
 -1      9786    3    0    2
 -2      1489       784      3170      3171
 -1      9787    3    0    2
 -2      1489       405       784      3171
 -1      9788    3    0    1
 -2      1811       679      1613      3568
 -1      9789    3    0    1
 -2      2384      2865      3733      3758
 -1      9790    3    0    1
 -2      1321      3691      3692      3828
 -1      9791    3    0    1
 -2       701      3247      3704      3813
 -1      9792    3    0    1
 -2      3693      1163      3807      3840
 -1      9793    3    0    1
 -2      3684      2584      3722      3747
 -1      9794    3    0    1
 -2      1985      1778      3087      3268
 -1      9795    3    0    1
 -2      3587      2509      3874      3921
 -1      9796    3    0    1
 -2      2218      1811      3119      3173
 -1      9797    3    0    1
 -2      1811       244      3119      3173
 -1      9798    3    0    1
 -2      2708      2047      2751      3173
 -1      9799    3    0    1
 -2      1738       287      1229      3472
 -1      9800    3    0    1
 -2      2161      2047      2708      3173
 -1      9801    3    0    1
 -2       287      1738      1595      3472
 -1      9802    3    0    1
 -2      2078      2042      3456      3766
 -1      9803    3    0    1
 -2      2538      2541      2543      3696
 -1      9804    3    0    1
 -2      2624      2717      3685      3696
 -1      9805    3    0    1
 -2      2897       694      2907      3687
 -1      9806    3    0    1
 -2       694      1301      2907      3687
 -1      9807    3    0    1
 -2       694      2066      1301      3687
 -1      9808    3    0    1
 -2      1301      2261      2907      3687
 -1      9809    3    0    1
 -2      2035      2112      1335      3376
 -1      9810    3    0    1
 -2      2479      2439      2488      3783
 -1      9811    3    0    1
 -2       509       981      3376      3783
 -1      9812    3    0    1
 -2      2455       509      3376      3783
 -1      9813    3    0    1
 -2        33      1394      3757      3482
 -1      9814    3    0    1
 -2      2062      2027      3757      3482
 -1      9815    3    0    1
 -2      2641      2633      3683      3879
 -1      9816    3    0    1
 -2      2203      2066      3123      3687
 -1      9817    3    0    2
 -2      3239      3237      3248      3252
 -1      9818    3    0    2
 -2      3253      2468      3256      3258
 -1      9819    3    0    1
 -2      2109      2413      3486      3825
 -1      9820    3    0    2
 -2       616      2236      2272      1495
 -1      9821    3    0    2
 -2      2468      2467      3242      3247
 -1      9822    3    0    2
 -2       961       420      3240       830
 -1      9823    3    0    2
 -2      2236      2235      2272      1495
 -1      9824    3    0    2
 -2      2272       549       616      1495
 -1      9825    3    0    1
 -2      3256      1553      3259      3907
 -1      9826    3    0    2
 -2      2236      2432      1495      2433
 -1      9827    3    0    1
 -2      2599        69      3506      3901
 -1      9828    3    0    1
 -2      3266      3684      3722      3747
 -1      9829    3    0    1
 -2      2110      2130      2398      3189
 -1      9830    3    0    1
 -2      2200      2130      2395      3189
 -1      9831    3    0    1
 -2      2192      1588      3708      3818
 -1      9832    3    0    1
 -2      1840      1995      3282      3880
 -1      9833    3    0    1
 -2      1840      1273      3429      3880
 -1      9834    3    0    1
 -2       544      1273      3323      3880
 -1      9835    3    0    1
 -2      1414      1428      3323      3880
 -1      9836    3    0    1
 -2      1846      2076      3814      3656
 -1      9837    3    0    2
 -2       903      2298      3203      3204
 -1      9838    3    0    1
 -2      2184      2202      3177      3182
 -1      9839    3    0    1
 -2      2184      1730      2202      3182
 -1      9840    3    0    1
 -2      2208      2184      3177      3182
 -1      9841    3    0    1
 -2      2678      1105      2680      3764
 -1      9842    3    0    1
 -2      1830      1760      2022      3403
 -1      9843    3    0    1
 -2      2698      1864      3711      3802
 -1      9844    3    0    1
 -2      2538      2551      3685      3696
 -1      9845    3    0    1
 -2      1479      3280      3760      3881
 -1      9846    3    0    1
 -2      3264      1953      3282      3782
 -1      9847    3    0    1
 -2      2538      2539      2551      3696
 -1      9848    3    0    1
 -2      1337       390      3010      3344
 -1      9849    3    0    1
 -2      2238      2632      2640      3724
 -1      9850    3    0    1
 -2      3403      1917      3475      3773
 -1      9851    3    0    1
 -2      2283      2675      2678      3764
 -1      9852    3    0    1
 -2      1283      1378      3702      3773
 -1      9853    3    0    1
 -2      1830      2022      2094      3403
 -1      9854    3    0    1
 -2      1974       390      1337      3344
 -1      9855    3    0    1
 -2      2208       636      1105      3764
 -1      9856    3    0    1
 -2      2126      1612      3546      3399
 -1      9857    3    0    1
 -2      2283      2678      2680      3764
 -1      9858    3    0    1
 -2      2046       639      1606      3861
 -1      9859    3    0    1
 -2      3685      2538      3696      3729
 -1      9860    3    0    1
 -2       520      1792      2416      3276
 -1      9861    3    0    1
 -2      2185      3278      3756      3536
 -1      9862    3    0    1
 -2      2538      2324      2548      3729
 -1      9863    3    0    2
 -2      1494      3363      3364      3367
 -1      9864    3    0    2
 -2      3353      3348      3359      3365
 -1      9865    3    0    1
 -2      2538      2548      3696      3729
 -1      9866    3    0    1
 -2      1259      2463       648      3890
 -1      9867    3    0    2
 -2      2379      1612      1611      2462
 -1      9868    3    0    2
 -2      2273      2272      1507       385
 -1      9869    3    0    1
 -2       258      2056      2234      1506
 -1      9870    3    0    1
 -2      3297      3296      3705      3818
 -1      9871    3    0    2
 -2      2233       258      2234      1505
 -1      9872    3    0    2
 -2      2233      2234      2442      1505
 -1      9873    3    0    2
 -2       385      1508      2273       618
 -1      9874    3    0    2
 -2      2379      2695      1612      2380
 -1      9875    3    0    1
 -2      1809       427      2014      1507
 -1      9876    3    0    1
 -2      2056       258      2141      1506
 -1      9877    3    0    1
 -2      2141       644      2210      1506
 -1      9878    3    0    2
 -2      1612      2696      2379      1611
 -1      9879    3    0    1
 -2      2234      2210      2442      1506
 -1      9880    3    0    1
 -2      2210       644      2442      1506
 -1      9881    3    0    2
 -2       308       258      2453      1505
 -1      9882    3    0    1
 -2      2056      2141      2210      1506
 -1      9883    3    0    1
 -2      2056      2210      2234      1506
 -1      9884    3    0    1
 -2      1944      1934      2074      3499
 -1      9885    3    0    1
 -2        65      1351      1357      3754
 -1      9886    3    0    2
 -2       701       827      3241      3246
 -1      9887    3    0    2
 -2       664      2432      2433      1495
 -1      9888    3    0    2
 -2      2272       549      1495      1496
 -1      9889    3    0    2
 -2      2235      2272      1495      1496
 -1      9890    3    0    2
 -2      2432      2235      1495      1496
 -1      9891    3    0    2
 -2       664      2432      1495      1496
 -1      9892    3    0    1
 -2      2063      1971      2099      1496
 -1      9893    3    0    1
 -2      1971      1853      2099      1496
 -1      9894    3    0    1
 -2      2472       542      1263      3907
 -1      9895    3    0    1
 -2      3693      3193      3454      3840
 -1      9896    3    0    1
 -2      3336      1711      3839      3844
 -1      9897    3    0    1
 -2       405      1479      3760      3881
 -1      9898    3    0    1
 -2       497      2115      1055      3436
 -1      9899    3    0    1
 -2       127      1171      3693      3840
 -1      9900    3    0    1
 -2      3586      3587      3601      3874
 -1      9901    3    0    2
 -2      3211      3207      3212      3223
 -1      9902    3    0    1
 -2      3732      2858      3758      3837
 -1      9903    3    0    1
 -2      3100      3686      3099      3688
 -1      9904    3    0    1
 -2      2028       630      1470      3776
 -1      9905    3    0    1
 -2      2153      3493      3816      3821
 -1      9906    3    0    1
 -2      1455      3099      3686      3688
 -1      9907    3    0    1
 -2      3099      1455      3101      3688
 -1      9908    3    0    1
 -2       689      1328      3692      3556
 -1      9909    3    0    1
 -2      3087       439      3769      3558
 -1      9910    3    0    1
 -2      3004      3114      3686      3688
 -1      9911    3    0    1
 -2      1321       521      3692      3556
 -1      9912    3    0    1
 -2      2041      3114      3121      3688
 -1      9913    3    0    1
 -2      2041      2409      3114      3688
 -1      9914    3    0    1
 -2       106      1981      3510      3846
 -1      9915    3    0    1
 -2       439       974      3769      3558
 -1      9916    3    0    2
 -2      2291      1500      2230      1499
 -1      9917    3    0    2
 -2      2230      1500      2229      2493
 -1      9918    3    0    2
 -2       407      1500      2493       772
 -1      9919    3    0    2
 -2       407      1500      1499      2493
 -1      9920    3    0    1
 -2      2141      2188      2976      1499
 -1      9921    3    0    1
 -2      2976       259      2977      1499
 -1      9922    3    0    1
 -2      2141      2976      2977      1499
 -1      9923    3    0    1
 -2      2141      2024      2188      1499
 -1      9924    3    0    1
 -2      2024       407      2188      1499
 -1      9925    3    0    1
 -2      1443       667      3080      3689
 -1      9926    3    0    2
 -2       259      1500       306      2291
 -1      9927    3    0    1
 -2      2331      2024      2977      1499
 -1      9928    3    0    1
 -2      3066      2344      3080      3689
 -1      9929    3    0    1
 -2      2024      2141      2977      1499
 -1      9930    3    0    1
 -2      1749       545      2192      1513
 -1      9931    3    0    1
 -2       161      1373      3750      3885
 -1      9932    3    0    1
 -2      2534      2344      3085      3689
 -1      9933    3    0    1
 -2      3439      2118      3501      3542
 -1      9934    3    0    1
 -2      1385      2288      2994      3698
 -1      9935    3    0    1
 -2       699      1385      2994      3698
 -1      9936    3    0    1
 -2      3208      3219      3221      3832
 -1      9937    3    0    1
 -2       955      3797      1085      2643
 -1      9938    3    0    1
 -2      2019      3794      3800      3554
 -1      9939    3    0    1
 -2        44      2118      3439      3542
 -1      9940    3    0    1
 -2      3413      2490      3748      3783
 -1      9941    3    0    1
 -2      1730      2403      1159      3423
 -1      9942    3    0    1
 -2      2009      1789      3404      3801
 -1      9943    3    0    1
 -2       187      1889      2837      3422
 -1      9944    3    0    1
 -2      1246      1069      3800      3554
 -1      9945    3    0    1
 -2      2118        44      3501      3542
 -1      9946    3    0    1
 -2      2197      2060      3115      3689
 -1      9947    3    0    2
 -2       671      1596       799      2608
 -1      9948    3    0    1
 -2      1730      2247      2403      3423
 -1      9949    3    0    2
 -2      3196      3195      1234       778
 -1      9950    3    0    2
 -2       688      1234       778      3196
 -1      9951    3    0    1
 -2      2242      1391      3006      3828
 -1      9952    3    0    1
 -2      1235      2135      3691      3828
 -1      9953    3    0    1
 -2      1952      1957      1997      3345
 -1      9954    3    0    1
 -2      1951      1990      2216      3197
 -1      9955    3    0    2
 -2      3295       872      3304      3306
 -1      9956    3    0    2
 -2      3297      3294      3304      3305
 -1      9957    3    0    1
 -2      2409      1946      3716      3775
 -1      9958    3    0    1
 -2      1286       109      2881      3775
 -1      9959    3    0    1
 -2      2889      1291      2893      3775
 -1      9960    3    0    1
 -2       103      1455      3686      3775
 -1      9961    3    0    1
 -2      3686      1455      3688      3775
 -1      9962    3    0    1
 -2      1988      2119      3494      3640
 -1      9963    3    0    1
 -2      2409      3686      3688      3775
 -1      9964    3    0    2
 -2      2241      2242      3195      1503
 -1      9965    3    0    2
 -2      2242      2241      2411      1503
 -1      9966    3    0    2
 -2       360      1504      2411       593
 -1      9967    3    0    2
 -2       360      1504      1503      2411
 -1      9968    3    0    2
 -2      1510       849       850      3204
 -1      9969    3    0    1
 -2      2047      2177      3006      1503
 -1      9970    3    0    1
 -2      2135      2047      3006      1503
 -1      9971    3    0    1
 -2      1548       962      3408      3798
 -1      9972    3    0    2
 -2       149      1510       154       903
 -1      9973    3    0    1
 -2      1026       970      3464      3806
 -1      9974    3    0    1
 -2      2690      2094      3464      3521
 -1      9975    3    0    1
 -2      2052      2058      3090      3752
 -1      9976    3    0    1
 -2       689      1328      3691      3692
 -1      9977    3    0    1
 -2      1165      3465      3487      3869
 -1      9978    3    0    1
 -2       436       937      3125      3389
 -1      9979    3    0    1
 -2       439      1808      3415      3769
 -1      9980    3    0    2
 -2      2474      2475      3409      1637
 -1      9981    3    0    1
 -2      3701      3836      3852      3917
 -1      9982    3    0    1
 -2      1935      1796      3381      3582
 -1      9983    3    0    1
 -2      1833      1681      2774      3557
 -1      9984    3    0    1
 -2       974      2476       439      3769
 -1      9985    3    0    1
 -2       911      2179      3456      3860
 -1      9986    3    0    1
 -2       521      2411      2933      3828
 -1      9987    3    0    1
 -2      1139       833      2728      3846
 -1      9988    3    0    1
 -2      3121      2041      3688      3706
 -1      9989    3    0    1
 -2      3105      3093      3107      3706
 -1      9990    3    0    1
 -2      1463      3107      3112      3706
 -1      9991    3    0    1
 -2      3347      2025      3471      3637
 -1      9992    3    0    1
 -2      2018      1674      3517      3893
 -1      9993    3    0    1
 -2       626      2187      2698      1646
 -1      9994    3    0    1
 -2      3047       898      3049      3721
 -1      9995    3    0    1
 -2      2019      2001      3793      3519
 -1      9996    3    0    1
 -2       626      2086      1646      2089
 -1      9997    3    0    1
 -2      2840       645      1246      3800
 -1      9998    3    0    1
 -2       645      2840      3794      3800
 -1      9999    3    0    1
 -2      2128      3124      3188      3690
 -1     10000    3    0    1
 -2      3494      3673      3925      3679
 -1     10001    3    0    1
 -2      1847        33      2027      3482
 -1     10002    3    0    1
 -2      1069      2279      2840      3800
 -1     10003    3    0    2
 -2       713       626      2698      1645
 -1     10004    3    0    1
 -2      3708      3320      3818      3824
 -1     10005    3    0    1
 -2      1113      3702      3815      3893
 -1     10006    3    0    1
 -2      3088      2148      3726      3851
 -1     10007    3    0    1
 -2      2931      1321      2933      3691
 -1     10008    3    0    1
 -2      2097      3882      3662      3918
 -1     10009    3    0    1
 -2      3738      2492      3632      3651
 -1     10010    3    0    1
 -2      3209      1492      1520      3852
 -1     10011    3    0    1
 -2      2240      1235      2922      3691
 -1     10012    3    0    1
 -2      1808      3395      3415      3769
 -1     10013    3    0    1
 -2      1337      1974      3344      3389
 -1     10014    3    0    1
 -2      2630      2628      3683      3724
 -1     10015    3    0    1
 -2      2940      3754      3529      3809
 -1     10016    3    0    1
 -2       707      1658      3882      3918
 -1     10017    3    0    1
 -2      2299       904      3203      3831
 -1     10018    3    0    1
 -2      1303      1305      3727      3780
 -1     10019    3    0    1
 -2       502      2193       910      3849
 -1     10020    3    0    1
 -2      3567      2121      3873      3912
 -1     10021    3    0    1
 -2      2613      3146      3148      3849
 -1     10022    3    0    1
 -2      1473       502      3148      3849
 -1     10023    3    0    1
 -2      2135      3040      3199      3691
 -1     10024    3    0    1
 -2      2899      1237      2910      3780
 -1     10025    3    0    1
 -2      1528      3218      3701      3836
 -1     10026    3    0    1
 -2       970       422      2690      3806
 -1     10027    3    0    1
 -2       970      2690      3464      3806
 -1     10028    3    0    1
 -2      2094      1817      3521      3806
 -1     10029    3    0    1
 -2      2091       708      1331      3523
 -1     10030    3    0    1
 -2       436      1986       937      3389
 -1     10031    3    0    1
 -2       184      1026      3464      3806
 -1     10032    3    0    1
 -2       284      1909      3125      3389
 -1     10033    3    0    1
 -2      1897      1886      2133      3613
 -1     10034    3    0    1
 -2      1830      1891      3122      3521
 -1     10035    3    0    1
 -2      3518      3520      3830      3831
 -1     10036    3    0    1
 -2      2148      3338      3707      3726
 -1     10037    3    0    1
 -2      3083      2344      3689      3823
 -1     10038    3    0    1
 -2      1891      1921      2142      3521
 -1     10039    3    0    1
 -2       624      1033      2573      3871
 -1     10040    3    0    1
 -2       109       103      3686      3775
 -1     10041    3    0    1
 -2      2409      3688      3706      3775
 -1     10042    3    0    1
 -2       959      3812      3610      3635
 -1     10043    3    0    1
 -2      1455      3101      3688      3775
 -1     10044    3    0    1
 -2      2619      3430      3445      3787
 -1     10045    3    0    1
 -2      3688      3101      3706      3775
 -1     10046    3    0    1
 -2      1891      1830      1921      3521
 -1     10047    3    0    2
 -2       849      1510      1509      3204
 -1     10048    3    0    1
 -2      1195      1199      2794      3858
 -1     10049    3    0    2
 -2      2705      2706      3357      3361
 -1     10050    3    0    1
 -2      1534       627      3399      3569
 -1     10051    3    0    2
 -2       188       133      3356      3362
 -1     10052    3    0    1
 -2      1064      1173      2767      3693
 -1     10053    3    0    2
 -2      3361      1622      3363      3364
 -1     10054    3    0    2
 -2      1124      3349      3352      3354
 -1     10055    3    0    2
 -2      1511      1616      1615      3354
 -1     10056    3    0    2
 -2      3351       676      3357      3361
 -1     10057    3    0    1
 -2       681      3682      1467      3388
 -1     10058    3    0    1
 -2      2276      1618      3470      3796
 -1     10059    3    0    1
 -2      1938      3377      3564      3864
 -1     10060    3    0    1
 -2      3074      3066      3689      3741
 -1     10061    3    0    1
 -2      3231      1926      3280      3881
 -1     10062    3    0    1
 -2      3074      3689      3697      3741
 -1     10063    3    0    1
 -2      3684      2154      3753      3528
 -1     10064    3    0    1
 -2      2107      2140      3412      3781
 -1     10065    3    0    1
 -2      1416       182      3709      3781
 -1     10066    3    0    1
 -2       550      2869      3227      3850
 -1     10067    3    0    1
 -2       880       177      3329      3857
 -1     10068    3    0    1
 -2      2186       266      1534      3569
 -1     10069    3    0    1
 -2      2630      2632      3724      3795
 -1     10070    3    0    1
 -2      1382       185      1375      3815
 -1     10071    3    0    1
 -2      2982      2288      2991      3698
 -1     10072    3    0    2
 -2       641      1336      1335      3315
 -1     10073    3    0    1
 -2        72        49      1205      3694
 -1     10074    3    0    1
 -2       901        72      1205      3694
 -1     10075    3    0    1
 -2      3329      2128      3713      3857
 -1     10076    3    0    1
 -2       702      1966      2250      1517
 -1     10077    3    0    2
 -2       702      2250      2609      1517
 -1     10078    3    0    2
 -2       702      1518      1517      2609
 -1     10079    3    0    1
 -2       388      3291      3863      3894
 -1     10080    3    0    1
 -2      1467      3388      3848      3578
 -1     10081    3    0    2
 -2       277      1518       289      2874
 -1     10082    3    0    1
 -2      2217      2200      2223      3205
 -1     10083    3    0    2
 -2       672       395      2751      1641
 -1     10084    3    0    1
 -2      2073      3269      3733      3451
 -1     10085    3    0    1
 -2      1889       187      3292      3422
 -1     10086    3    0    1
 -2      3716      2471      3725      3488
 -1     10087    3    0    1
 -2      3710      2189      3768      3837
 -1     10088    3    0    2
 -2      2600       244      1641      2601
 -1     10089    3    0    2
 -2      2264       846       845      3286
 -1     10090    3    0    2
 -2      3208      3206      3209      3214
 -1     10091    3    0    2
 -2      3208      2390      3213      3219
 -1     10092    3    0    2
 -2       813      3213      3218      1527
 -1     10093    3    0    2
 -2       813       706      3209      1519
 -1     10094    3    0    2
 -2       967       968      3223      1529
 -1     10095    3    0    2
 -2       967       968      3210      3212
 -1     10096    3    0    1
 -2      2038      2017      2171      3292
 -1     10097    3    0    1
 -2       503      2209      1061      3407
 -1     10098    3    0    1
 -2      3440      3285      3788      3561
 -1     10099    3    0    2
 -2       968       433       967      3210
 -1     10100    3    0    2
 -2       433       968       819      3210
 -1     10101    3    0    2
 -2      1519      3209      1492      1520
 -1     10102    3    0    1
 -2      3205      3750      3440      3885
 -1     10103    3    0    2
 -2      3206      3207      3216      3217
 -1     10104    3    0    2
 -2       706       813      3218      1527
 -1     10105    3    0    2
 -2        69      1523      1529      1530
 -1     10106    3    0    2
 -2      3209       706      3213      3218
 -1     10107    3    0    2
 -2       706       813      3209      3213
 -1     10108    3    0    1
 -2      1744      1826      3640      3673
 -1     10109    3    0    2
 -2       862       861      3211      3223
 -1     10110    3    0    2
 -2      3210       967      3212      3223
 -1     10111    3    0    1
 -2      1041       397      2591      3877
 -1     10112    3    0    2
 -2       922       371       921      3287
 -1     10113    3    0    2
 -2       861      1526       862      3216
 -1     10114    3    0    2
 -2       819      3210      3212      3215
 -1     10115    3    0    2
 -2      3208      3209      3213      3218
 -1     10116    3    0    2
 -2      2389      2390      3213      3218
 -1     10117    3    0    2
 -2      2321      2322      2446      1575
 -1     10118    3    0    1
 -2      2025       682      2202      3407
 -1     10119    3    0    2
 -2      2389      2390      3224      3225
 -1     10120    3    0    2
 -2      2389      1522      2390      2870
 -1     10121    3    0    2
 -2       371       922       599      3287
 -1     10122    3    0    1
 -2      1442      3863      3631      3667
 -1     10123    3    0    1
 -2      2185      3756      3545      3883
 -1     10124    3    0    1
 -2      3207      3209      3214      3701
 -1     10125    3    0    1
 -2      2537      2550      3696      3833
 -1     10126    3    0    1
 -2      3910      1778      3558      3581
 -1     10127    3    0    1
 -2      3209      3207      3222      3701
 -1     10128    3    0    1
 -2      1910      1729      3270      3503
 -1     10129    3    0    1
 -2      3209       706      3218      3701
 -1     10130    3    0    1
 -2      3210       967      3223      3832
 -1     10131    3    0    1
 -2      2042      2175      3201      3293
 -1     10132    3    0    2
 -2      3215       819      3219      3220
 -1     10133    3    0    2
 -2       819      1521      3219      3220
 -1     10134    3    0    2
 -2      3219      2389      1522      2390
 -1     10135    3    0    2
 -2       819       433      3210      3221
 -1     10136    3    0    2
 -2       635      1576       763      2353
 -1     10137    3    0    2
 -2       433      1521      1522      3219
 -1     10138    3    0    2
 -2       366       996       995      3286
 -1     10139    3    0    2
 -2       613      2869      2870      3226
 -1     10140    3    0    2
 -2      3209      3206      3207      3214
 -1     10141    3    0    2
 -2      3206      3209      3207      3217
 -1     10142    3    0    2
 -2      3208      3206      3213      3217
 -1     10143    3    0    2
 -2      3206      3208      3209      3217
 -1     10144    3    0    2
 -2      3209      3208      3213      3217
 -1     10145    3    0    2
 -2      3209       813      1519      3217
 -1     10146    3    0    2
 -2       813      3209      3213      3217
 -1     10147    3    0    2
 -2      3209      1519      1492      3217
 -1     10148    3    0    2
 -2      2389      1522      2870      1521
 -1     10149    3    0    2
 -2      3217      1519      1492      1491
 -1     10150    3    0    1
 -2       243      2162      2321      1575
 -1     10151    3    0    2
 -2      3218       706      1527      1528
 -1     10152    3    0    2
 -2       846       366       845      3286
 -1     10153    3    0    1
 -2      2095      2048      2167      3436
 -1     10154    3    0    2
 -2       366       846       597      3286
 -1     10155    3    0    1
 -2      2028      2102      2167      3436
 -1     10156    3    0    2
 -2       550      2869      3226      3227
 -1     10157    3    0    2
 -2      3216       861      1525      3222
 -1     10158    3    0    1
 -2      2810       408      2813      3789
 -1     10159    3    0    2
 -2       861      1526      3216      1525
 -1     10160    3    0    1
 -2      2048      2095      1226      3436
 -1     10161    3    0    2
 -2       819      3210      3215      3221
 -1     10162    3    0    2
 -2       433       819      1521      3219
 -1     10163    3    0    2
 -2      1521      3219      2389      1522
 -1     10164    3    0    2
 -2      3219      1521      2389      3220
 -1     10165    3    0    1
 -2      1211      2825       372      3789
 -1     10166    3    0    2
 -2       819      3215      3219      3221
 -1     10167    3    0    2
 -2       433       819      3219      3221
 -1     10168    3    0    2
 -2      2415       366       995      3286
 -1     10169    3    0    1
 -2      2043      1813      2299      3831
 -1     10170    3    0    2
 -2      3207      3216      3217      3222
 -1     10171    3    0    2
 -2      3209      3207      3217      3222
 -1     10172    3    0    2
 -2      1492      3209      3217      3222
 -1     10173    3    0    2
 -2      1526      3216      1525      3222
 -1     10174    3    0    2
 -2      1491      1492      3217      3222
 -1     10175    3    0    2
 -2      1491      3216      1526      3222
 -1     10176    3    0    2
 -2       167      1492      1491      3222
 -1     10177    3    0    2
 -2      3216      1491      3217      3222
 -1     10178    3    0    2
 -2       168       167      1525      3222
 -1     10179    3    0    2
 -2      1492       167       168      3222
 -1     10180    3    0    2
 -2      1525       167      1526      3222
 -1     10181    3    0    2
 -2       167      1491      1526      3222
 -1     10182    3    0    2
 -2       968      3211      3212      3223
 -1     10183    3    0    2
 -2      3223       967      1529      1530
 -1     10184    3    0    2
 -2       861      1524      1523      3223
 -1     10185    3    0    2
 -2      3287      3286       922       599
 -1     10186    3    0    2
 -2       862      3211      1524      3223
 -1     10187    3    0    2
 -2      1524       861       862      3223
 -1     10188    3    0    2
 -2       705       918       917      3288
 -1     10189    3    0    2
 -2      1267      1527      1528      3224
 -1     10190    3    0    1
 -2      2162       635      2321      1575
 -1     10191    3    0    2
 -2      1524      1523      3223      1529
 -1     10192    3    0    2
 -2        69      1524       166      1529
 -1     10193    3    0    2
 -2      1524        69      1523      1529
 -1     10194    3    0    2
 -2      2317       705      2318      3288
 -1     10195    3    0    2
 -2       366      2264       845      3286
 -1     10196    3    0    2
 -2      1267      1268      3224      3225
 -1     10197    3    0    1
 -2      2069       374      3269      3451
 -1     10198    3    0    1
 -2       374      2069      2461      3451
 -1     10199    3    0    1
 -2      2624      1952      3086      3833
 -1     10200    3    0    1
 -2      2615      2306      3746      3871
 -1     10201    3    0    2
 -2       550      1532      3226       613
 -1     10202    3    0    2
 -2      1268      3224      3225      3226
 -1     10203    3    0    2
 -2      1531       550      3226      3227
 -1     10204    3    0    2
 -2      3225      3226      1531      1532
 -1     10205    3    0    2
 -2      2389      3225      3226      3227
 -1     10206    3    0    1
 -2      1401      3016      3022      3695
 -1     10207    3    0    2
 -2       550      1532      1531      3226
 -1     10208    3    0    1
 -2      3696      2624      3718      3833
 -1     10209    3    0    1
 -2      3718      3086      3544      3833
 -1     10210    3    0    2
 -2      3226      3225      1531      3227
 -1     10211    3    0    2
 -2      2869      2870      3226      3227
 -1     10212    3    0    1
 -2      2555       381      3730      3474
 -1     10213    3    0    1
 -2       663      2016      3409      3474
 -1     10214    3    0    2
 -2      2870      2389      3226      3227
 -1     10215    3    0    2
 -2      2252       627      2253      1533
 -1     10216    3    0    1
 -2      2928      2915      3723      3822
 -1     10217    3    0    2
 -2       714       627      2696      1533
 -1     10218    3    0    1
 -2      1075       272      3018      3695
 -1     10219    3    0    2
 -2       627      2253      1533      1534
 -1     10220    3    0    2
 -2      2252      2695       627      2696
 -1     10221    3    0    2
 -2      2252       627      1533      2696
 -1     10222    3    0    1
 -2      1424      1410      3770      3841
 -1     10223    3    0    1
 -2      1410      3058      3699      3841
 -1     10224    3    0    1
 -2      2256      2575      2578      3700
 -1     10225    3    0    1
 -2      2575      2256      2596      3700
 -1     10226    3    0    1
 -2      1387      1909      3125      3228
 -1     10227    3    0    2
 -2      2428      2457      1539      1540
 -1     10228    3    0    1
 -2      2623      3016      3019      3695
 -1     10229    3    0    1
 -2      1379      3814      3656      3668
 -1     10230    3    0    1
 -2      3863       433      3631      3667
 -1     10231    3    0    2
 -2      2428      2429      2457      1540
 -1     10232    3    0    1
 -2      3016      1075      3018      3695
 -1     10233    3    0    1
 -2       390      3010      3344      3819
 -1     10234    3    0    1
 -2      2794      1199      3739      3858
 -1     10235    3    0    1
 -2      3018       272      3024      3695
 -1     10236    3    0    1
 -2       435      2106      1067      3229
 -1     10237    3    0    1
 -2      2410      3284      3717      3751
 -1     10238    3    0    1
 -2      3209      3208      3214      3701
 -1     10239    3    0    1
 -2      1013       432      3228      3229
 -1     10240    3    0    1
 -2       432      1387      3228      3229
 -1     10241    3    0    1
 -2       435      1067      3228      3229
 -1     10242    3    0    1
 -2      2156      3536      2995      2215
 -1     10243    3    0    1
 -2      2179      2996      3573      3860
 -1     10244    3    0    1
 -2      1341       387      3875      3888
 -1     10245    3    0    1
 -2      2496      2500      2502      3735
 -1     10246    3    0    1
 -2      2247       243      1395      3328
 -1     10247    3    0    1
 -2      3752      2136      3465      3891
 -1     10248    3    0    1
 -2      3754      3529      3809      3812
 -1     10249    3    0    1
 -2      2211       371      3287      3762
 -1     10250    3    0    1
 -2      2156      1990      2215      3373
 -1     10251    3    0    1
 -2       265      1400      3866      3641
 -1     10252    3    0    1
 -2      1968       698      1161      3695
 -1     10253    3    0    1
 -2      1161       698      3027      3695
 -1     10254    3    0    1
 -2      1968      1161      3027      3695
 -1     10255    3    0    1
 -2      1960       380      3261      3446
 -1     10256    3    0    1
 -2      3730       547      3627      3674
 -1     10257    3    0    1
 -2       881       887      3851      3650
 -1     10258    3    0    1
 -2       835      1325      3774      3822
 -1     10259    3    0    1
 -2       896      2338      3010      3819
 -1     10260    3    0    1
 -2       380      2281      1556      3859
 -1     10261    3    0    1
 -2      2127      3064      3724      3795
 -1     10262    3    0    1
 -2      1421      3323      3444      3782
 -1     10263    3    0    1
 -2      1179      1247      2845      3784
 -1     10264    3    0    1
 -2      1017       928      2547      3718
 -1     10265    3    0    1
 -2      1584       278      3476      3562
 -1     10266    3    0    1
 -2       928      2537      2547      3718
 -1     10267    3    0    1
 -2      3007      2999      3086      3718
 -1     10268    3    0    1
 -2       547      2475      2555      3730
 -1     10269    3    0    1
 -2      1978      3683      3400      3734
 -1     10270    3    0    1
 -2      2539       704      2551      3696
 -1     10271    3    0    1
 -2      2551       704      3685      3696
 -1     10272    3    0    1
 -2       277      1517      3429      3562
 -1     10273    3    0    1
 -2      3175      1917      3191      3773
 -1     10274    3    0    1
 -2      1169       126      3527      3869
 -1     10275    3    0    1
 -2      3087      1985      3268      3415
 -1     10276    3    0    1
 -2      2547       970      1026      3718
 -1     10277    3    0    1
 -2      1985      2003      2145      3415
 -1     10278    3    0    1
 -2      2005      1757      2064      3563
 -1     10279    3    0    1
 -2       859       661       925      3234
 -1     10280    3    0    1
 -2       660       661       859      3234
 -1     10281    3    0    1
 -2      2006      2620      1559      3842
 -1     10282    3    0    1
 -2       887       163      3745      3851
 -1     10283    3    0    1
 -2      3533       639      3574      3861
 -1     10284    3    0    1
 -2       163       887      3550      3851
 -1     10285    3    0    1
 -2      2136      2052      3752      3465
 -1     10286    3    0    1
 -2       978       439      2488      3783
 -1     10287    3    0    1
 -2      2690      2094      3521      3806
 -1     10288    3    0    1
 -2      3696       970      3718      3806
 -1     10289    3    0    1
 -2      2042       526      3462      3766
 -1     10290    3    0    1
 -2      2042      2179      3456      3462
 -1     10291    3    0    1
 -2      1817      2094      2690      3806
 -1     10292    3    0    1
 -2       114      3768      3854      3879
 -1     10293    3    0    1
 -2      1078      2641      2662      3879
 -1     10294    3    0    2
 -2      1628      2417      2405      1627
 -1     10295    3    0    2
 -2      2405      1628      1627      2442
 -1     10296    3    0    2
 -2      2405       782      2442      1627
 -1     10297    3    0    2
 -2      2260       583       958      3390
 -1     10298    3    0    1
 -2      1825       399      2034      1541
 -1     10299    3    0    2
 -2      2339       364      2340      1541
 -1     10300    3    0    2
 -2       399      1542       789      2448
 -1     10301    3    0    2
 -2       364      1542      1541      2339
 -1     10302    3    0    1
 -2      1676      2034      2340      1541
 -1     10303    3    0    2
 -2       364      1542      2339       601
 -1     10304    3    0    1
 -2      1436      3069      3080      3697
 -1     10305    3    0    1
 -2      2081      3194      3694      3697
 -1     10306    3    0    1
 -2      1676      1825      2034      1541
 -1     10307    3    0    1
 -2      1205      3068      3069      3697
 -1     10308    3    0    1
 -2      3069      3066      3080      3697
 -1     10309    3    0    1
 -2      3080      3066      3689      3697
 -1     10310    3    0    1
 -2      3069      3068      3074      3697
 -1     10311    3    0    1
 -2      3066      3074      3689      3697
 -1     10312    3    0    1
 -2      3066      3069      3074      3697
 -1     10313    3    0    1
 -2      2402      2698      3711      3802
 -1     10314    3    0    1
 -2       633      2052      1165      3752
 -1     10315    3    0    1
 -2      3176      3533      1942       508
 -1     10316    3    0    1
 -2      3493      3176      3821      3861
 -1     10317    3    0    1
 -2      1032      3746      3821      3861
 -1     10318    3    0    1
 -2      1443       667      3689      3697
 -1     10319    3    0    1
 -2      2197      1443      3689      3697
 -1     10320    3    0    1
 -2      2010       522      2912      3507
 -1     10321    3    0    1
 -2      2036      3151      3200      3892
 -1     10322    3    0    1
 -2      1111      2469       500      3752
 -1     10323    3    0    1
 -2      1111       500      3090      3752
 -1     10324    3    0    1
 -2      3090       500      3441      3752
 -1     10325    3    0    1
 -2      2081      3115      3194      3697
 -1     10326    3    0    1
 -2      2081      2197      3115      3697
 -1     10327    3    0    1
 -2      3533      3176      1942      3861
 -1     10328    3    0    1
 -2      3746       398      3574      3861
 -1     10329    3    0    1
 -2      3176      3533      3535      3861
 -1     10330    3    0    1
 -2      2036      1183      3151      3892
 -1     10331    3    0    1
 -2      2991      1379      1384      3814
 -1     10332    3    0    1
 -2      2288      1379      2991      3814
 -1     10333    3    0    1
 -2      2773       527      1379      3814
 -1     10334    3    0    2
 -2       287      1596      2828       311
 -1     10335    3    0    1
 -2      2061       671      2608      1595
 -1     10336    3    0    2
 -2      1230       438       797      3316
 -1     10337    3    0    1
 -2      2666       245      2675      3772
 -1     10338    3    0    2
 -2       438      1230      1229      3316
 -1     10339    3    0    1
 -2      2390      3219      3701      3894
 -1     10340    3    0    1
 -2      3540      3842      3664      3927
 -1     10341    3    0    2
 -2      3316      3315      1557       797
 -1     10342    3    0    2
 -2       287      1596      1595      2828
 -1     10343    3    0    1
 -2      1585       663      3476      3627
 -1     10344    3    0    1
 -2      2076      1968      3175      3698
 -1     10345    3    0    1
 -2      3698      3702      3532      3814
 -1     10346    3    0    1
 -2      1556      2749      3261      2281
 -1     10347    3    0    2
 -2      3237      3241      3246      3248
 -1     10348    3    0    2
 -2      3237      3240      3244      3248
 -1     10349    3    0    2
 -2      3239      3237      3244      3248
 -1     10350    3    0    2
 -2      3241      3238      3246      3248
 -1     10351    3    0    1
 -2      3309      3705      3777      3834
 -1     10352    3    0    2
 -2      3240      3239      3244      3248
 -1     10353    3    0    2
 -2      3238      3237      3240      3245
 -1     10354    3    0    2
 -2      3239       878      3243      3251
 -1     10355    3    0    2
 -2      2327      3409       663      2328
 -1     10356    3    0    2
 -2      3247      1073      1546      3253
 -1     10357    3    0    1
 -2      3121      3418      3755      3480
 -1     10358    3    0    1
 -2      2889      3716      3786      3896
 -1     10359    3    0    1
 -2      3490      3449      3829      3835
 -1     10360    3    0    2
 -2      3241      3239      3252      3257
 -1     10361    3    0    2
 -2      2468      2467      3253      3256
 -1     10362    3    0    2
 -2      3242      3247      1545      3253
 -1     10363    3    0    2
 -2      3240      3237      3244      3245
 -1     10364    3    0    2
 -2       830      3240      3244      3245
 -1     10365    3    0    1
 -2      1589       872      3309      3834
 -1     10366    3    0    1
 -2      3115      2139      3741      3555
 -1     10367    3    0    2
 -2      3243      3239      3244      3250
 -1     10368    3    0    2
 -2       878      3239      3243      3250
 -1     10369    3    0    2
 -2       877       878      3243      3250
 -1     10370    3    0    1
 -2      2194       177      3329      3372
 -1     10371    3    0    2
 -2       961      3243      3250      1547
 -1     10372    3    0    2
 -2      3240       962      3244      3250
 -1     10373    3    0    2
 -2      3242      3238      3246      3247
 -1     10374    3    0    2
 -2       701      3242      3246      3247
 -1     10375    3    0    2
 -2      2280      2749      1556      2281
 -1     10376    3    0    2
 -2      3241       701      3246      3247
 -1     10377    3    0    2
 -2      3238      3241      3246      3247
 -1     10378    3    0    1
 -2        66      1589      1594      3834
 -1     10379    3    0    2
 -2       420       830      3249      3254
 -1     10380    3    0    2
 -2      3247       701      1545      1546
 -1     10381    3    0    2
 -2      3242      3245      3249      3255
 -1     10382    3    0    2
 -2       701       827      3247      1545
 -1     10383    3    0    1
 -2      2128      3124      3690      3754
 -1     10384    3    0    2
 -2       316       283      2460      1607
 -1     10385    3    0    1
 -2      3057      1421      3699      3810
 -1     10386    3    0    1
 -2      3700      2153      3722      3816
 -1     10387    3    0    1
 -2      1551        64      3801      3647
 -1     10388    3    0    2
 -2      3238      2467      3242      3249
 -1     10389    3    0    2
 -2      3238      3242      3245      3249
 -1     10390    3    0    2
 -2      2467      2468      3249      3255
 -1     10391    3    0    2
 -2      3245       830      3249      3255
 -1     10392    3    0    2
 -2      2467      2468      3242      3249
 -1     10393    3    0    2
 -2       420      1131      1132      3249
 -1     10394    3    0    2
 -2      3243      1544      3250      1547
 -1     10395    3    0    2
 -2       420       830      1131      3249
 -1     10396    3    0    1
 -2      3760      3159      3763      3855
 -1     10397    3    0    2
 -2       961      3243      3244      3250
 -1     10398    3    0    2
 -2      1586       663       728      3410
 -1     10399    3    0    2
 -2       878      1544      1543      3250
 -1     10400    3    0    1
 -2      2502       987      3735      3738
 -1     10401    3    0    1
 -2      2724      1135      2725      3778
 -1     10402    3    0    2
 -2      2327      1579      1580      3409
 -1     10403    3    0    2
 -2      1579       730      1580      3409
 -1     10404    3    0    2
 -2       877      3243      1544      3250
 -1     10405    3    0    2
 -2      1544       878       877      3250
 -1     10406    3    0    2
 -2       622       380      2473      1555
 -1     10407    3    0    1
 -2      3415      3087      3769      3910
 -1     10408    3    0    2
 -2      3241      3237      3246      3252
 -1     10409    3    0    2
 -2      1266      3241      3246      3252
 -1     10410    3    0    2
 -2       620       542      2472      3258
 -1     10411    3    0    2
 -2      1074      1546      1073      3253
 -1     10412    3    0    2
 -2       420      3240       830      3254
 -1     10413    3    0    2
 -2       830      3240      3245      3254
 -1     10414    3    0    2
 -2      2468      2467      1131      3255
 -1     10415    3    0    2
 -2      1131      2467      1132      3255
 -1     10416    3    0    2
 -2      1132      2467      3249      3255
 -1     10417    3    0    2
 -2      1131      1132      3249      3255
 -1     10418    3    0    2
 -2      1544      1543      3250      1547
 -1     10419    3    0    2
 -2       179      1548      1543      1547
 -1     10420    3    0    2
 -2       179      1543      1544      1547
 -1     10421    3    0    2
 -2       179      1548       180      1543
 -1     10422    3    0    2
 -2      2475      3409      1637      1638
 -1     10423    3    0    2
 -2      1543      3250      1547      1548
 -1     10424    3    0    2
 -2      1266      1265      3241      3257
 -1     10425    3    0    2
 -2      1266      3241      3252      3257
 -1     10426    3    0    2
 -2       178      1549      1550      1552
 -1     10427    3    0    1
 -2      3690      1362      3713      3754
 -1     10428    3    0    1
 -2      2079      2350      2612      3327
 -1     10429    3    0    2
 -2      1073      1074      3253      3256
 -1     10430    3    0    2
 -2      3247      1073      3253      3256
 -1     10431    3    0    2
 -2      2467      3247      3253      3256
 -1     10432    3    0    1
 -2      1069      2840      1246      3800
 -1     10433    3    0    1
 -2      3247       701      1546      3813
 -1     10434    3    0    1
 -2      1089      3714      3829      3835
 -1     10435    3    0    1
 -2      1349      2939      2940      3754
 -1     10436    3    0    1
 -2      1349      2940      2949      3754
 -1     10437    3    0    1
 -2      2078      2042      3317      3573
 -1     10438    3    0    1
 -2      2220      3705      3827      3834
 -1     10439    3    0    1
 -2      1095      1089      3829      3835
 -1     10440    3    0    2
 -2       542      1554      3258       620
 -1     10441    3    0    1
 -2      1843      1782      3496      3654
 -1     10442    3    0    1
 -2      2636       683      3797      3858
 -1     10443    3    0    1
 -2      3192      2223      3335      3405
 -1     10444    3    0    2
 -2        64      1552      1549       178
 -1     10445    3    0    1
 -2      1869      1960      2031      3261
 -1     10446    3    0    1
 -2      1960       380      1556      3261
 -1     10447    3    0    2
 -2        64      1552      1551      1549
 -1     10448    3    0    2
 -2      2280      2472       380      2473
 -1     10449    3    0    2
 -2      3239      3251      3252      3257
 -1     10450    3    0    2
 -2      1549      3251      1551      3257
 -1     10451    3    0    2
 -2      1265      1266      1549      3257
 -1     10452    3    0    2
 -2      3251      1266      3252      3257
 -1     10453    3    0    2
 -2      1549      1266      1550      3257
 -1     10454    3    0    2
 -2      1266      3251      1550      3257
 -1     10455    3    0    1
 -2      1365      1362      3690      3754
 -1     10456    3    0    1
 -2      3682      2132      3468      3858
 -1     10457    3    0    2
 -2       542      1554      1553      3258
 -1     10458    3    0    2
 -2      2468      3256      3258      3259
 -1     10459    3    0    2
 -2      2468      2467      3256      3259
 -1     10460    3    0    2
 -2      1553       542      3258      3259
 -1     10461    3    0    2
 -2       542      2472      3258      3259
 -1     10462    3    0    2
 -2      2472      2467      2473      3259
 -1     10463    3    0    2
 -2      2467      2468      2473      3259
 -1     10464    3    0    2
 -2      2472      2473      3258      3259
 -1     10465    3    0    1
 -2      3856      1650      3620      3904
 -1     10466    3    0    1
 -2      1990      1846      2216      3531
 -1     10467    3    0    2
 -2      2473      2468      3258      3259
 -1     10468    3    0    1
 -2      3229       388      3291      3919
 -1     10469    3    0    1
 -2      2498       703      1513      3419
 -1     10470    3    0    1
 -2      2079      2192      1065      3327
 -1     10471    3    0    1
 -2      2350      2174      2612      3327
 -1     10472    3    0    1
 -2      1476      1177      3817      3820
 -1     10473    3    0    1
 -2       556      1774      1429      3344
 -1     10474    3    0    1
 -2      2346      1973      2978      1608
 -1     10475    3    0    1
 -2      2192       546      1065      3327
 -1     10476    3    0    1
 -2      3250       878      3704      3737
 -1     10477    3    0    1
 -2      3442      3813      3859      3907
 -1     10478    3    0    1
 -2      3250       962      1548      3737
 -1     10479    3    0    1
 -2      1513      2779      2425      3419
 -1     10480    3    0    1
 -2      3809      2207      3852      3889
 -1     10481    3    0    1
 -2      2194      2222      2355      3326
 -1     10482    3    0    1
 -2       962      3250      3704      3737
 -1     10483    3    0    2
 -2       666       815      2978      1607
 -1     10484    3    0    1
 -2      3131      3143      3776      3820
 -1     10485    3    0    2
 -2      2345       283      2346      1607
 -1     10486    3    0    1
 -2      2215      2156      3373      3802
 -1     10487    3    0    1
 -2       630      3131      3776      3820
 -1     10488    3    0    1
 -2      1716      3450      3513      3836
 -1     10489    3    0    1
 -2      1948      2626      2749      3261
 -1     10490    3    0    1
 -2      2134       404      2210      3491
 -1     10491    3    0    1
 -2      1894      2774      3520      3830
 -1     10492    3    0    1
 -2      2210      1535      3411      3491
 -1     10493    3    0    1
 -2      1556      1869      2087      2031
 -1     10494    3    0    1
 -2       419      1869      1556      3261
 -1     10495    3    0    1
 -2      3513      2160      3808      3836
 -1     10496    3    0    1
 -2      3640      3662      3918      3925
 -1     10497    3    0    1
 -2      2395      2200      3189      3577
 -1     10498    3    0    1
 -2      3719      1661      3749      3761
 -1     10499    3    0    1
 -2      1876      1677      2085      3566
 -1     10500    3    0    1
 -2      1754      1951      3197      3478
 -1     10501    3    0    1
 -2      1921      1830      2094      3521
 -1     10502    3    0    1
 -2      2221       703      3321      3777
 -1     10503    3    0    1
 -2      2006      3540      3842      3664
 -1     10504    3    0    1
 -2      1256      1121      3758      3837
 -1     10505    3    0    1
 -2       697      1951      1141      3478
 -1     10506    3    0    1
 -2      3353      1512      3354      3761
 -1     10507    3    0    1
 -2      2221      3334      3735      3777
 -1     10508    3    0    1
 -2      3016      3011      3023      3811
 -1     10509    3    0    1
 -2      1021        99      2550      3833
 -1     10510    3    0    1
 -2       182      3709      3432      3847
 -1     10511    3    0    1
 -2        57      1424      3770      3913
 -1     10512    3    0    1
 -2      3190      3260      3704      3813
 -1     10513    3    0    2
 -2       628      1562      2954       825
 -1     10514    3    0    1
 -2      1973       666      2119      1564
 -1     10515    3    0    2
 -2       280      1562       318      2936
 -1     10516    3    0    2
 -2      1561      2955       628      2954
 -1     10517    3    0    2
 -2       320       275      2778      1565
 -1     10518    3    0    2
 -2      2749       658       828      1565
 -1     10519    3    0    1
 -2      3693      2765      3869      3891
 -1     10520    3    0    1
 -2      3707      2148      3726      3745
 -1     10521    3    0    1
 -2      3695      3185      3811      3890
 -1     10522    3    0    1
 -2      1163      3693      3807      3891
 -1     10523    3    0    1
 -2       500      2469      3441      3752
 -1     10524    3    0    1
 -2      2000      2107      2140      3283
 -1     10525    3    0    1
 -2      1965      1702      2000      3283
 -1     10526    3    0    1
 -2      2842      2845      3784      3903
 -1     10527    3    0    1
 -2       648      3019      1406      3890
 -1     10528    3    0    1
 -2      1965      2000      2140      3283
 -1     10529    3    0    1
 -2      1400      1261      3023      3811
 -1     10530    3    0    1
 -2      2058       633      3752      3487
 -1     10531    3    0    1
 -2      2018      3532      3815      3926
 -1     10532    3    0    1
 -2      3046      3041      3048      3699
 -1     10533    3    0    1
 -2      1125      2850      3768      3922
 -1     10534    3    0    1
 -2       959      2940      2951      3809
 -1     10535    3    0    1
 -2       372      2024       919      3469
 -1     10536    3    0    1
 -2      3029      3015      3756      3811
 -1     10537    3    0    1
 -2       983       987      1594      3777
 -1     10538    3    0    1
 -2      3185      2185      3695      3811
 -1     10539    3    0    1
 -2      1479       189      3162      3855
 -1     10540    3    0    1
 -2      3501      3439      3542      3826
 -1     10541    3    0    1
 -2      3770      3386      3634      3913
 -1     10542    3    0    1
 -2       987       183      1594      3777
 -1     10543    3    0    1
 -2       401      2580      2583      3722
 -1     10544    3    0    1
 -2      2024      2188       919      3469
 -1     10545    3    0    1
 -2      1294      2461       378      3896
 -1     10546    3    0    1
 -2      3718      2999      3806      3614
 -1     10547    3    0    1
 -2      3477      2092      3898      3676
 -1     10548    3    0    2
 -2      2294       275      2778      1567
 -1     10549    3    0    1
 -2       700      2295      1568      3265
 -1     10550    3    0    2
 -2      2294      2777       275      2295
 -1     10551    3    0    2
 -2      2294       275      1567      2295
 -1     10552    3    0    2
 -2      2295       275      1567      1568
 -1     10553    3    0    1
 -2       275      1948      1565      3265
 -1     10554    3    0    1
 -2      1756       275      1565      3265
 -1     10555    3    0    1
 -2      1888      1948      2512      3265
 -1     10556    3    0    1
 -2       700      1888      2512      3265
 -1     10557    3    0    1
 -2      2295       700      2512      3265
 -1     10558    3    0    1
 -2      1948      2295      2512      3265
 -1     10559    3    0    1
 -2       426       700      1568      3265
 -1     10560    3    0    1
 -2      1344       426      1568      3265
 -1     10561    3    0    1
 -2      1809      1344      1568      3265
 -1     10562    3    0    1
 -2       275      1809      1568      3265
 -1     10563    3    0    1
 -2      2361      2360      3707      3745
 -1     10564    3    0    1
 -2      3856      3586      3601      3874
 -1     10565    3    0    1
 -2       937       284      3125      3389
 -1     10566    3    0    1
 -2      3236      1893      3715      3424
 -1     10567    3    0    1
 -2      2658      1097      3683      3724
 -1     10568    3    0    1
 -2      3232      3276      3785      3643
 -1     10569    3    0    1
 -2      1986      1337      3344      3389
 -1     10570    3    0    1
 -2      3515      1711      3553      3839
 -1     10571    3    0    1
 -2       521      1321      3692      3828
 -1     10572    3    0    1
 -2      1321       521      2933      3828
 -1     10573    3    0    1
 -2      1321      2933      3691      3828
 -1     10574    3    0    2
 -2      2702      2383      1569      1570
 -1     10575    3    0    1
 -2      2187       412       951      3269
 -1     10576    3    0    1
 -2      2069       627      1612      3399
 -1     10577    3    0    1
 -2       374       373      1269      3269
 -1     10578    3    0    1
 -2      1269       409      1515      3269
 -1     10579    3    0    1
 -2       374      1269      1515      3269
 -1     10580    3    0    1
 -2       409       412      1515      3269
 -1     10581    3    0    1
 -2      3756       265      3866      3920
 -1     10582    3    0    1
 -2      2032      3270      3381      3455
 -1     10583    3    0    1
 -2      3381       127      3740      3455
 -1     10584    3    0    1
 -2      1987      2326      3149      3608
 -1     10585    3    0    1
 -2       883      2361      2367      3745
 -1     10586    3    0    1
 -2      2469       506      1159      3423
 -1     10587    3    0    1
 -2       645      2832      1241      3794
 -1     10588    3    0    2
 -2      1649      1650      3585      3586
 -1     10589    3    0    1
 -2      3561      3291      3832      3863
 -1     10590    3    0    1
 -2      3420      1947      3737      3543
 -1     10591    3    0    1
 -2      1215      1208      3542      3826
 -1     10592    3    0    1
 -2      1995       544      2755      3810
 -1     10593    3    0    1
 -2      1946      2471      3716      3488
 -1     10594    3    0    1
 -2      3725      3005      3759      3488
 -1     10595    3    0    1
 -2      3361      1622      3364      3743
 -1     10596    3    0    1
 -2      2653      2301      1307      3911
 -1     10597    3    0    1
 -2      3046      3057      3699      3810
 -1     10598    3    0    1
 -2      2848      2850      2853      3710
 -1     10599    3    0    1
 -2      1622      1493      3743      3437
 -1     10600    3    0    1
 -2      2261       957      3123      3390
 -1     10601    3    0    1
 -2      3785      3232      3643      3899
 -1     10602    3    0    1
 -2      1325      2928      3774      3822
 -1     10603    3    0    1
 -2      2369      2360      3340      3819
 -1     10604    3    0    1
 -2       248      1812      3370      3574
 -1     10605    3    0    1
 -2       419      1869      3261      1644
 -1     10606    3    0    1
 -2      1269      2169      3269      3733
 -1     10607    3    0    1
 -2      3710      3005      3732      3759
 -1     10608    3    0    1
 -2      1897      1934      2074      3448
 -1     10609    3    0    1
 -2      2045       626      2698      3711
 -1     10610    3    0    1
 -2      2698       626      1150      3711
 -1     10611    3    0    1
 -2      2700      2739      3703      3711
 -1     10612    3    0    1
 -2       420       962      3240      3728
 -1     10613    3    0    1
 -2      1382       185      3815      3926
 -1     10614    3    0    1
 -2       904       149      1509      3831
 -1     10615    3    0    1
 -2      1288      3716      3725      3759
 -1     10616    3    0    1
 -2      2384      1569      3732      3733
 -1     10617    3    0    1
 -2       373      2384      2701      3733
 -1     10618    3    0    1
 -2      1137       413      3336      3839
 -1     10619    3    0    2
 -2      1622      1493      3363      3364
 -1     10620    3    0    1
 -2      2831      3794      3800      3903
 -1     10621    3    0    2
 -2      3352      1511      3354      3359
 -1     10622    3    0    1
 -2      2690       422      1578      3729
 -1     10623    3    0    1
 -2      2075      1817      2690      3729
 -1     10624    3    0    1
 -2       541       384      2098      1572
 -1     10625    3    0    1
 -2      2098       384      1339      1572
 -1     10626    3    0    1
 -2      2098       700      3265      1572
 -1     10627    3    0    1
 -2       700      1888      3265      1572
 -1     10628    3    0    1
 -2       541      2098      2783      1572
 -1     10629    3    0    1
 -2      1888       541      2783      1572
 -1     10630    3    0    1
 -2      1888      2098      3265      1572
 -1     10631    3    0    1
 -2      2098      1888      2783      1572
 -1     10632    3    0    1
 -2      2956      2959      2961      3720
 -1     10633    3    0    1
 -2      1153      2745      3711      3802
 -1     10634    3    0    1
 -2      3787      2619      3528      3825
 -1     10635    3    0    1
 -2       121      1079      2643      3797
 -1     10636    3    0    1
 -2      1085       121      2643      3797
 -1     10637    3    0    1
 -2      3709       853      3781      3841
 -1     10638    3    0    1
 -2      2059      3386      3770      3841
 -1     10639    3    0    1
 -2      3047       853      3709      3841
 -1     10640    3    0    1
 -2      3126      2059      3721      3841
 -1     10641    3    0    1
 -2      1301       694      3201      3481
 -1     10642    3    0    1
 -2      2357      2356      2427      3371
 -1     10643    3    0    1
 -2      2561       365      2575      3700
 -1     10644    3    0    1
 -2      2575      1035      2578      3700
 -1     10645    3    0    1
 -2      3128      3131      3140      3820
 -1     10646    3    0    1
 -2      2185      3756      3511      3536
 -1     10647    3    0    1
 -2      3126      2059      3200      3721
 -1     10648    3    0    1
 -2      1990      1846      3531      3656
 -1     10649    3    0    1
 -2      2356      2357      1203      3371
 -1     10650    3    0    1
 -2      2427      2356      1203      3371
 -1     10651    3    0    1
 -2      3918      3494      3925      3679
 -1     10652    3    0    1
 -2      3181      2017      3477      3676
 -1     10653    3    0    1
 -2       498       360      3275      3437
 -1     10654    3    0    1
 -2      2036      2004      1271      3443
 -1     10655    3    0    1
 -2      1957      1702      1965      3634
 -1     10656    3    0    1
 -2      1804      1818      3277      3655
 -1     10657    3    0    1
 -2       394       676      3742      3437
 -1     10658    3    0    1
 -2      1546      1073      3813      3870
 -1     10659    3    0    2
 -2      2508      2509      3589      3590
 -1     10660    3    0    1
 -2      3263      2153      3273      3700
 -1     10661    3    0    1
 -2       634      1201      2797      3495
 -1     10662    3    0    1
 -2        31       130      3470      3796
 -1     10663    3    0    1
 -2      2090      3505      3793      3519
 -1     10664    3    0    1
 -2      3685      2324      3729      3730
 -1     10665    3    0    1
 -2       184      1017      1026      3718
 -1     10666    3    0    2
 -2      1639       170      1650      3585
 -1     10667    3    0    1
 -2      1335      2455       509      3376
 -1     10668    3    0    1
 -2      2624      2717      3696      3375
 -1     10669    3    0    1
 -2      1917      1856      2094      3475
 -1     10670    3    0    1
 -2      1817      3696      3375      3718
 -1     10671    3    0    2
 -2      2324      1577      2544      1578
 -1     10672    3    0    1
 -2      3581      2803      3906      3910
 -1     10673    3    0    1
 -2       883      1976      3318      3745
 -1     10674    3    0    1
 -2       557      2091      1009      1601
 -1     10675    3    0    2
 -2      2548      2544      1577      1578
 -1     10676    3    0    1
 -2      2017      2038      3201      3293
 -1     10677    3    0    1
 -2      3498      3497      3500      3791
 -1     10678    3    0    1
 -2      2118      2167      3439      3501
 -1     10679    3    0    1
 -2      2017      3201      3292      3293
 -1     10680    3    0    1
 -2      3520      1894      3830      3831
 -1     10681    3    0    1
 -2      2078      2042      1301      3293
 -1     10682    3    0    2
 -2       175       191       917      3288
 -1     10683    3    0    2
 -2       191       175       857      3288
 -1     10684    3    0    2
 -2       512      1574       602      2407
 -1     10685    3    0    2
 -2      3289       173       857        63
 -1     10686    3    0    2
 -2      3289      3288       173      1345
 -1     10687    3    0    2
 -2        63       173      1345      3289
 -1     10688    3    0    2
 -2       857      3288       173      3289
 -1     10689    3    0    2
 -2      2318      1345       428      2317
 -1     10690    3    0    2
 -2      3289       428      1345      1346
 -1     10691    3    0    1
 -2       428      3289      2318      3290
 -1     10692    3    0    1
 -2       917      2318      3289      3290
 -1     10693    3    0    1
 -2        63      1662       857      3290
 -1     10694    3    0    1
 -2      1662        63      1836      3290
 -1     10695    3    0    1
 -2      1662       191       857      3290
 -1     10696    3    0    1
 -2       191      1662      1818      3290
 -1     10697    3    0    1
 -2       191      1818       917      3290
 -1     10698    3    0    1
 -2       857       191       917      3290
 -1     10699    3    0    1
 -2      1818      2318       917      3290
 -1     10700    3    0    1
 -2      2318      1818       917       705
 -1     10701    3    0    1
 -2      1953      1957      2152      3634
 -1     10702    3    0    1
 -2      3511      1928      3536      3866
 -1     10703    3    0    1
 -2      1585      3409      2475      3474
 -1     10704    3    0    2
 -2       243      1576      1575      2446
 -1     10705    3    0    1
 -2      2038      3181      3201      3293
 -1     10706    3    0    1
 -2       433       967      3210      3832
 -1     10707    3    0    1
 -2      3438      2136      3807      3891
 -1     10708    3    0    1
 -2       265      1400      3811      3866
 -1     10709    3    0    1
 -2       367      1926      3411      3491
 -1     10710    3    0    1
 -2      2459      1973      3149      3608
 -1     10711    3    0    1
 -2      3519      3800      1069      3554
 -1     10712    3    0    1
 -2      2019      3800      3519      3554
 -1     10713    3    0    1
 -2       682      2162      2202      3407
 -1     10714    3    0    1
 -2      2162       682      2209      3407
 -1     10715    3    0    1
 -2      3741      2139      3750      3885
 -1     10716    3    0    1
 -2       151        40      3430      3787
 -1     10717    3    0    1
 -2      2509      3587      3590      3921
 -1     10718    3    0    1
 -2      2475      2555      3730      3474
 -1     10719    3    0    1
 -2      1794      2099      3314      3608
 -1     10720    3    0    1
 -2      1453      1459      3688      3827
 -1     10721    3    0    1
 -2        44      1208      3792      3542
 -1     10722    3    0    1
 -2      1459       105      3688      3827
 -1     10723    3    0    1
 -2      3705      3480      3827      3824
 -1     10724    3    0    1
 -2       163      1976      3745      3851
 -1     10725    3    0    1
 -2      3181      2017      3201      3477
 -1     10726    3    0    1
 -2      1888       541      3183      3767
 -1     10727    3    0    1
 -2      3317       523      3784      3884
 -1     10728    3    0    1
 -2       695      3101      3775      3915
 -1     10729    3    0    1
 -2      1462      1115      3106      3842
 -1     10730    3    0    1
 -2      2286      3106      3111      3842
 -1     10731    3    0    1
 -2      3690      1365      3754      3652
 -1     10732    3    0    1
 -2      3693      3193      3807      3891
 -1     10733    3    0    1
 -2        52      2205      3503      3576
 -1     10734    3    0    1
 -2      3856      3874      3646      3921
 -1     10735    3    0    2
 -2      1651      1649      1652      3588
 -1     10736    3    0    1
 -2       657      1365      3690      3652
 -1     10737    3    0    1
 -2       271      2190      3281      1579
 -1     10738    3    0    2
 -2       567      1578      2555       381
 -1     10739    3    0    2
 -2      2269       867       428      2268
 -1     10740    3    0    2
 -2       271       292      3116      1579
 -1     10741    3    0    2
 -2      2351       665       816      1581
 -1     10742    3    0    2
 -2      2404      1228      2704      1227
 -1     10743    3    0    2
 -2       281      2459      1581      1582
 -1     10744    3    0    1
 -2       628      1794      1561      1582
 -1     10745    3    0    1
 -2       628       665      1794      1582
 -1     10746    3    0    1
 -2      1902      3803      3669      3670
 -1     10747    3    0    1
 -2       431      3421      3675      3681
 -1     10748    3    0    2
 -2       278      3117      1583      1584
 -1     10749    3    0    1
 -2      1073      1553      3813      3864
 -1     10750    3    0    1
 -2      3464       184      3806      3614
 -1     10751    3    0    1
 -2       151       847      2584      3747
 -1     10752    3    0    1
 -2      1445       389      3823      3919
 -1     10753    3    0    2
 -2       547      1586       565      2474
 -1     10754    3    0    1
 -2        43      1477      3159      3900
 -1     10755    3    0    2
 -2       567      2555      1637       381
 -1     10756    3    0    2
 -2      3301      2341      3308      3310
 -1     10757    3    0    2
 -2      3294      3298      3300      3305
 -1     10758    3    0    2
 -2      3298      3295      3300      3305
 -1     10759    3    0    2
 -2      3299      3295      3300      3309
 -1     10760    3    0    1
 -2       703       662      2192      3321
 -1     10761    3    0    1
 -2      1927      2179      2996      3573
 -1     10762    3    0    2
 -2      3296      3298      3302      3305
 -1     10763    3    0    1
 -2      2847      2858      3732      3837
 -1     10764    3    0    2
 -2      3301      3296      3303      3308
 -1     10765    3    0    1
 -2      3282      2152      3323      3782
 -1     10766    3    0    2
 -2       983       984      3298      3300
 -1     10767    3    0    1
 -2       987       703      2504      3735
 -1     10768    3    0    2
 -2      3298      3294      3300      3302
 -1     10769    3    0    2
 -2       566      2341      2784      1587
 -1     10770    3    0    2
 -2       655      1502      1501      3297
 -1     10771    3    0    2
 -2      1502       655       726      3297
 -1     10772    3    0    2
 -2       726       655      3301      3303
 -1     10773    3    0    2
 -2       984       662       983      3298
 -1     10774    3    0    2
 -2      3297      3294      3303      3304
 -1     10775    3    0    2
 -2       662       984       729      3298
 -1     10776    3    0    2
 -2      3297      3296      3303      3305
 -1     10777    3    0    2
 -2      3298      3296      3302      3307
 -1     10778    3    0    2
 -2      1588      1587      3302      3307
 -1     10779    3    0    2
 -2      3294      3295      3299      3304
 -1     10780    3    0    2
 -2      2342      3308      3310      3311
 -1     10781    3    0    1
 -2       638      1095      3829      3835
 -1     10782    3    0    2
 -2      3295      3298      3300      3309
 -1     10783    3    0    2
 -2       983       984      3300      3309
 -1     10784    3    0    2
 -2      3298       983      3300      3309
 -1     10785    3    0    2
 -2       729      3298      3300      3302
 -1     10786    3    0    2
 -2      2341      2342      3301      3308
 -1     10787    3    0    1
 -2       873      1794      3314       280
 -1     10788    3    0    1
 -2      2016       663      1584      3476
 -1     10789    3    0    1
 -2       545      2192      1513      1588
 -1     10790    3    0    1
 -2       545       546      2192      1588
 -1     10791    3    0    2
 -2      3296      2342      3301      3302
 -1     10792    3    0    2
 -2      2341      2342      1587      3302
 -1     10793    3    0    1
 -2       384      2357      2427      3371
 -1     10794    3    0    2
 -2      1587      2342      1588      3302
 -1     10795    3    0    2
 -2       984      3299      3309      1593
 -1     10796    3    0    2
 -2      2341      2342      3311      3312
 -1     10797    3    0    2
 -2      2342      3296      3301      3308
 -1     10798    3    0    2
 -2       872       871      3299      3304
 -1     10799    3    0    2
 -2      3295       872      3299      3304
 -1     10800    3    0    1
 -2      2179      2042      3456      3573
 -1     10801    3    0    1
 -2      2042      2078      3456      3573
 -1     10802    3    0    2
 -2        55        97       871      3304
 -1     10803    3    0    2
 -2        55       871       872      3304
 -1     10804    3    0    2
 -2      3295      3294      3300      3305
 -1     10805    3    0    2
 -2      1502      3297      3304      3306
 -1     10806    3    0    2
 -2      1502      1501      3297      3306
 -1     10807    3    0    2
 -2        55        97      3304      3306
 -1     10808    3    0    2
 -2      1502        55      1501      3306
 -1     10809    3    0    2
 -2        97      1502      3304      3306
 -1     10810    3    0    2
 -2        55      1502        97      3306
 -1     10811    3    0    2
 -2       983       984      3309      1593
 -1     10812    3    0    1
 -2      1879      2191      3231      3428
 -1     10813    3    0    2
 -2      2431      2430      3604      3606
 -1     10814    3    0    2
 -2      2341      2342      3308      3310
 -1     10815    3    0    1
 -2      2384       373      1569      3733
 -1     10816    3    0    1
 -2      2144      1927      1119      3573
 -1     10817    3    0    1
 -2      1927       262      1119      3573
 -1     10818    3    0    2
 -2       726      3301      3308      1591
 -1     10819    3    0    1
 -2       243      2162      1575      3328
 -1     10820    3    0    1
 -2       978      2003      3087      3415
 -1     10821    3    0    2
 -2      1587       729      3302      3307
 -1     10822    3    0    2
 -2       662       729      1587      3307
 -1     10823    3    0    2
 -2       662      1587      1588      3307
 -1     10824    3    0    2
 -2       655      3301      3303      3308
 -1     10825    3    0    1
 -2      2033      3411      3785      3881
 -1     10826    3    0    1
 -2       703      2192      2221      3321
 -1     10827    3    0    2
 -2      3297       655      3303      3308
 -1     10828    3    0    2
 -2      3296      3297      3303      3308
 -1     10829    3    0    1
 -2      2496       987      2504      3735
 -1     10830    3    0    2
 -2      3299      1590      3309      1593
 -1     10831    3    0    2
 -2      3308       655      1591      1592
 -1     10832    3    0    1
 -2       405      3163      3168      3881
 -1     10833    3    0    2
 -2       984      3299      3300      3309
 -1     10834    3    0    2
 -2       872       871      1589      3309
 -1     10835    3    0    1
 -2      1117      2849      1254      3710
 -1     10836    3    0    1
 -2      1575       243      3328      3406
 -1     10837    3    0    2
 -2      3309       983      1593      1594
 -1     10838    3    0    2
 -2      1589       871      1590      3309
 -1     10839    3    0    2
 -2       871      3299      1590      3309
 -1     10840    3    0    1
 -2      3469       372      3789      3617
 -1     10841    3    0    1
 -2       987      2496      2502      3735
 -1     10842    3    0    2
 -2      1451      1452      1591      3310
 -1     10843    3    0    2
 -2      1451      1591      1592      3310
 -1     10844    3    0    1
 -2      3793      3504      3794      3902
 -1     10845    3    0    2
 -2      1590      1589      3309      1593
 -1     10846    3    0    2
 -2        66      1590        96      1593
 -1     10847    3    0    2
 -2      1590        66      1589      1593
 -1     10848    3    0    1
 -2      2211       366      3380      3762
 -1     10849    3    0    1
 -2      2124      1910      3779      3503
 -1     10850    3    0    2
 -2      1589      3309      1593      1594
 -1     10851    3    0    2
 -2        66      1589      1593      1594
 -1     10852    3    0    1
 -2      2111       632      2183      3328
 -1     10853    3    0    2
 -2      1451       532      3312      3313
 -1     10854    3    0    1
 -2      1691      1897      1934      3498
 -1     10855    3    0    1
 -2      3403      3191      1917      3773
 -1     10856    3    0    2
 -2      2784      2342      3312      3313
 -1     10857    3    0    1
 -2      1059      2493      2178       677
 -1     10858    3    0    2
 -2      1452       532       564      3312
 -1     10859    3    0    2
 -2       532      1452      1451      3312
 -1     10860    3    0    2
 -2       564       532      2785      3313
 -1     10861    3    0    2
 -2       564      2785      3312      3313
 -1     10862    3    0    1
 -2      2099       664       873      3314
 -1     10863    3    0    1
 -2       430      2099      1191      3314
 -1     10864    3    0    1
 -2       430      2063      2099      3314
 -1     10865    3    0    1
 -2      1794       280      1561      3314
 -1     10866    3    0    1
 -2      1794      1561      1582      3314
 -1     10867    3    0    1
 -2      1585       663      3474      3476
 -1     10868    3    0    1
 -2        59      1283      2988      3702
 -1     10869    3    0    1
 -2      3532      3698      2076      3175
 -1     10870    3    0    1
 -2      3698      3532      2076      3814
 -1     10871    3    0    1
 -2       278      2016      1584      3476
 -1     10872    3    0    1
 -2       400       904      2602      3628
 -1     10873    3    0    1
 -2       699      2983      1378      3702
 -1     10874    3    0    1
 -2      2983      1283      1378      3702
 -1     10875    3    0    1
 -2      2016       278      3234      3476
 -1     10876    3    0    1
 -2      2585      1037      2592      3816
 -1     10877    3    0    1
 -2      2983       699      2994      3702
 -1     10878    3    0    1
 -2      2994       699      3698      3702
 -1     10879    3    0    1
 -2      2982      2994      3698      3702
 -1     10880    3    0    1
 -2      2982      2984      2994      3702
 -1     10881    3    0    1
 -2       649      2982      3698      3702
 -1     10882    3    0    1
 -2      2982       649      2984      3702
 -1     10883    3    0    1
 -2       640      2195      3176      3816
 -1     10884    3    0    1
 -2      2186      2215      2995      3536
 -1     10885    3    0    1
 -2      2018      3175      3191      3702
 -1     10886    3    0    1
 -2      2076      2773      3698      3814
 -1     10887    3    0    1
 -2      2061      1738      2091      1595
 -1     10888    3    0    1
 -2       646      2086      2089      1597
 -1     10889    3    0    1
 -2       260      2053      2144      1597
 -1     10890    3    0    2
 -2       646      1598       748      2711
 -1     10891    3    0    2
 -2       260      1598      1597      2876
 -1     10892    3    0    1
 -2      2053      2086      2144      1597
 -1     10893    3    0    1
 -2       915      2046      3746      3574
 -1     10894    3    0    1
 -2      2010       692      2333      1599
 -1     10895    3    0    2
 -2       523      1600      2775       579
 -1     10896    3    0    2
 -2       523      2333      2775      1599
 -1     10897    3    0    2
 -2       692      1600       750      2710
 -1     10898    3    0    2
 -2       523      1600      1599      2775
 -1     10899    3    0    2
 -2       795       639      2607      1603
 -1     10900    3    0    1
 -2       692      2010      3317      1599
 -1     10901    3    0    1
 -2      1812       249      3370      3574
 -1     10902    3    0    2
 -2      2508      2509      3587      3589
 -1     10903    3    0    1
 -2      3430        40      3445      3787
 -1     10904    3    0    1
 -2      2042      2175      3293      3317
 -1     10905    3    0    1
 -2      2078      2042      3293      3317
 -1     10906    3    0    1
 -2      1894      1823      2774      3830
 -1     10907    3    0    1
 -2       249      1812       915      3574
 -1     10908    3    0    1
 -2      2078       523      1599      3317
 -1     10909    3    0    2
 -2       639      2607      1603      1604
 -1     10910    3    0    1
 -2      1985      1778      3318      3575
 -1     10911    3    0    1
 -2      3087      1985      3415      3575
 -1     10912    3    0    1
 -2      3343      3230      3727      3897
 -1     10913    3    0    1
 -2       668       891      3318      3575
 -1     10914    3    0    1
 -2       883       668      3318      3575
 -1     10915    3    0    2
 -2       639       795      2607      1605
 -1     10916    3    0    2
 -2       508      2712      1605      1606
 -1     10917    3    0    1
 -2      3320      2192      3708      3818
 -1     10918    3    0    1
 -2      3705       662      3777      3818
 -1     10919    3    0    1
 -2      2596      2559      3700      3821
 -1     10920    3    0    1
 -2      1375       185      3583      3893
 -1     10921    3    0    1
 -2       363      2560      2574      3821
 -1     10922    3    0    1
 -2       544      1995      1273      3880
 -1     10923    3    0    1
 -2       556      1774       891      3318
 -1     10924    3    0    1
 -2      2092      3727      3481      3898
 -1     10925    3    0    1
 -2      3473      2131      3850      3916
 -1     10926    3    0    1
 -2      3481      3727      3780      3898
 -1     10927    3    0    1
 -2      1297       694      3780      3898
 -1     10928    3    0    1
 -2      3727      1303      3780      3898
 -1     10929    3    0    1
 -2      1141      2700      2729      3703
 -1     10930    3    0    1
 -2      1982      1141      2729      3703
 -1     10931    3    0    2
 -2      2705      2706      3363      3364
 -1     10932    3    0    1
 -2       406       689      3805      3845
 -1     10933    3    0    2
 -2      3355      3350      3365      3366
 -1     10934    3    0    2
 -2      3352      1123      3354      1617
 -1     10935    3    0    2
 -2      1511       396      1512      3353
 -1     10936    3    0    1
 -2      3240       962      3704      3728
 -1     10937    3    0    1
 -2      2055      1993      2084      3484
 -1     10938    3    0    1
 -2      2027        33      3757      3482
 -1     10939    3    0    1
 -2       962      1548      3737      3798
 -1     10940    3    0    1
 -2      2124      2997      3461      3779
 -1     10941    3    0    1
 -2      1295      2903      3687      3779
 -1     10942    3    0    1
 -2      1835      2027      2062      3482
 -1     10943    3    0    1
 -2      1001       142      3825      3843
 -1     10944    3    0    1
 -2      1299      1237      2908      3779
 -1     10945    3    0    2
 -2      1493      1494      3364      3367
 -1     10946    3    0    1
 -2      2618      3046      3056      3892
 -1     10947    3    0    1
 -2      2867      1982      3186      3703
 -1     10948    3    0    2
 -2       766       676      3351      1619
 -1     10949    3    0    1
 -2      3528      3787      3825      3843
 -1     10950    3    0    1
 -2      3690      3188      3767      3799
 -1     10951    3    0    1
 -2      2156      3536      3538      2995
 -1     10952    3    0    1
 -2      1774       556      3010      3344
 -1     10953    3    0    1
 -2       872      2332      3834      3572
 -1     10954    3    0    1
 -2      2183       632      1395      3328
 -1     10955    3    0    1
 -2       632      2247      1395      3328
 -1     10956    3    0    1
 -2      3710      2850      3732      3837
 -1     10957    3    0    1
 -2      3131      3137      3143      3820
 -1     10958    3    0    1
 -2      2225       556      1429      3344
 -1     10959    3    0    1
 -2      1864      2186      2995      1625
 -1     10960    3    0    1
 -2      2649      1095      2654      3835
 -1     10961    3    0    1
 -2      2052      1165      3465      3487
 -1     10962    3    0    1
 -2        54       989      2500      3736
 -1     10963    3    0    1
 -2      1556      2281      3446      3859
 -1     10964    3    0    1
 -2      2194      3333      3334      3736
 -1     10965    3    0    1
 -2      1553       542      3259      3907
 -1     10966    3    0    1
 -2       985        54      2500      3736
 -1     10967    3    0    1
 -2      2500       844      2502      3736
 -1     10968    3    0    1
 -2       985      3333      3372      3736
 -1     10969    3    0    1
 -2       633      2052      3752      3487
 -1     10970    3    0    1
 -2      3011      3016      3018      3811
 -1     10971    3    0    1
 -2      2174      2350      1071      3327
 -1     10972    3    0    1
 -2      2011      2174      1071      3327
 -1     10973    3    0    1
 -2       837      2195      2386      3865
 -1     10974    3    0    1
 -2      3421      3607      3874      3875
 -1     10975    3    0    1
 -2      2222      2194      2492      3326
 -1     10976    3    0    1
 -2      1777      2031      2072      3408
 -1     10977    3    0    1
 -2      3240       962      3250      3704
 -1     10978    3    0    1
 -2      1864      2867      3711      3802
 -1     10979    3    0    1
 -2       844       991      2502      3738
 -1     10980    3    0    1
 -2      1807      1711      2912      3519
 -1     10981    3    0    1
 -2      3285      3788      3561      3832
 -1     10982    3    0    1
 -2      2999      3122      3806      3614
 -1     10983    3    0    1
 -2      1265       701      3241      3704
 -1     10984    3    0    1
 -2       388      3229      3666      3919
 -1     10985    3    0    1
 -2      3190      3704      3728      3813
 -1     10986    3    0    1
 -2      1670      2167      3501      3826
 -1     10987    3    0    1
 -2      2031      1960      2072      3408
 -1     10988    3    0    1
 -2      3735      3334      3736      3738
 -1     10989    3    0    1
 -2      3715      3236      3769      3906
 -1     10990    3    0    1
 -2      3330      1711      3336      3844
 -1     10991    3    0    1
 -2      3317      3293      3489      3884
 -1     10992    3    0    1
 -2      2729      1982      3703      3778
 -1     10993    3    0    1
 -2      1247      1179      3489      3884
 -1     10994    3    0    1
 -2      2001      1711      2090      3519
 -1     10995    3    0    1
 -2       852      3159      3162      3855
 -1     10996    3    0    1
 -2       949       114      2855      3768
 -1     10997    3    0    1
 -2      1357      1351      2949      3754
 -1     10998    3    0    1
 -2      3704      3238      3728      3813
 -1     10999    3    0    1
 -2      3371      3560       386      1360
 -1     11000    3    0    1
 -2       844      2502      3736      3738
 -1     11001    3    0    1
 -2      3736      2492      3334      2194
 -1     11002    3    0    1
 -2      3190      3260      3325      3704
 -1     11003    3    0    1
 -2      2728      2720      2730      3778
 -1     11004    3    0    1
 -2      3264      3699      3782      3810
 -1     11005    3    0    1
 -2      1981      3460      3510      3846
 -1     11006    3    0    1
 -2      1995       544      3810      3880
 -1     11007    3    0    1
 -2       699      1385      3698      3773
 -1     11008    3    0    1
 -2      1783      1708      2171      3625
 -1     11009    3    0    1
 -2       556      2225      3010      3344
 -1     11010    3    0    1
 -2      3709       898      3721      3847
 -1     11011    3    0    1
 -2      2720      2719      2730      3778
 -1     11012    3    0    1
 -2       413      1137      2730      3778
 -1     11013    3    0    1
 -2       699      3698      3702      3773
 -1     11014    3    0    1
 -2      3264      1995      3810      3880
 -1     11015    3    0    1
 -2       106      1137      3515      3846
 -1     11016    3    0    1
 -2      2135       360      1503      3828
 -1     11017    3    0    1
 -2      3176       508      1609      3535
 -1     11018    3    0    1
 -2       680      2058      2062      3482
 -1     11019    3    0    1
 -2      3321      2220      3322      3705
 -1     11020    3    0    1
 -2      3320      2220      3321      3705
 -1     11021    3    0    1
 -2       418      2498      2505      3419
 -1     11022    3    0    1
 -2      2413      2109      2619      3825
 -1     11023    3    0    1
 -2      1187      3183       541      3767
 -1     11024    3    0    1
 -2      2975      1370      3690      3767
 -1     11025    3    0    1
 -2      2613      1470      3141      3776
 -1     11026    3    0    1
 -2      2532      1995      2755      3443
 -1     11027    3    0    1
 -2      3688       424      3105      1453
 -1     11028    3    0    1
 -2       703      2498      2504      3735
 -1     11029    3    0    1
 -2       933      1439      3750      3622
 -1     11030    3    0    1
 -2       523      3317      3489      3884
 -1     11031    3    0    1
 -2      1370       657      3690      3799
 -1     11032    3    0    1
 -2      2967      2466      2975      3767
 -1     11033    3    0    1
 -2       945      3445      3787      3825
 -1     11034    3    0    1
 -2      3714      3848      1089      3829
 -1     11035    3    0    1
 -2      3740      3454      3455      3840
 -1     11036    3    0    1
 -2      1148       375      3330      3844
 -1     11037    3    0    1
 -2      2998      2109      3486      3825
 -1     11038    3    0    1
 -2      2109      2998      3526      3825
 -1     11039    3    0    1
 -2      3200      3721      3525      3847
 -1     11040    3    0    1
 -2       703      2221      2498      3735
 -1     11041    3    0    1
 -2       872        55      3306      3834
 -1     11042    3    0    1
 -2      1990      1951      2215      3373
 -1     11043    3    0    1
 -2      3041      3048      3699      3721
 -1     11044    3    0    1
 -2       985      2500      3735      3736
 -1     11045    3    0    1
 -2      2163      2425      2779      3419
 -1     11046    3    0    1
 -2      1749      2163      2779      3419
 -1     11047    3    0    1
 -2      1007      2527      2529      3762
 -1     11048    3    0    1
 -2       366      2211      3287      3762
 -1     11049    3    0    1
 -2       378      2126      3547      3896
 -1     11050    3    0    1
 -2       371       921      3762      3845
 -1     11051    3    0    1
 -2      3560      3808      3371      3916
 -1     11052    3    0    1
 -2      3620       170      3921      3925
 -1     11053    3    0    1
 -2      3782      3264      3810      3880
 -1     11054    3    0    1
 -2      1983      1840      3282      3880
 -1     11055    3    0    1
 -2      3235      3764      3860      3878
 -1     11056    3    0    1
 -2       142      3805      3825      3843
 -1     11057    3    0    1
 -2       140      1325      2928      3774
 -1     11058    3    0    1
 -2      3450      3836      3850      3916
 -1     11059    3    0    1
 -2      1267      1531      3850      3916
 -1     11060    3    0    1
 -2      3185      1863      3695      3539
 -1     11061    3    0    1
 -2      3342       896      3819      3867
 -1     11062    3    0    1
 -2      1724      1744      1929      3339
 -1     11063    3    0    1
 -2      3337      3492      3550      3851
 -1     11064    3    0    1
 -2      3326       844      3736      3632
 -1     11065    3    0    1
 -2      1404      3756      3876      3920
 -1     11066    3    0    1
 -2      3207      3222      3701      3852
 -1     11067    3    0    1
 -2       890       437      3339      3867
 -1     11068    3    0    1
 -2      2156      3924      3536      2215
 -1     11069    3    0    1
 -2      1988      1744      3339      3341
 -1     11070    3    0    1
 -2       390      1988       896      3341
 -1     11071    3    0    1
 -2      1942      2195      3176      1609
 -1     11072    3    0    1
 -2      2784      2342      3313      3708
 -1     11073    3    0    1
 -2      3727       118      3898      3676
 -1     11074    3    0    1
 -2       532      2784      3313      3708
 -1     11075    3    0    1
 -2      1177       630      3776      3820
 -1     11076    3    0    1
 -2      3187      2133      3763      3613
 -1     11077    3    0    1
 -2      3707       885      3726      3867
 -1     11078    3    0    1
 -2      2757       685      3807      3891
 -1     11079    3    0    1
 -2       437       890      2370      3707
 -1     11080    3    0    1
 -2       885        71      3726      3867
 -1     11081    3    0    1
 -2      3763      2709      3509      3613
 -1     11082    3    0    1
 -2      1864      2156      2215      3802
 -1     11083    3    0    1
 -2      3461      3230      3779      3780
 -1     11084    3    0    1
 -2       118      1303      1305      3727
 -1     11085    3    0    1
 -2       852      3763      3509      3613
 -1     11086    3    0    1
 -2      3008      2148      3338      3707
 -1     11087    3    0    1
 -2      3008      3338      3340      3707
 -1     11088    3    0    1
 -2      1840      1983      1273      3880
 -1     11089    3    0    1
 -2      1988      1974      2119      3640
 -1     11090    3    0    1
 -2      3338      3341      3342      3867
 -1     11091    3    0    1
 -2        43      3187      3763      3613
 -1     11092    3    0    1
 -2      2185      3185      3695      3539
 -1     11093    3    0    1
 -2      3320      2192      3327      3708
 -1     11094    3    0    1
 -2      2011      3320      3327      3708
 -1     11095    3    0    1
 -2       397      1037      3816      3535
 -1     11096    3    0    1
 -2      1135      1754      3197      3478
 -1     11097    3    0    1
 -2      2304      2306      1449      3871
 -1     11098    3    0    1
 -2      2912      2019      3800      3519
 -1     11099    3    0    1
 -2      3803      1902      3609      3670
 -1     11100    3    0    1
 -2      1121      2858      1256      3758
 -1     11101    3    0    1
 -2       109      2213      3686      3645
 -1     11102    3    0    1
 -2      1721      2454      3524      3906
 -1     11103    3    0    1
 -2      2863      1257      2865      3758
 -1     11104    3    0    1
 -2      2858      1121      2863      3758
 -1     11105    3    0    1
 -2      3740      1169      3527      3869
 -1     11106    3    0    1
 -2      1938      2005      3563      3564
 -1     11107    3    0    1
 -2      3701      3219      3832      3894
 -1     11108    3    0    1
 -2      3699      1425      3770      3782
 -1     11109    3    0    1
 -2      2073      3732      3733      3758
 -1     11110    3    0    1
 -2      1183      2618      3056      3892
 -1     11111    3    0    1
 -2      2209       503      3388      3407
 -1     11112    3    0    1
 -2       682      2025      3347      3407
 -1     11113    3    0    2
 -2       303       244      3120      1613
 -1     11114    3    0    1
 -2      2858      1256      3758      3837
 -1     11115    3    0    1
 -2      1957      1952      3272      3345
 -1     11116    3    0    1
 -2       392      2003       978      3415
 -1     11117    3    0    1
 -2      1585      3476      3626      3627
 -1     11118    3    0    1
 -2      1486      1477      3899      3900
 -1     11119    3    0    1
 -2      1840      1983      3282      3346
 -1     11120    3    0    1
 -2      2152      3272      3282      3346
 -1     11121    3    0    1
 -2      3282      1983      3323      3346
 -1     11122    3    0    1
 -2      2152      3282      3323      3346
 -1     11123    3    0    1
 -2      2082      1792      2188      3414
 -1     11124    3    0    1
 -2      1792       520      1628      3414
 -1     11125    3    0    1
 -2        33      1155      3434      3757
 -1     11126    3    0    1
 -2      1983      1840      3476      3627
 -1     11127    3    0    1
 -2      2082      2074      3232      3414
 -1     11128    3    0    1
 -2      3682      2132      3388      3468
 -1     11129    3    0    1
 -2       957       504      3123      3390
 -1     11130    3    0    1
 -2      2850      2847      2853      3710
 -1     11131    3    0    1
 -2      2701      2384      2865      3733
 -1     11132    3    0    1
 -2      1869      3003      3261      1644
 -1     11133    3    0    1
 -2      2850      2848      2855      3710
 -1     11134    3    0    2
 -2      2750      1644      2625      1643
 -1     11135    3    0    1
 -2       373      1269      3269      3733
 -1     11136    3    0    1
 -2      2276      1124      1618      3796
 -1     11137    3    0    1
 -2      2189      3005      3274      3710
 -1     11138    3    0    1
 -2      2189      2471      3005      3710
 -1     11139    3    0    1
 -2      2047       498      3275      3838
 -1     11140    3    0    1
 -2      3456      2042      3462      3766
 -1     11141    3    0    1
 -2      1141      2700      3703      3711
 -1     11142    3    0    1
 -2      2700      1141      2739      3711
 -1     11143    3    0    1
 -2      1616      3354      1512      3761
 -1     11144    3    0    1
 -2      2867      1982      3703      3711
 -1     11145    3    0    1
 -2       521      3692      3556      3845
 -1     11146    3    0    1
 -2      3466      1946      3775      3896
 -1     11147    3    0    1
 -2      3354      1618      3719      3761
 -1     11148    3    0    1
 -2       910      2391      2748      3849
 -1     11149    3    0    1
 -2      3349      3354      3719      3761
 -1     11150    3    0    1
 -2      2045      1864      2867      3711
 -1     11151    3    0    1
 -2      1946      3451      3786      3896
 -1     11152    3    0    1
 -2      3353      3349      3749      3761
 -1     11153    3    0    1
 -2      1197       634      2802      3761
 -1     11154    3    0    2
 -2      3350      3348      3351      3355
 -1     11155    3    0    2
 -2      3357      3361      1621      3363
 -1     11156    3    0    2
 -2      3350      3348      3357      3360
 -1     11157    3    0    2
 -2      3348      3350      3351      3360
 -1     11158    3    0    2
 -2       769       396      1511      3353
 -1     11159    3    0    2
 -2       766      3357      3361      1621
 -1     11160    3    0    2
 -2      2387      2388      2510      1623
 -1     11161    3    0    2
 -2       307       252      2452      1623
 -1     11162    3    0    2
 -2      2387       307      2452      1623
 -1     11163    3    0    2
 -2      1123      1618      3354      1617
 -1     11164    3    0    1
 -2      2211       366      2868      3380
 -1     11165    3    0    1
 -2      3724      1097      3734      3868
 -1     11166    3    0    2
 -2       396      3353      3365      3366
 -1     11167    3    0    2
 -2      1124      1123      3352      3356
 -1     11168    3    0    2
 -2      3349      1124      3352      3356
 -1     11169    3    0    1
 -2      2391       910      3457      3849
 -1     11170    3    0    2
 -2      3357      2705      3361      3363
 -1     11171    3    0    2
 -2      1124       133      1123      3356
 -1     11172    3    0    2
 -2       133      1124       188      3356
 -1     11173    3    0    2
 -2      3349      1124      3356      3362
 -1     11174    3    0    1
 -2       396      3366      3369      3749
 -1     11175    3    0    2
 -2      1124       188      3356      3362
 -1     11176    3    0    1
 -2      1754      1748      1961      3460
 -1     11177    3    0    1
 -2      3795      3468      3797      3858
 -1     11178    3    0    1
 -2       683      3795      3797      3858
 -1     11179    3    0    2
 -2      2706      2705      3357      3358
 -1     11180    3    0    2
 -2        31       131      1615      1617
 -1     11181    3    0    2
 -2      1615        31      1617      1618
 -1     11182    3    0    2
 -2      1616      1615      3354      1618
 -1     11183    3    0    2
 -2      3354      1615      1617      1618
 -1     11184    3    0    2
 -2        31      1615      1616      1618
 -1     11185    3    0    1
 -2      3019      1261      1406      3890
 -1     11186    3    0    2
 -2      3353      3355      3365      3366
 -1     11187    3    0    1
 -2      2139      3194      3741      3750
 -1     11188    3    0    1
 -2      3682      2434      1467      3388
 -1     11189    3    0    2
 -2      3350      3358      3365      3366
 -1     11190    3    0    2
 -2      1512      3353      3354      3359
 -1     11191    3    0    2
 -2      3353      3349      3354      3359
 -1     11192    3    0    2
 -2      3349      3352      3354      3359
 -1     11193    3    0    2
 -2      3353      3348      3355      3359
 -1     11194    3    0    2
 -2      3349      3353      3355      3359
 -1     11195    3    0    2
 -2      3348      3349      3355      3359
 -1     11196    3    0    2
 -2      3351       766      1619      3360
 -1     11197    3    0    2
 -2       766      3351      3357      3360
 -1     11198    3    0    2
 -2      3351      3348      3349      3355
 -1     11199    3    0    2
 -2      3348      3351      3349      3360
 -1     11200    3    0    2
 -2      1619      3351      1372      1620
 -1     11201    3    0    2
 -2      2706      2705      3358      3369
 -1     11202    3    0    2
 -2       766      1622      1621      3361
 -1     11203    3    0    2
 -2      3351      1619      1372      3360
 -1     11204    3    0    2
 -2      3360      1619      1372      1371
 -1     11205    3    0    1
 -2      3353      3355      3366      3749
 -1     11206    3    0    1
 -2      1881      1851      2118      3439
 -1     11207    3    0    2
 -2      1372       133       188      3362
 -1     11208    3    0    2
 -2      3356      1371      3360      3362
 -1     11209    3    0    2
 -2       133      1371      3356      3362
 -1     11210    3    0    2
 -2       133      1372      1371      3362
 -1     11211    3    0    1
 -2      3743      1661      3771      3394
 -1     11212    3    0    2
 -2       766      1622      3361       676
 -1     11213    3    0    2
 -2      3348      3350      3357      3365
 -1     11214    3    0    2
 -2      3357      3350      3358      3365
 -1     11215    3    0    2
 -2      2705      2706      3361      3363
 -1     11216    3    0    2
 -2      3350      3358      3366      3369
 -1     11217    3    0    2
 -2      1622      1494      1621      3363
 -1     11218    3    0    2
 -2      1494      1622      1493      3363
 -1     11219    3    0    1
 -2      3180      1137      3336      3839
 -1     11220    3    0    2
 -2      1493      1494      3363      3364
 -1     11221    3    0    2
 -2      2705      2706      1223      3369
 -1     11222    3    0    2
 -2      3358       396      3366      3369
 -1     11223    3    0    1
 -2      1455       695      3101      3775
 -1     11224    3    0    1
 -2       506      3425      3423      3744
 -1     11225    3    0    2
 -2      1493      1494      3367      3368
 -1     11226    3    0    1
 -2       246      2202      3182      3471
 -1     11227    3    0    2
 -2       588      2804      2805      3368
 -1     11228    3    0    2
 -2       588       498      2804      3368
 -1     11229    3    0    2
 -2      2804      2706      3367      3368
 -1     11230    3    0    2
 -2      3348      3353      3355      3365
 -1     11231    3    0    2
 -2      3350      3348      3355      3365
 -1     11232    3    0    2
 -2       403       783      2510      1623
 -1     11233    3    0    2
 -2       769       396      3365      3366
 -1     11234    3    0    2
 -2       396       769      3358      3366
 -1     11235    3    0    1
 -2      1812      2013      2035      3370
 -1     11236    3    0    2
 -2      3358       769      3365      3366
 -1     11237    3    0    1
 -2      1124      3349      3354      3719
 -1     11238    3    0    2
 -2      2804      2705      2805      3367
 -1     11239    3    0    1
 -2      2774      3518      3520      3830
 -1     11240    3    0    2
 -2      2705      2706      3364      3367
 -1     11241    3    0    2
 -2      2706      2705      2804      3367
 -1     11242    3    0    1
 -2      2434      2209      2606      3388
 -1     11243    3    0    1
 -2      2813       408      1220      3751
 -1     11244    3    0    2
 -2       498      1494      1493      3368
 -1     11245    3    0    2
 -2       588      2805      3367      3368
 -1     11246    3    0    2
 -2      1494       588      3367      3368
 -1     11247    3    0    2
 -2      1494       498       588      3368
 -1     11248    3    0    1
 -2      3694      3068      3741      3750
 -1     11249    3    0    1
 -2      3078      1437      3083      3886
 -1     11250    3    0    2
 -2      2705      1223      1224      3369
 -1     11251    3    0    2
 -2      3350      2706      3357      3369
 -1     11252    3    0    2
 -2      3357      2706      3358      3369
 -1     11253    3    0    2
 -2      3350      3357      3358      3369
 -1     11254    3    0    2
 -2       769       396      3358      3369
 -1     11255    3    0    1
 -2      1439       161      3076      3750
 -1     11256    3    0    2
 -2      2705      1224      3358      3369
 -1     11257    3    0    2
 -2       396      1224      1223      3369
 -1     11258    3    0    2
 -2      1224       769      3358      3369
 -1     11259    3    0    2
 -2      1224       396       769      3369
 -1     11260    3    0    1
 -2       248      1812       905      3370
 -1     11261    3    0    1
 -2      1985      2003      3415      3575
 -1     11262    3    0    1
 -2      2013       641      2035      3370
 -1     11263    3    0    1
 -2       400       939      2602      3393
 -1     11264    3    0    1
 -2       364      2274      2408      3393
 -1     11265    3    0    2
 -2      2510       403      1623      1624
 -1     11266    3    0    2
 -2       403      2510      2511      1624
 -1     11267    3    0    2
 -2      2388      2510      1623      1624
 -1     11268    3    0    2
 -2      2510      2388      2511      1624
 -1     11269    3    0    1
 -2       364      1825       939      3393
 -1     11270    3    0    1
 -2      1676      1825      1541      3393
 -1     11271    3    0    1
 -2       400      2274       939      3393
 -1     11272    3    0    1
 -2      1812       399      1825      3370
 -1     11273    3    0    1
 -2      1825       399      2013      3370
 -1     11274    3    0    1
 -2      1812      1825      2013      3370
 -1     11275    3    0    1
 -2      1778      1985      3087      3575
 -1     11276    3    0    1
 -2      1985      1996      2003      3575
 -1     11277    3    0    1
 -2      1778       883      3318      3575
 -1     11278    3    0    1
 -2      1996       556      2003      3575
 -1     11279    3    0    1
 -2      3592      1193      3606      3882
 -1     11280    3    0    1
 -2      2170      1307      3860      3911
 -1     11281    3    0    1
 -2      2119       551      3494      3918
 -1     11282    3    0    1
 -2      2011       382      3418      3427
 -1     11283    3    0    1
 -2      2032      3381      3740      3455
 -1     11284    3    0    1
 -2      1033       907      2573      3712
 -1     11285    3    0    1
 -2      3263      1959      3712      3872
 -1     11286    3    0    1
 -2      1959       366       845      3872
 -1     11287    3    0    2
 -2      2509      3592      3593      3594
 -1     11288    3    0    1
 -2      1796      2032      3740      3454
 -1     11289    3    0    1
 -2      3712      2615      3871      3872
 -1     11290    3    0    1
 -2       365       907      3580      3872
 -1     11291    3    0    1
 -2      1959       845      3580      3872
 -1     11292    3    0    1
 -2       624      3426      3580      3872
 -1     11293    3    0    1
 -2      3803      1265      3870      3669
 -1     11294    3    0    1
 -2      3267      2398      3431      3633
 -1     11295    3    0    1
 -2      1033       624      3580      3872
 -1     11296    3    0    1
 -2      1959      2615      3263      3712
 -1     11297    3    0    1
 -2       365      3263      3712      3872
 -1     11298    3    0    1
 -2      1929      3707      3726      3867
 -1     11299    3    0    1
 -2      1902      3704      3442      3813
 -1     11300    3    0    1
 -2      2277      1661      3719      3796
 -1     11301    3    0    2
 -2      1650      3585      3586      3587
 -1     11302    3    0    1
 -2      2471       840      3716      3725
 -1     11303    3    0    1
 -2      2190      2075      1638      3474
 -1     11304    3    0    1
 -2      1585      2475      3730      3474
 -1     11305    3    0    1
 -2      1766      1804      3888      3675
 -1     11306    3    0    1
 -2       647      2683      1110      3878
 -1     11307    3    0    1
 -2      2639       377      2646      3714
 -1     11308    3    0    1
 -2      1926      1999      2054      3491
 -1     11309    3    0    1
 -2      3106      1465      3111      3842
 -1     11310    3    0    1
 -2       881       887      3745      3851
 -1     11311    3    0    1
 -2      1912      2803      3581      3910
 -1     11312    3    0    1
 -2       627      3399      3569      3672
 -1     11313    3    0    1
 -2      2217      2223      3192      3616
 -1     11314    3    0    1
 -2      1677      1707      2085      3615
 -1     11315    3    0    1
 -2      2471      3005      3710      3725
 -1     11316    3    0    1
 -2      1290      1288      3716      3725
 -1     11317    3    0    1
 -2      2803      3769      3906      3910
 -1     11318    3    0    1
 -2      3450      2160      3513      3836
 -1     11319    3    0    1
 -2       706       429      1528      3836
 -1     11320    3    0    1
 -2      2127      3064      3262      3714
 -1     11321    3    0    1
 -2      3064      2121      3262      3714
 -1     11322    3    0    2
 -2      3587      1639      3589      1655
 -1     11323    3    0    1
 -2      3083      1445      3085      3823
 -1     11324    3    0    1
 -2      1944      3500      3790      3791
 -1     11325    3    0    1
 -2      2114      1729      2205      3503
 -1     11326    3    0    1
 -2      2509      3596      3601      3874
 -1     11327    3    0    1
 -2      2439      2455       978      3783
 -1     11328    3    0    1
 -2      1936      2184      2753      3425
 -1     11329    3    0    1
 -2       945      1001      3825      3843
 -1     11330    3    0    1
 -2      2068      1773      2827      3502
 -1     11331    3    0    1
 -2       840      2213      2471      3716
 -1     11332    3    0    1
 -2      2563      2568      2571      3746
 -1     11333    3    0    2
 -2      2418       572      2461      1630
 -1     11334    3    0    1
 -2      2887      2878      2891      3716
 -1     11335    3    0    1
 -2      2878      2881      2884      3716
 -1     11336    3    0    1
 -2       411      2887      2891      3716
 -1     11337    3    0    1
 -2       109       840      2881      3716
 -1     11338    3    0    1
 -2       109      2213       840      3716
 -1     11339    3    0    1
 -2      2886      2878      2887      3716
 -1     11340    3    0    1
 -2      2881      2878      2893      3716
 -1     11341    3    0    2
 -2      2890      2418      1629      1630
 -1     11342    3    0    1
 -2      3345      1952      3731      3833
 -1     11343    3    0    1
 -2      3141       630      3143      3776
 -1     11344    3    0    1
 -2      2213       109      2409      3716
 -1     11345    3    0    1
 -2      3445      2619      3825      2413
 -1     11346    3    0    1
 -2      2878      2886      2889      3716
 -1     11347    3    0    1
 -2      1569       410      3732      3759
 -1     11348    3    0    1
 -2      3732      2073      3733      3759
 -1     11349    3    0    1
 -2      1286      2881      2893      3716
 -1     11350    3    0    1
 -2      2878      2889      2893      3716
 -1     11351    3    0    1
 -2      3129      3141      3143      3776
 -1     11352    3    0    1
 -2      1087       505      2640      3862
 -1     11353    3    0    1
 -2      3700      3712      3493      3821
 -1     11354    3    0    1
 -2       382      2286      2689      3927
 -1     11355    3    0    1
 -2       630      3131      3143      3776
 -1     11356    3    0    1
 -2      1419      3433      3525      3847
 -1     11357    3    0    1
 -2      2213      1946      2471      3716
 -1     11358    3    0    1
 -2      1946      2213      2409      3716
 -1     11359    3    0    1
 -2      2314      1210      2825      3717
 -1     11360    3    0    1
 -2       499      1670      2825      3717
 -1     11361    3    0    1
 -2      1670       499      1210      3717
 -1     11362    3    0    1
 -2      1210       499      2825      3717
 -1     11363    3    0    1
 -2      1670      2410      3284      3717
 -1     11364    3    0    1
 -2      2178      2811      2825      3789
 -1     11365    3    0    1
 -2       182      1419      3709      3847
 -1     11366    3    0    1
 -2      3721      1411      3525      3847
 -1     11367    3    0    1
 -2      3086      2999      3375      3718
 -1     11368    3    0    1
 -2       663      1584      3476      3562
 -1     11369    3    0    1
 -2       928      1017      3007      3718
 -1     11370    3    0    1
 -2      2304       624      2312      3871
 -1     11371    3    0    1
 -2      1411       898      3525      3847
 -1     11372    3    0    1
 -2      3376       438      2285      1558
 -1     11373    3    0    1
 -2      2112      2285       438      3316
 -1     11374    3    0    1
 -2       438      2145      1558      3376
 -1     11375    3    0    1
 -2       438      2112      2145      3376
 -1     11376    3    0    1
 -2      2285      2112       438      3376
 -1     11377    3    0    1
 -2      1286      2881      3716      3775
 -1     11378    3    0    1
 -2       420      3240      3254      3728
 -1     11379    3    0    1
 -2       976       190      2482      3769
 -1     11380    3    0    1
 -2       106      1981      3180      3510
 -1     11381    3    0    1
 -2      1144      1145      3703      3839
 -1     11382    3    0    1
 -2      3193      1924      3454      3840
 -1     11383    3    0    1
 -2      3425       506      3423      1730
 -1     11384    3    0    1
 -2      3423      3744      3438      3807
 -1     11385    3    0    1
 -2      1167      1176      3000      3744
 -1     11386    3    0    1
 -2       272      3024      3695      3811
 -1     11387    3    0    1
 -2      3513      3701      3836      3852
 -1     11388    3    0    1
 -2      1176       685      3000      3744
 -1     11389    3    0    1
 -2       411      3716      3759      3786
 -1     11390    3    0    1
 -2       405      1926      3231      3881
 -1     11391    3    0    1
 -2      3823      2060      3863      3919
 -1     11392    3    0    1
 -2       521       371      2138      3845
 -1     11393    3    0    1
 -2      1137      3180      3515      3839
 -1     11394    3    0    1
 -2      1145       413      2732      3839
 -1     11395    3    0    1
 -2      1210       678      3542      3826
 -1     11396    3    0    1
 -2       161      1373      3076      3750
 -1     11397    3    0    1
 -2      3081      1373      3741      3750
 -1     11398    3    0    1
 -2      2461      2419      1629      3786
 -1     11399    3    0    1
 -2      3451      3759      3488      3786
 -1     11400    3    0    1
 -2      2419       411      1629      3786
 -1     11401    3    0    1
 -2      2831       645      2840      3794
 -1     11402    3    0    1
 -2       833        53      2724      3846
 -1     11403    3    0    1
 -2      1199        37      3739      3858
 -1     11404    3    0    1
 -2      2277      1661      3378      3719
 -1     11405    3    0    1
 -2      1235       394      3742      3437
 -1     11406    3    0    1
 -2      3430       847      3747      3633
 -1     11407    3    0    1
 -2      1173      1064      3397      3740
 -1     11408    3    0    1
 -2      1748        53      3178      3460
 -1     11409    3    0    1
 -2        53      1748      1754      3460
 -1     11410    3    0    1
 -2       411      1569      1629      3759
 -1     11411    3    0    2
 -2      3591      2509      3592      3593
 -1     11412    3    0    1
 -2      3710      1117      3725      3759
 -1     11413    3    0    1
 -2      3822        47      3825      3660
 -1     11414    3    0    1
 -2      3192      2223      3405      3889
 -1     11415    3    0    1
 -2       640      2195      3816      3877
 -1     11416    3    0    1
 -2      2633      2643      3797      3879
 -1     11417    3    0    1
 -2      2674      2283      3764      3860
 -1     11418    3    0    1
 -2      3130       680      3144      3757
 -1     11419    3    0    2
 -2       268       319      2777      1643
 -1     11420    3    0    1
 -2      3129      3130      3144      3757
 -1     11421    3    0    1
 -2      1716      3450      3836      3850
 -1     11422    3    0    1
 -2      2962      2956      3690      3720
 -1     11423    3    0    1
 -2      3188      3329      3713      3720
 -1     11424    3    0    1
 -2      2962      3690      3713      3720
 -1     11425    3    0    1
 -2      2959      2962      3713      3720
 -1     11426    3    0    1
 -2      3329      2959      3713      3720
 -1     11427    3    0    1
 -2      2959       944      2961      3720
 -1     11428    3    0    1
 -2      3333       944      3372      3720
 -1     11429    3    0    1
 -2       653       418      2199      3720
 -1     11430    3    0    1
 -2      2199       418      3333      3720
 -1     11431    3    0    1
 -2       177      3329      3372      3720
 -1     11432    3    0    1
 -2       177      2959      3329      3720
 -1     11433    3    0    1
 -2       944       177      3372      3720
 -1     11434    3    0    1
 -2       177       944      2959      3720
 -1     11435    3    0    1
 -2       985       944      3333      3720
 -1     11436    3    0    1
 -2       418       985      3333      3720
 -1     11437    3    0    2
 -2      2694       261      1645      1646
 -1     11438    3    0    1
 -2      3188      2199      3329      3720
 -1     11439    3    0    1
 -2      3329      2199      3372      3720
 -1     11440    3    0    1
 -2      2199      3333      3372      3720
 -1     11441    3    0    1
 -2       418       653       944      3720
 -1     11442    3    0    1
 -2       418       944       985      3720
 -1     11443    3    0    1
 -2      1414      3057      3062      3810
 -1     11444    3    0    1
 -2      2183       679      2193      3568
 -1     11445    3    0    1
 -2      2858      2863      3732      3758
 -1     11446    3    0    1
 -2      3264      2059      3699      3530
 -1     11447    3    0    1
 -2       970      3696      3729      3806
 -1     11448    3    0    1
 -2        65      3754      3812      3857
 -1     11449    3    0    1
 -2      1899      3430      3747      3633
 -1     11450    3    0    1
 -2      3291       388      3863      3919
 -1     11451    3    0    1
 -2       690      1927      2169      3873
 -1     11452    3    0    1
 -2      1375      2990      1382      3815
 -1     11453    3    0    1
 -2      3247      3238      3704      3813
 -1     11454    3    0    1
 -2      2128      3124      3754      3529
 -1     11455    3    0    1
 -2      2288      2773      1379      3814
 -1     11456    3    0    1
 -2       105       948      3686      3657
 -1     11457    3    0    1
 -2      1046       153      3747      3633
 -1     11458    3    0    1
 -2       286      1986      1127      3523
 -1     11459    3    0    1
 -2      1712      1961      3178      3460
 -1     11460    3    0    1
 -2      3285      1716      3701      3561
 -1     11461    3    0    1
 -2       649      3698      2991      3814
 -1     11462    3    0    1
 -2      3714      3490      3829      3835
 -1     11463    3    0    1
 -2      2332      2213      3548      3657
 -1     11464    3    0    1
 -2      2024      2082      2188      3469
 -1     11465    3    0    1
 -2      2024       372      2811      3469
 -1     11466    3    0    1
 -2      2082      2074      3414      3469
 -1     11467    3    0    1
 -2      2413      2619      3430      3445
 -1     11468    3    0    1
 -2       505      1089      2645      3862
 -1     11469    3    0    1
 -2      1782      1721      3496      3654
 -1     11470    3    0    1
 -2      1721      1782      2454      3654
 -1     11471    3    0    1
 -2      1818      1816      3277      3655
 -1     11472    3    0    1
 -2      1721      2454      3496      3654
 -1     11473    3    0    1
 -2      2586      2584      2591      3722
 -1     11474    3    0    1
 -2      2047      2161      2708      3838
 -1     11475    3    0    1
 -2      2584      2586      3684      3722
 -1     11476    3    0    1
 -2      1208      3792      3542      3826
 -1     11477    3    0    1
 -2      2332      3004      3834      3572
 -1     11478    3    0    1
 -2      2150      3199      3692      3805
 -1     11479    3    0    1
 -2      3750      1439      3506      3622
 -1     11480    3    0    1
 -2      2863      1121      1257      3758
 -1     11481    3    0    1
 -2      1543       878      3737      3661
 -1     11482    3    0    1
 -2      2153      3266      3273      3722
 -1     11483    3    0    1
 -2      2153      3172      3266      3722
 -1     11484    3    0    1
 -2      3236      1808      3748      3769
 -1     11485    3    0    1
 -2      2277      3719      3774      3796
 -1     11486    3    0    1
 -2      2914      2918      2926      3723
 -1     11487    3    0    1
 -2      2914      2926      3691      3723
 -1     11488    3    0    1
 -2       991       183      3738      3632
 -1     11489    3    0    1
 -2       911      3766      3860      3878
 -1     11490    3    0    1
 -2      2690       422      3729      3806
 -1     11491    3    0    1
 -2      1817      2690      3729      3806
 -1     11492    3    0    1
 -2      2052      1835      3487      3559
 -1     11493    3    0    1
 -2      2135      3199      3387      3723
 -1     11494    3    0    1
 -2      3199      2147      3387      3723
 -1     11495    3    0    1
 -2      1744      1724      1931      3673
 -1     11496    3    0    1
 -2      1661      2802      3719      3796
 -1     11497    3    0    1
 -2      1618        31      3470      3796
 -1     11498    3    0    1
 -2      2802      2084      3739      3796
 -1     11499    3    0    1
 -2      2482       932      3715      3769
 -1     11500    3    0    1
 -2      3715      3236      3748      3769
 -1     11501    3    0    1
 -2      1661      2277      2802      3796
 -1     11502    3    0    1
 -2      3856      1631      3586      1653
 -1     11503    3    0    1
 -2      2640      2639      2646      3724
 -1     11504    3    0    1
 -2      2646      2639      3714      3724
 -1     11505    3    0    1
 -2      3740      3396      3582      3869
 -1     11506    3    0    1
 -2      3740      1169      3693      1064
 -1     11507    3    0    1
 -2      1169      3740      3693      3869
 -1     11508    3    0    1
 -2      1163       685      3807      3840
 -1     11509    3    0    1
 -2      3487      3465      3559      3869
 -1     11510    3    0    1
 -2      3693      1796      3485      3869
 -1     11511    3    0    1
 -2      3087       439      3415      3769
 -1     11512    3    0    1
 -2      2662      2641      3683      3879
 -1     11513    3    0    1
 -2      1083       955      2641      3879
 -1     11514    3    0    1
 -2      2211       403      2511      3392
 -1     11515    3    0    1
 -2      2056      2211      2511      3392
 -1     11516    3    0    1
 -2      2056       252      1624      2452
 -1     11517    3    0    1
 -2       252      2056      1624      3392
 -1     11518    3    0    1
 -2      2210       252       953      3392
 -1     11519    3    0    1
 -2      2134      2210       953      3392
 -1     11520    3    0    1
 -2       252      2134       953      3392
 -1     11521    3    0    1
 -2      1237      1305      3727      3897
 -1     11522    3    0    1
 -2      2560      2568      3712      3746
 -1     11523    3    0    1
 -2      3337      1664      3851      3623
 -1     11524    3    0    1
 -2      3808      3560      3836      3916
 -1     11525    3    0    1
 -2      3282      3264      3782      3880
 -1     11526    3    0    1
 -2      1624      2056      2511      3392
 -1     11527    3    0    1
 -2      1624      2056      2452      2388
 -1     11528    3    0    1
 -2      2560      1032      3746      3821
 -1     11529    3    0    1
 -2       512      1676      2408      3393
 -1     11530    3    0    1
 -2      1676       512       855      3393
 -1     11531    3    0    1
 -2       855       512      2408      3393
 -1     11532    3    0    1
 -2      2340       364      2408      3393
 -1     11533    3    0    1
 -2      1676      2340      2408      3393
 -1     11534    3    0    1
 -2      2274       400      2299      3393
 -1     11535    3    0    1
 -2       400      1813      2299      3393
 -1     11536    3    0    1
 -2      2340      1676      1541      3393
 -1     11537    3    0    1
 -2       364      2340      1541      3393
 -1     11538    3    0    1
 -2       396      3353      3366      3749
 -1     11539    3    0    1
 -2      1754        53      3522      3846
 -1     11540    3    0    1
 -2       881      2361      3726      3745
 -1     11541    3    0    1
 -2      2753       506      3000      3744
 -1     11542    3    0    1
 -2      3068      3076      3081      3750
 -1     11543    3    0    1
 -2      2059      3264      3699      3770
 -1     11544    3    0    1
 -2       951      2187      3269      3398
 -1     11545    3    0    1
 -2       260      2053      1597      3398
 -1     11546    3    0    1
 -2      3194      3694      3697      3741
 -1     11547    3    0    1
 -2      3068      3074      3697      3741
 -1     11548    3    0    1
 -2      1864       696      2156      3802
 -1     11549    3    0    1
 -2      2086      2089      1597      3398
 -1     11550    3    0    1
 -2      2053      2086      1597      3398
 -1     11551    3    0    1
 -2       409      2053      1249      3398
 -1     11552    3    0    1
 -2       412       951      3269      3398
 -1     11553    3    0    1
 -2      2053       409      3269      3398
 -1     11554    3    0    1
 -2       409       412      3269      3398
 -1     11555    3    0    1
 -2      2187      2053      3269      3398
 -1     11556    3    0    1
 -2      2086      2053      2187      3398
 -1     11557    3    0    1
 -2      3153      3154      3158      3760
 -1     11558    3    0    1
 -2      3159      3154      3162      3760
 -1     11559    3    0    1
 -2       681      3682      3388      3468
 -1     11560    3    0    1
 -2      2277      2084      2802      3796
 -1     11561    3    0    1
 -2      1712      1981      3460      3510
 -1     11562    3    0    1
 -2        53      3178      3460      3510
 -1     11563    3    0    1
 -2       404      2134       953      3401
 -1     11564    3    0    1
 -2      3125       283      1608      3402
 -1     11565    3    0    1
 -2       666      3125      1608      3402
 -1     11566    3    0    1
 -2       666      2119      3125      3402
 -1     11567    3    0    1
 -2      3125      2119      1564      1988
 -1     11568    3    0    1
 -2      2131       386      3371      3916
 -1     11569    3    0    1
 -2      3341       896      3342      3867
 -1     11570    3    0    1
 -2       403      1624      3392      3426
 -1     11571    3    0    1
 -2      3560      1267      3836      3916
 -1     11572    3    0    1
 -2       168      1492      3222      3852
 -1     11573    3    0    1
 -2      1929      2148      3332      3726
 -1     11574    3    0    1
 -2      2148      1929      3338      3726
 -1     11575    3    0    1
 -2      2133      1886      2709      3613
 -1     11576    3    0    1
 -2      1983      3282      3323      3880
 -1     11577    3    0    1
 -2      2148      1664      3332      3726
 -1     11578    3    0    1
 -2      3263      2153      3700      3493
 -1     11579    3    0    1
 -2      3230      2092      3343      3727
 -1     11580    3    0    1
 -2      1655       707      3590      3921
 -1     11581    3    0    1
 -2      3201      3181      3477      3898
 -1     11582    3    0    1
 -2      3787       945      3825      3843
 -1     11583    3    0    1
 -2      2126      2461      3451      3896
 -1     11584    3    0    1
 -2      1005       945      3787      3843
 -1     11585    3    0    1
 -2      2467      3247      3256      3813
 -1     11586    3    0    1
 -2      3238      3247      3728      3813
 -1     11587    3    0    1
 -2      3062       544      1428      3810
 -1     11588    3    0    1
 -2      3760      2033      3785      3881
 -1     11589    3    0    1
 -2      3456      2179      3573      3860
 -1     11590    3    0    1
 -2      1927      1307      3860      2170
 -1     11591    3    0    1
 -2      3421      1804      3611      3655
 -1     11592    3    0    1
 -2      1414      3062      1428      3810
 -1     11593    3    0    1
 -2      2134      2165      3401      3491
 -1     11594    3    0    1
 -2      1926       367      1999      3491
 -1     11595    3    0    1
 -2      1823      1833      2774      3830
 -1     11596    3    0    1
 -2      2054      1999      2165      3491
 -1     11597    3    0    1
 -2      3064      3724      3734      3868
 -1     11598    3    0    1
 -2      2802       130      3761      3796
 -1     11599    3    0    1
 -2       924       130      3739      3796
 -1     11600    3    0    1
 -2       130        31      3761      3796
 -1     11601    3    0    1
 -2      1061       682      3347      3407
 -1     11602    3    0    1
 -2      1813       149       904      3831
 -1     11603    3    0    1
 -2      3178      1712      3460      3510
 -1     11604    3    0    1
 -2      3235      3764      3772      3860
 -1     11605    3    0    1
 -2      1362        56      3713      3754
 -1     11606    3    0    1
 -2      3202      3199      3805      3822
 -1     11607    3    0    1
 -2      1351      1349      2949      3754
 -1     11608    3    0    1
 -2      2332       105      3004      3657
 -1     11609    3    0    1
 -2      2671      2666      3772      3860
 -1     11610    3    0    1
 -2      1960      3190      3325      3728
 -1     11611    3    0    1
 -2      3343      1672      3576      3665
 -1     11612    3    0    1
 -2      3566      1819      3571      3904
 -1     11613    3    0    2
 -2       663      1586      1585      3410
 -1     11614    3    0    2
 -2      2327       663      1583      2328
 -1     11615    3    0    2
 -2      1637      2555      1638       381
 -1     11616    3    0    1
 -2      1023       704      3272      3731
 -1     11617    3    0    1
 -2       704      1020      3272      3731
 -1     11618    3    0    2
 -2      2555      2475      1637      1638
 -1     11619    3    0    1
 -2      1535       367      2416      3411
 -1     11620    3    0    1
 -2      1792      2210      2406      3411
 -1     11621    3    0    1
 -2      1792      2406      2416      3411
 -1     11622    3    0    1
 -2      1806      2122       904      3628
 -1     11623    3    0    1
 -2      3662      2119      3918      3923
 -1     11624    3    0    1
 -2      2406      2210      1535      3411
 -1     11625    3    0    1
 -2      2416      2406      1535      3411
 -1     11626    3    0    1
 -2      1806      1758      2602      3628
 -1     11627    3    0    1
 -2      3222      3209      3701      3852
 -1     11628    3    0    1
 -2      2209      2434      2606      3495
 -1     11629    3    0    1
 -2      1863      2174      3281      3539
 -1     11630    3    0    1
 -2      3283      1702      3386      3634
 -1     11631    3    0    1
 -2      1856      2690      1578      3729
 -1     11632    3    0    1
 -2      1817      2075      2717      3729
 -1     11633    3    0    1
 -2       170      1776      1826      3571
 -1     11634    3    0    1
 -2      3683      1978      3064      3734
 -1     11635    3    0    1
 -2      3683      3064      3724      3734
 -1     11636    3    0    1
 -2      1953      2152      3444      3634
 -1     11637    3    0    1
 -2      2553      2324      3685      3730
 -1     11638    3    0    1
 -2      2324      2553      2556      3730
 -1     11639    3    0    1
 -2      2553      1027      2556      3730
 -1     11640    3    0    1
 -2      3730      1585      3626      3627
 -1     11641    3    0    1
 -2      1023      2553      3685      3730
 -1     11642    3    0    1
 -2      2553      1023      1027      3730
 -1     11643    3    0    1
 -2      2716       551      1564      3923
 -1     11644    3    0    1
 -2      1385       699      3475      3773
 -1     11645    3    0    1
 -2       699      1378      3475      3773
 -1     11646    3    0    1
 -2      1840      1983      3346      3627
 -1     11647    3    0    1
 -2      1193      3882      3918      3923
 -1     11648    3    0    1
 -2      1193      3606      3882      3923
 -1     11649    3    0    1
 -2      3882      3662      3918      3923
 -1     11650    3    0    1
 -2      1758       686      3001      3416
 -1     11651    3    0    1
 -2      1758      1806       972      3416
 -1     11652    3    0    1
 -2       686      1758       972      3416
 -1     11653    3    0    1
 -2       981       509      3001      3416
 -1     11654    3    0    1
 -2       509      2035      3001      3416
 -1     11655    3    0    1
 -2      3770      1424      3841      3913
 -1     11656    3    0    1
 -2      2035      1758      3001      3416
 -1     11657    3    0    1
 -2      3005      3274      3710      3732
 -1     11658    3    0    1
 -2      2720       833      2724      3846
 -1     11659    3    0    1
 -2      2850      2847      3710      3732
 -1     11660    3    0    1
 -2      3003      1948      3261      1644
 -1     11661    3    0    1
 -2       361      2161      3379      3838
 -1     11662    3    0    1
 -2      3364      3361      3743      3838
 -1     11663    3    0    1
 -2       498      2047      1315      3838
 -1     11664    3    0    1
 -2      2706      3361      3364      3838
 -1     11665    3    0    2
 -2       675       419      2750      1643
 -1     11666    3    0    1
 -2      3005      2073      3274      3732
 -1     11667    3    0    2
 -2      2625      2749      1644      2750
 -1     11668    3    0    1
 -2      1569      3732      3733      3759
 -1     11669    3    0    1
 -2      2169      2073      3269      3733
 -1     11670    3    0    1
 -2       410      3710      3732      3759
 -1     11671    3    0    1
 -2      3695      3649      1863      3185
 -1     11672    3    0    1
 -2       170      1776      3571      3630
 -1     11673    3    0    1
 -2      1978      2866      3064      3734
 -1     11674    3    0    1
 -2      2301      2659      2663      3911
 -1     11675    3    0    1
 -2      3626      3730      3627      3674
 -1     11676    3    0    1
 -2      2866      1978      3400      3734
 -1     11677    3    0    1
 -2      3379      3743      3749      3838
 -1     11678    3    0    1
 -2      1796      3693      3740      3869
 -1     11679    3    0    1
 -2      2183      2111      3328      3568
 -1     11680    3    0    1
 -2      1193      3592      1658      3882
 -1     11681    3    0    1
 -2      2221      2498      3735      3419
 -1     11682    3    0    1
 -2       418      2163      3333      3419
 -1     11683    3    0    1
 -2      2281      2472      1263      3907
 -1     11684    3    0    2
 -2      2715      2716      3602      3604
 -1     11685    3    0    1
 -2      3281      3539       272      1863
 -1     11686    3    0    1
 -2      3540      3545      3876      3883
 -1     11687    3    0    1
 -2      2732      2719      2735      3778
 -1     11688    3    0    1
 -2      2918      2915      2929      3822
 -1     11689    3    0    1
 -2      1171      1163      3693      3840
 -1     11690    3    0    2
 -2      3595      1633      3596      3597
 -1     11691    3    0    1
 -2      3333      2221      3334      3735
 -1     11692    3    0    1
 -2      2472      2281      3859      3907
 -1     11693    3    0    1
 -2      2194       177      3736      3612
 -1     11694    3    0    1
 -2      3384      3380      3753      3895
 -1     11695    3    0    1
 -2      1982      2729      3478      3778
 -1     11696    3    0    1
 -2      2720      2724      2725      3778
 -1     11697    3    0    1
 -2      1740      1810      2216      3516
 -1     11698    3    0    1
 -2       413      2730      2732      3778
 -1     11699    3    0    1
 -2       691      1247      3489      3884
 -1     11700    3    0    1
 -2      3373       529      3458      3802
 -1     11701    3    0    1
 -2      1667      3260      3420      3737
 -1     11702    3    0    1
 -2      1947      1667      3420      3737
 -1     11703    3    0    1
 -2      2045      1711      2086      3844
 -1     11704    3    0    1
 -2       529      3711      3458      3802
 -1     11705    3    0    1
 -2      3260      1667      3325      3737
 -1     11706    3    0    1
 -2      1907      1667      1947      3737
 -1     11707    3    0    1
 -2      3322      2492      3334      3738
 -1     11708    3    0    1
 -2      1239      3292      3422      3884
 -1     11709    3    0    1
 -2      2719      2720      2725      3778
 -1     11710    3    0    1
 -2      2175      3292      3489      3884
 -1     11711    3    0    1
 -2      3151      3200      3525      3847
 -1     11712    3    0    1
 -2       697      2725      3478      3778
 -1     11713    3    0    1
 -2      1073      3570      3864      3870
 -1     11714    3    0    1
 -2      2084       924      3174      3739
 -1     11715    3    0    1
 -2      2476       974      2482      3769
 -1     11716    3    0    2
 -2      1640      3585      3587      3589
 -1     11717    3    0    1
 -2      1414      1421      3057      3810
 -1     11718    3    0    1
 -2      2132      3682      3385      3739
 -1     11719    3    0    1
 -2      2788       924      2793      3739
 -1     11720    3    0    1
 -2      2788      2793      3682      3739
 -1     11721    3    0    1
 -2       924       130      2793      3739
 -1     11722    3    0    1
 -2      2793      2802      3385      3739
 -1     11723    3    0    1
 -2      2793       130      2802      3739
 -1     11724    3    0    1
 -2      2616      2132      3385      3739
 -1     11725    3    0    1
 -2      2084      2616      3385      3739
 -1     11726    3    0    1
 -2      3421      3619      3875      3888
 -1     11727    3    0    1
 -2       528      1559      3842      3914
 -1     11728    3    0    1
 -2      3325      3704      3737      3798
 -1     11729    3    0    1
 -2      2802      2084      3385      3739
 -1     11730    3    0    1
 -2       924        37      3174      3739
 -1     11731    3    0    1
 -2       955      1083      3854      3887
 -1     11732    3    0    1
 -2      1085       121      3797      3887
 -1     11733    3    0    1
 -2       873      2935      2015       280
 -1     11734    3    0    1
 -2      3739      2616      3797      3887
 -1     11735    3    0    1
 -2      3517      1674      3583      3893
 -1     11736    3    0    1
 -2       402       999      3684      3753
 -1     11737    3    0    2
 -2      2601       244      1641      1642
 -1     11738    3    0    1
 -2        54       989      3736      3612
 -1     11739    3    0    1
 -2      1924      3423      3744      3438
 -1     11740    3    0    1
 -2      1111       633      2770      3752
 -1     11741    3    0    1
 -2      3551      3701      3561      3832
 -1     11742    3    0    1
 -2      2002      2009      3404      3543
 -1     11743    3    0    1
 -2      2653      2654      2659      3835
 -1     11744    3    0    1
 -2      3004      3114      3688      3827
 -1     11745    3    0    1
 -2      2604      2819      2822      3751
 -1     11746    3    0    1
 -2      2185      3185      3511      3811
 -1     11747    3    0    1
 -2      3115      2139      3194      3741
 -1     11748    3    0    1
 -2      3306      3297      3705      3827
 -1     11749    3    0    1
 -2      3714      3262      3490      3835
 -1     11750    3    0    1
 -2      2550       936      3696      3833
 -1     11751    3    0    1
 -2      1952      2624      3731      3833
 -1     11752    3    0    1
 -2      3078      3083      3689      3886
 -1     11753    3    0    1
 -2      2537      3696      3718      3833
 -1     11754    3    0    1
 -2      1437      1442      3863      3886
 -1     11755    3    0    1
 -2      3067       434      3078      3886
 -1     11756    3    0    1
 -2       633      2768      2770      3752
 -1     11757    3    0    1
 -2      3350      3351      3361      3743
 -1     11758    3    0    1
 -2      3351      3350      3355      3749
 -1     11759    3    0    1
 -2      3198      2277      3774      3639
 -1     11760    3    0    1
 -2      1171       127      3455      3840
 -1     11761    3    0    1
 -2      3693      3454      3740      3840
 -1     11762    3    0    1
 -2      1145      1144      3336      3839
 -1     11763    3    0    1
 -2       685      1163      3455      3840
 -1     11764    3    0    1
 -2      1163      1171      3455      3840
 -1     11765    3    0    2
 -2      2379      2461      1612      2462
 -1     11766    3    0    1
 -2      3068      3081      3741      3750
 -1     11767    3    0    1
 -2       933      1439      3076      3750
 -1     11768    3    0    1
 -2      2202      2025      3177      3471
 -1     11769    3    0    1
 -2       395      2751      3173      1648
 -1     11770    3    0    1
 -2      3379      3275      3394      3743
 -1     11771    3    0    1
 -2      1661      3379      3394      3743
 -1     11772    3    0    1
 -2      2360      2369      3008      3745
 -1     11773    3    0    1
 -2      3008      1976      3088      3745
 -1     11774    3    0    1
 -2      1976      3008      3318      3745
 -1     11775    3    0    1
 -2      2148      3008      3088      3745
 -1     11776    3    0    1
 -2      2099       430      3619      3888
 -1     11777    3    0    1
 -2      1341      2039      3619      3888
 -1     11778    3    0    1
 -2      3118      2057      3484      3854
 -1     11779    3    0    1
 -2      2134      1959      3392      3426
 -1     11780    3    0    1
 -2       624      1033      3871      3872
 -1     11781    3    0    1
 -2      3426      1449      3871      3872
 -1     11782    3    0    1
 -2      2301      2663      2667      3911
 -1     11783    3    0    1
 -2        52      2124      3576      3897
 -1     11784    3    0    1
 -2      2592      1037      1047      3821
 -1     11785    3    0    1
 -2      1033       907      3712      3872
 -1     11786    3    0    1
 -2       907       365      3712      3872
 -1     11787    3    0    1
 -2      1959      3426      3580      3392
 -1     11788    3    0    1
 -2      2560      2559      2574      3821
 -1     11789    3    0    1
 -2      2596      2592      1047      3821
 -1     11790    3    0    1
 -2      2306      2046      2615      3746
 -1     11791    3    0    1
 -2      3714      3064      3724      3862
 -1     11792    3    0    1
 -2      3321      3705      3777      3818
 -1     11793    3    0    1
 -2       702      1983      1273      3429
 -1     11794    3    0    1
 -2      2684       377      3714      3873
 -1     11795    3    0    1
 -2      1237      2908      3779      3780
 -1     11796    3    0    1
 -2      3801      3404      3543      3661
 -1     11797    3    0    1
 -2      3189      2395      3267      3431
 -1     11798    3    0    1
 -2      2413      2398      3430      3431
 -1     11799    3    0    1
 -2       168       192      3809      3889
 -1     11800    3    0    1
 -2      2398      3189      3267      3431
 -1     11801    3    0    1
 -2      2154      2619      3684      3747
 -1     11802    3    0    1
 -2      1050      2593      1046      3747
 -1     11803    3    0    1
 -2      1982      3703      3778      3553
 -1     11804    3    0    1
 -2      1041      2593      1050      3747
 -1     11805    3    0    1
 -2       127      3693      3740      3840
 -1     11806    3    0    1
 -2      1924      3270      3454      3840
 -1     11807    3    0    1
 -2      3764      3235      3463      3878
 -1     11808    3    0    1
 -2       878      1551      3801      3661
 -1     11809    3    0    1
 -2      2454      3496      3654      3906
 -1     11810    3    0    1
 -2       503      1467      3388      3848
 -1     11811    3    0    1
 -2      1050      1046       153      3747
 -1     11812    3    0    1
 -2      3192      3812      3610      3889
 -1     11813    3    0    1
 -2      3756       265      3811      3866
 -1     11814    3    0    1
 -2      3172      1899      3266      3747
 -1     11815    3    0    1
 -2      1899      2154      3266      3747
 -1     11816    3    0    1
 -2      3000      1924      3744      3840
 -1     11817    3    0    1
 -2       847       151      3430      3747
 -1     11818    3    0    1
 -2      2154      1899      2619      3747
 -1     11819    3    0    1
 -2      3788      1525      3852      3889
 -1     11820    3    0    1
 -2       861      1525      3788      3889
 -1     11821    3    0    1
 -2      1982      3186      3703      3553
 -1     11822    3    0    1
 -2      2223      3192      3616      3889
 -1     11823    3    0    1
 -2       126      1169      2765      3869
 -1     11824    3    0    1
 -2      2604      2813      2819      3751
 -1     11825    3    0    1
 -2      3500      3499      3790      3791
 -1     11826    3    0    1
 -2      3421      1819      3856      3874
 -1     11827    3    0    1
 -2      1811       629      2115      3436
 -1     11828    3    0    1
 -2      2218      2048      1226      3436
 -1     11829    3    0    1
 -2       629      2218      1226      3436
 -1     11830    3    0    1
 -2      2028       497      2102      3436
 -1     11831    3    0    1
 -2       497      2028      2102      1470
 -1     11832    3    0    1
 -2      2102       497      1055      3436
 -1     11833    3    0    1
 -2      2095      2102      1055      3436
 -1     11834    3    0    1
 -2       629      2095      1055      3436
 -1     11835    3    0    1
 -2      2095       629      1226      3436
 -1     11836    3    0    1
 -2       170      1826      3673      3925
 -1     11837    3    0    1
 -2      2490       686      3001      3748
 -1     11838    3    0    1
 -2      1247       691      2842      3784
 -1     11839    3    0    1
 -2      2774      1681      3518      3830
 -1     11840    3    0    1
 -2      3444      1425      3770      3636
 -1     11841    3    0    1
 -2      2025      3347      3829      3637
 -1     11842    3    0    1
 -2      3194      3750      3577      3909
 -1     11843    3    0    1
 -2      2490      3001      3413      3748
 -1     11844    3    0    1
 -2      1373      3741      3750      3885
 -1     11845    3    0    1
 -2      3531      3516      3618      3648
 -1     11846    3    0    1
 -2      2139      3741      3832      3885
 -1     11847    3    0    1
 -2       523      2010      3317      3784
 -1     11848    3    0    1
 -2      2010       523      2776      3784
 -1     11849    3    0    1
 -2      3750      2139      3440      3885
 -1     11850    3    0    1
 -2      3236      1808      3424      3748
 -1     11851    3    0    1
 -2      1808      3413      3424      3748
 -1     11852    3    0    1
 -2      3185      3511      3811      3890
 -1     11853    3    0    1
 -2      3413      3001      3424      3748
 -1     11854    3    0    1
 -2      3516      2018      3815      3926
 -1     11855    3    0    1
 -2      3353      3349      3355      3749
 -1     11856    3    0    1
 -2      2138       371      2211      3762
 -1     11857    3    0    1
 -2      1137      2728      3778      3846
 -1     11858    3    0    1
 -2      2415       366      3287      3762
 -1     11859    3    0    1
 -2      2616      3739      3797      3858
 -1     11860    3    0    1
 -2      3682      2794      3739      3858
 -1     11861    3    0    1
 -2      3172      1899      3747      3865
 -1     11862    3    0    1
 -2      3809       192      3610      3889
 -1     11863    3    0    1
 -2      3247      1073      3256      3813
 -1     11864    3    0    1
 -2      3753      3380      3762      3895
 -1     11865    3    0    1
 -2      2202      1312      3347      3471
 -1     11866    3    0    1
 -2      1661      2802      3379      3749
 -1     11867    3    0    1
 -2      2355      3857      3335      2204
 -1     11868    3    0    1
 -2      3759      3716      3488      3786
 -1     11869    3    0    1
 -2      1856       537      1968      3659
 -1     11870    3    0    1
 -2      3284      1670      3717      3789
 -1     11871    3    0    1
 -2      2806      2314      2810      3789
 -1     11872    3    0    1
 -2      2810      1211      1218      3789
 -1     11873    3    0    1
 -2      3769      3087      3558      3910
 -1     11874    3    0    1
 -2      3420      3737      3801      3543
 -1     11875    3    0    1
 -2      3717      2813      3751      3789
 -1     11876    3    0    1
 -2      1881      2118      2167      3439
 -1     11877    3    0    1
 -2      2028      1881      2167      3439
 -1     11878    3    0    1
 -2      3499      1220      3790      3791
 -1     11879    3    0    1
 -2      3737      1907      3798      3543
 -1     11880    3    0    1
 -2      2082      2074      3469      3499
 -1     11881    3    0    1
 -2      3408       180      3798      3543
 -1     11882    3    0    1
 -2      1944      2074      2082      3499
 -1     11883    3    0    1
 -2      2604      2822      2823      3751
 -1     11884    3    0    1
 -2      3219      1522      3832      3894
 -1     11885    3    0    1
 -2      2811      2082      3469      3790
 -1     11886    3    0    1
 -2      2604      2818      3717      3751
 -1     11887    3    0    1
 -2      2818      2604      2823      3751
 -1     11888    3    0    1
 -2       136       913      2822      3751
 -1     11889    3    0    1
 -2      1729      1910      2205      3503
 -1     11890    3    0    1
 -2        52      2124      3779      3503
 -1     11891    3    0    1
 -2      1523       861      3223      3788
 -1     11892    3    0    1
 -2      3384      2934      3805      3843
 -1     11893    3    0    1
 -2      2410      1944      3284      3751
 -1     11894    3    0    1
 -2      1523      3223      1530      3788
 -1     11895    3    0    1
 -2      3046      2618      3810      3892
 -1     11896    3    0    1
 -2      3505      1241      3793      3554
 -1     11897    3    0    1
 -2      2167      3439      3501      3826
 -1     11898    3    0    1
 -2      3153      3760      3785      3881
 -1     11899    3    0    1
 -2      3485      3693      3869      3891
 -1     11900    3    0    1
 -2      3517      1810      3618      3893
 -1     11901    3    0    1
 -2      3018      3016      3695      3811
 -1     11902    3    0    1
 -2      2136      3090      3441      3752
 -1     11903    3    0    1
 -2      2058       633      1111      3752
 -1     11904    3    0    1
 -2      2136      2052      3090      3752
 -1     11905    3    0    1
 -2      3793      1241      3794      3554
 -1     11906    3    0    1
 -2      2154      3384      3753      3528
 -1     11907    3    0    1
 -2       375      1150      3330      3844
 -1     11908    3    0    1
 -2       999      1003      3684      3753
 -1     11909    3    0    1
 -2      1003       999      2525      3753
 -1     11910    3    0    1
 -2      2045      2089      1150      3844
 -1     11911    3    0    1
 -2       375      1148      3703      3844
 -1     11912    3    0    1
 -2      1711      3186      3839      3844
 -1     11913    3    0    1
 -2      3566      1819      3904      3655
 -1     11914    3    0    1
 -2        59      1113      3583      3893
 -1     11915    3    0    1
 -2      3715       156      3654      3906
 -1     11916    3    0    1
 -2      1893      3236      3715      3496
 -1     11917    3    0    1
 -2      1843      1782      2012      3496
 -1     11918    3    0    1
 -2      3380      2154      3384      3753
 -1     11919    3    0    1
 -2      2868      2154      3380      3753
 -1     11920    3    0    1
 -2      1658      1193      3882      3918
 -1     11921    3    0    1
 -2      3400      2866      3734      3837
 -1     11922    3    0    1
 -2      2950      2939      2953      3808
 -1     11923    3    0    1
 -2      2427      2396      3371      3808
 -1     11924    3    0    1
 -2      1349      1351      1362      3754
 -1     11925    3    0    1
 -2        65        56      1351      3754
 -1     11926    3    0    1
 -2      1351        56      1362      3754
 -1     11927    3    0    1
 -2      1187      1370      3799      3653
 -1     11928    3    0    1
 -2       541      1187      3799      3653
 -1     11929    3    0    1
 -2      3371      1360      2427      3808
 -1     11930    3    0    1
 -2      1113      1375      3583      3893
 -1     11931    3    0    1
 -2      2942      2939      2950      3808
 -1     11932    3    0    1
 -2       424      1463      3427      3755
 -1     11933    3    0    1
 -2      2066      1301      3201      3481
 -1     11934    3    0    1
 -2      2515      3753      3762      3895
 -1     11935    3    0    1
 -2      1463      1279      3427      3755
 -1     11936    3    0    1
 -2      1279       382      3427      3755
 -1     11937    3    0    1
 -2      1015      2299      3203      3831
 -1     11938    3    0    1
 -2      1664      1803      3332      3623
 -1     11939    3    0    1
 -2      3395      3415      3769      3910
 -1     11940    3    0    1
 -2      3774      2147      3526      3822
 -1     11941    3    0    1
 -2      3399      2186      3569      3920
 -1     11942    3    0    1
 -2       415      1078      3683      3922
 -1     11943    3    0    1
 -2       681      3468      3795      3858
 -1     11944    3    0    1
 -2      3723      2147      3774      3822
 -1     11945    3    0    1
 -2      1325       835      2928      3822
 -1     11946    3    0    1
 -2      2915      2928      2929      3822
 -1     11947    3    0    1
 -2      1158      2928      3723      3822
 -1     11948    3    0    1
 -2      1915      3279      3763      3855
 -1     11949    3    0    1
 -2       683       681      3795      3858
 -1     11950    3    0    1
 -2      1915      3763      3509      3855
 -1     11951    3    0    1
 -2      1158      3723      3774      3822
 -1     11952    3    0    1
 -2      3728      3190      3813      3859
 -1     11953    3    0    1
 -2      1766      2063      2099      3888
 -1     11954    3    0    1
 -2      2185      3278      3382      3756
 -1     11955    3    0    1
 -2      1766      1804      3621      3888
 -1     11956    3    0    1
 -2      2928      1158      3774      3822
 -1     11957    3    0    1
 -2      3199      2147      3723      3822
 -1     11958    3    0    1
 -2      1141      2729       697      3478
 -1     11959    3    0    1
 -2      1982      1141      3458      3478
 -1     11960    3    0    1
 -2      2342      1588      3307      3818
 -1     11961    3    0    1
 -2      2221      3321      3322      3777
 -1     11962    3    0    1
 -2      1882      1765      1958      3534
 -1     11963    3    0    1
 -2      2390      3701      3850      3894
 -1     11964    3    0    1
 -2      1895      2062      3434      3757
 -1     11965    3    0    1
 -2      3383      1895      3434      3757
 -1     11966    3    0    1
 -2      2062      2027      3434      3757
 -1     11967    3    0    1
 -2      2804       498      1315      3838
 -1     11968    3    0    1
 -2      2196       244      3406      3568
 -1     11969    3    0    1
 -2      1613      2183      3406      3568
 -1     11970    3    0    1
 -2      2303      2701      1181      3758
 -1     11971    3    0    1
 -2      2303      2169      3733      3758
 -1     11972    3    0    1
 -2      3733      2169      3447      3758
 -1     11973    3    0    1
 -2      2169      1181      3447      3758
 -1     11974    3    0    1
 -2      2169      2303      1181      3758
 -1     11975    3    0    1
 -2      2866      2073      3447      3758
 -1     11976    3    0    1
 -2      2073      2866      3274      3758
 -1     11977    3    0    1
 -2       679      2183      1613      3568
 -1     11978    3    0    1
 -2       244      1613      3406      3568
 -1     11979    3    0    1
 -2      1447      2620      3540      3927
 -1     11980    3    0    1
 -2      3011      3015      3029      3811
 -1     11981    3    0    1
 -2      3023      3011      3029      3811
 -1     11982    3    0    1
 -2      3086      2875      3544      3833
 -1     11983    3    0    1
 -2       151      3430      3747      3787
 -1     11984    3    0    1
 -2      2069      2126      2461      3451
 -1     11985    3    0    1
 -2      3747      2619      3430      1899
 -1     11986    3    0    1
 -2       374       373      3269      3451
 -1     11987    3    0    1
 -2      3269       373      3733      3451
 -1     11988    3    0    1
 -2       373      1569      3733      3451
 -1     11989    3    0    1
 -2        40      1005      3445      3787
 -1     11990    3    0    1
 -2      1995      2755      3443      3810
 -1     11991    3    0    1
 -2      1005       945      3445      3787
 -1     11992    3    0    2
 -2      1639      1640      3585      3587
 -1     11993    3    0    1
 -2       373       374      1629      3451
 -1     11994    3    0    1
 -2      1569       373      1629      3451
 -1     11995    3    0    1
 -2      1117      1254      1288      3759
 -1     11996    3    0    1
 -2       180      1548      3408      3798
 -1     11997    3    0    1
 -2       420       962      3728      3798
 -1     11998    3    0    1
 -2      3231      2191      3233      3855
 -1     11999    3    0    1
 -2      1667      1907      2072      3798
 -1     12000    3    0    1
 -2      3704      3325      3728      3798
 -1     12001    3    0    1
 -2      2072      1907      3408      3798
 -1     12002    3    0    1
 -2      1960      2072      3408      3798
 -1     12003    3    0    1
 -2      1664      3726      3851      3623
 -1     12004    3    0    1
 -2       962      3704      3728      3798
 -1     12005    3    0    1
 -2      2066      3123      3687      3461
 -1     12006    3    0    1
 -2       696      2402      1151      3802
 -1     12007    3    0    1
 -2      3163      3153      3168      3760
 -1     12008    3    0    1
 -2      1664      2050      3337      3492
 -1     12009    3    0    1
 -2      1758      1806      3416      3628
 -1     12010    3    0    1
 -2       132      1471      1476      3817
 -1     12011    3    0    1
 -2      3222      3207      3788      3852
 -1     12012    3    0    1
 -2      1758      2013      2602      3628
 -1     12013    3    0    1
 -2      2013      1758      3416      3628
 -1     12014    3    0    1
 -2      3280      3279      3428      3760
 -1     12015    3    0    1
 -2      2033      3279      3280      3760
 -1     12016    3    0    1
 -2      2050       163      3550      3851
 -1     12017    3    0    1
 -2      3474      1585      3476      3626
 -1     12018    3    0    1
 -2      3874      3882      3646      3921
 -1     12019    3    0    1
 -2      3532      1846      3814      3926
 -1     12020    3    0    1
 -2       168      1492      3852      3917
 -1     12021    3    0    1
 -2       550       929      2869      3850
 -1     12022    3    0    1
 -2      3218      2390      3701      3850
 -1     12023    3    0    1
 -2       406      1007      3845      3895
 -1     12024    3    0    1
 -2      2518      2522      3843      3895
 -1     12025    3    0    1
 -2      1951       697      3197      3478
 -1     12026    3    0    1
 -2      2390      3225      3227      3850
 -1     12027    3    0    1
 -2      2115      2391       910      3457
 -1     12028    3    0    1
 -2      3701      1716      3836      3850
 -1     12029    3    0    1
 -2      3309       983      1594      3777
 -1     12030    3    0    1
 -2       703       662      3321      3777
 -1     12031    3    0    1
 -2      1891      2142      3122      3521
 -1     12032    3    0    1
 -2       529      1141      3373      3458
 -1     12033    3    0    1
 -2      3349      3353      3354      3761
 -1     12034    3    0    1
 -2       396      3353      3749      3761
 -1     12035    3    0    1
 -2       396      1512      3353      3761
 -1     12036    3    0    1
 -2       634       396      3749      3761
 -1     12037    3    0    1
 -2       411      2419      2887      3786
 -1     12038    3    0    1
 -2      2887      2886      3716      3786
 -1     12039    3    0    1
 -2      2419      2886      2887      3786
 -1     12040    3    0    1
 -2      1512      1197      1616      3761
 -1     12041    3    0    1
 -2       130        31      1616      3761
 -1     12042    3    0    1
 -2       634      1197      1512      3761
 -1     12043    3    0    1
 -2      1197       130      1616      3761
 -1     12044    3    0    1
 -2       396       634      1512      3761
 -1     12045    3    0    1
 -2      2517      2415      2529      3762
 -1     12046    3    0    1
 -2       366      2415       995      3762
 -1     12047    3    0    1
 -2       366       995      3380      3762
 -1     12048    3    0    1
 -2      3380      2517      3753      3762
 -1     12049    3    0    1
 -2      1294       416      2895      3896
 -1     12050    3    0    1
 -2      3451      2461      3786      3896
 -1     12051    3    0    1
 -2       995      2517      3380      3762
 -1     12052    3    0    1
 -2       995      2415      2517      3762
 -1     12053    3    0    1
 -2      2517      2515      3753      3762
 -1     12054    3    0    1
 -2      2515      2517      2529      3762
 -1     12055    3    0    1
 -2      2889      2886      2895      3896
 -1     12056    3    0    1
 -2      3706      2041      3842      3664
 -1     12057    3    0    1
 -2      1816      1876      2085      3566
 -1     12058    3    0    1
 -2      2211      3380      3452      3762
 -1     12059    3    0    1
 -2       416      2889      2895      3896
 -1     12060    3    0    1
 -2      2138      2211      3452      3762
 -1     12061    3    0    1
 -2      2886      2889      3786      3896
 -1     12062    3    0    1
 -2      3535       363      3821      3861
 -1     12063    3    0    1
 -2      1205       901      3697      3584
 -1     12064    3    0    1
 -2      2131      1987       929      3473
 -1     12065    3    0    1
 -2      3276      2033      3785      3643
 -1     12066    3    0    1
 -2       406       998      2522      3895
 -1     12067    3    0    1
 -2      3813      2467      3859      3907
 -1     12068    3    0    1
 -2      1804      1766      3421      3675
 -1     12069    3    0    1
 -2      3337      1664      3492      3851
 -1     12070    3    0    1
 -2      2148      1664      3726      3851
 -1     12071    3    0    1
 -2      1754        53      3460      3522
 -1     12072    3    0    1
 -2      2127      3714      3490      3848
 -1     12073    3    0    1
 -2       970      1026      3718      3806
 -1     12074    3    0    1
 -2      2208      2714      3235      3764
 -1     12075    3    0    1
 -2      3123      2261      3390      3765
 -1     12076    3    0    1
 -2      1509       149      3830      3831
 -1     12077    3    0    1
 -2      2643       955      3797      3879
 -1     12078    3    0    1
 -2      2633      2641      2643      3879
 -1     12079    3    0    1
 -2      2184       504      1636      3765
 -1     12080    3    0    1
 -2       504      3123      3390      3765
 -1     12081    3    0    1
 -2      1301      2261      3687      3765
 -1     12082    3    0    1
 -2      2203      1301      3687      3765
 -1     12083    3    0    1
 -2      3123      2203      3687      3765
 -1     12084    3    0    1
 -2      2261      3123      3687      3765
 -1     12085    3    0    1
 -2      1265       701      3870      3669
 -1     12086    3    0    1
 -2      3400      3150      3768      3879
 -1     12087    3    0    1
 -2       648      1259      3890      3924
 -1     12088    3    0    1
 -2      2208      1636      3764      3765
 -1     12089    3    0    1
 -2      2208      2184      1636      3765
 -1     12090    3    0    1
 -2       504      2184      3123      3765
 -1     12091    3    0    1
 -2      3551      3701      3832      3894
 -1     12092    3    0    1
 -2      2203      2208      3463      3765
 -1     12093    3    0    1
 -2      2203      2184      2208      3765
 -1     12094    3    0    1
 -2      2184      2203      3123      3765
 -1     12095    3    0    1
 -2      1073      1546      3570      3870
 -1     12096    3    0    1
 -2      3565      3442      3864      3870
 -1     12097    3    0    1
 -2      1938      3565      3864      3870
 -1     12098    3    0    1
 -2      2098       541      2783      3799
 -1     12099    3    0    1
 -2      2115      2028      1470      3776
 -1     12100    3    0    1
 -2      3129      2613      3141      3776
 -1     12101    3    0    1
 -2      1267      1528      3836      3850
 -1     12102    3    0    1
 -2      1528      3218      3836      3850
 -1     12103    3    0    1
 -2       429      3808      3836      3917
 -1     12104    3    0    1
 -2      3696       936      3731      3833
 -1     12105    3    0    1
 -2      2619      3684      3747      3787
 -1     12106    3    0    1
 -2      2045      1150      3711      3844
 -1     12107    3    0    1
 -2       106      1137      3180      3515
 -1     12108    3    0    1
 -2      1711      2001      3180      3515
 -1     12109    3    0    1
 -2      2180      2182      3113      3548
 -1     12110    3    0    1
 -2      1007      2527      3762      3895
 -1     12111    3    0    1
 -2      3700      2153      3816      3821
 -1     12112    3    0    1
 -2      2390      3218      3225      3850
 -1     12113    3    0    1
 -2      3724      2127      3795      3862
 -1     12114    3    0    1
 -2      2097      3607      3882      3646
 -1     12115    3    0    1
 -2      1888       531      1367      3767
 -1     12116    3    0    1
 -2      3179      2199      3188      3767
 -1     12117    3    0    1
 -2      2783      3179      3188      3767
 -1     12118    3    0    1
 -2      2783      1888      3179      3767
 -1     12119    3    0    1
 -2       998       406      3805      3895
 -1     12120    3    0    1
 -2      3210      3214      3221      3832
 -1     12121    3    0    1
 -2      2869      2390      3227      3894
 -1     12122    3    0    1
 -2      3711      2867      3458      3802
 -1     12123    3    0    1
 -2       696      1864      2698      3802
 -1     12124    3    0    1
 -2      3563      3564      3570      3864
 -1     12125    3    0    1
 -2      3701      3207      3788      3832
 -1     12126    3    0    1
 -2      2471        70      3725      3768
 -1     12127    3    0    1
 -2       498      2804      3368      3838
 -1     12128    3    0    1
 -2      2804      2706      3368      3838
 -1     12129    3    0    1
 -2      1125      2850      2855      3768
 -1     12130    3    0    1
 -2      2855      2850      3710      3768
 -1     12131    3    0    1
 -2      3275      1493      3743      3838
 -1     12132    3    0    1
 -2       498      1493      3275      3838
 -1     12133    3    0    1
 -2      1493      3364      3743      3838
 -1     12134    3    0    1
 -2      2057      2189      3150      3768
 -1     12135    3    0    1
 -2      3150      2189      3400      3768
 -1     12136    3    0    1
 -2      2189      2057      2471      3768
 -1     12137    3    0    1
 -2      3231      1479      3428      3855
 -1     12138    3    0    1
 -2      3159       852      3763      3855
 -1     12139    3    0    1
 -2      3332      3331      3726      3623
 -1     12140    3    0    1
 -2      2492      3572      3632      3651
 -1     12141    3    0    1
 -2      2072      1960      3325      3798
 -1     12142    3    0    1
 -2      1548       180      3737      3798
 -1     12143    3    0    1
 -2      3728      1960      3446      3859
 -1     12144    3    0    1
 -2      1124       188      3719      3796
 -1     12145    3    0    1
 -2       924      2084      3470      3796
 -1     12146    3    0    1
 -2       527      1379      3814      3656
 -1     12147    3    0    1
 -2       380      1556      3446      3859
 -1     12148    3    0    1
 -2      3566      1872      3655      3671
 -1     12149    3    0    1
 -2      3019      2623      3695      3890
 -1     12150    3    0    1
 -2      1953      3264      3386      3770
 -1     12151    3    0    1
 -2       648      2463      2623      3890
 -1     12152    3    0    1
 -2      3264      2059      3386      3770
 -1     12153    3    0    1
 -2      3511      1928      3866      3890
 -1     12154    3    0    1
 -2        64      1549      3803      3670
 -1     12155    3    0    1
 -2      1372      3362      3719      3771
 -1     12156    3    0    1
 -2      1372      1158      3742      3771
 -1     12157    3    0    1
 -2      2147      3387      3742      3771
 -1     12158    3    0    1
 -2      2893      1286      3716      3775
 -1     12159    3    0    1
 -2      2045      2086      2089      3844
 -1     12160    3    0    1
 -2      3351      3349      3362      3771
 -1     12161    3    0    1
 -2      3362      3349      3719      3771
 -1     12162    3    0    1
 -2      3719      3349      3749      3771
 -1     12163    3    0    1
 -2       109      2409      3716      3775
 -1     12164    3    0    1
 -2      3349      3351      3355      3771
 -1     12165    3    0    1
 -2      3355      3351      3749      3771
 -1     12166    3    0    1
 -2      3349      3355      3749      3771
 -1     12167    3    0    1
 -2      3387      3378      3394      3771
 -1     12168    3    0    1
 -2      3378      1661      3394      3771
 -1     12169    3    0    1
 -2       188      1158      1372      3771
 -1     12170    3    0    1
 -2      2147      3378      3387      3771
 -1     12171    3    0    1
 -2       188       140      1158      3771
 -1     12172    3    0    1
 -2      1963      3381      3396      3582
 -1     12173    3    0    1
 -2      1996       669      1127      3472
 -1     12174    3    0    1
 -2       669      1996      2003      3472
 -1     12175    3    0    1
 -2      1872      1816      3566      3655
 -1     12176    3    0    1
 -2      1781      1721      2454      3524
 -1     12177    3    0    1
 -2      2081       670      2197      3584
 -1     12178    3    0    1
 -2      3701      1716      3513      3836
 -1     12179    3    0    1
 -2       706      1528      3701      3836
 -1     12180    3    0    1
 -2       245      1105      2678      3772
 -1     12181    3    0    1
 -2      2678      1105      3764      3772
 -1     12182    3    0    1
 -2      1443       667      3697      3584
 -1     12183    3    0    1
 -2       363      1032      3821      3861
 -1     12184    3    0    1
 -2       149      3518      3557      3830
 -1     12185    3    0    1
 -2      2121      2169      1181      3912
 -1     12186    3    0    1
 -2       152      1823      1894      3830
 -1     12187    3    0    1
 -2      1681      2774      3557      3830
 -1     12188    3    0    1
 -2      2755       530      3443      3892
 -1     12189    3    0    1
 -2      2208      2714      3764      3772
 -1     12190    3    0    1
 -2      1105      2208      3764      3772
 -1     12191    3    0    1
 -2      2208      1105      3177      3772
 -1     12192    3    0    1
 -2      2714      2170      3235      3772
 -1     12193    3    0    1
 -2      1101      3567      3873      3912
 -1     12194    3    0    1
 -2      3750      2200      3577      3909
 -1     12195    3    0    1
 -2      2025      2714      3177      3772
 -1     12196    3    0    1
 -2       245      1105      3772      3638
 -1     12197    3    0    1
 -2      2714      2025      3449      3772
 -1     12198    3    0    1
 -2      2714      2208      3177      3772
 -1     12199    3    0    1
 -2      3409      2016      1579      3474
 -1     12200    3    0    1
 -2      2016      3409      1579      2328
 -1     12201    3    0    1
 -2      1283      3403      3475      3773
 -1     12202    3    0    1
 -2      1856      1385      3475      3773
 -1     12203    3    0    1
 -2      1283        59      3403      3773
 -1     12204    3    0    1
 -2      1968      1917      3175      3773
 -1     12205    3    0    1
 -2      2009      1789      3801      3680
 -1     12206    3    0    1
 -2      2147      1158      3723      3774
 -1     12207    3    0    1
 -2      2344      3083      3085      3823
 -1     12208    3    0    1
 -2      2534       555      3689      3823
 -1     12209    3    0    1
 -2      2534       389      1067      3823
 -1     12210    3    0    1
 -2      3719       188      3771      3774
 -1     12211    3    0    1
 -2      3378      3719      3771      3774
 -1     12212    3    0    1
 -2      3378      2277      3719      3774
 -1     12213    3    0    1
 -2      1158      2147      3742      3774
 -1     12214    3    0    1
 -2      3742      2147      3771      3774
 -1     12215    3    0    1
 -2      1158      3742      3771      3774
 -1     12216    3    0    1
 -2      2774      1833      3557      3830
 -1     12217    3    0    1
 -2      2109      2998      3198      3774
 -1     12218    3    0    1
 -2       849      1509      3830      3831
 -1     12219    3    0    1
 -2      1938      3442      3565      3870
 -1     12220    3    0    1
 -2      3144      2613      3776      3849
 -1     12221    3    0    1
 -2      1823       152      3557      3830
 -1     12222    3    0    1
 -2      1974      1988      3341      3640
 -1     12223    3    0    1
 -2      2147      3198      3378      3774
 -1     12224    3    0    1
 -2      1988      1744      3341      3640
 -1     12225    3    0    1
 -2        72        49      3694      3909
 -1     12226    3    0    1
 -2      1744      1929      3341      3640
 -1     12227    3    0    1
 -2      2344      3085      3689      3823
 -1     12228    3    0    1
 -2      3198      2277      3378      3774
 -1     12229    3    0    1
 -2      3397      3396      3740      3527
 -1     12230    3    0    1
 -2      3347      1061      3407      3508
 -1     12231    3    0    1
 -2      1286      1291      1455      3775
 -1     12232    3    0    1
 -2      2006      3514      3842      3914
 -1     12233    3    0    1
 -2      1946      2409      3466      3775
 -1     12234    3    0    1
 -2       109      1286      1455      3775
 -1     12235    3    0    1
 -2       103       109      1455      3775
 -1     12236    3    0    1
 -2      2028      3374      3383      3776
 -1     12237    3    0    1
 -2      3374      1895      3383      3776
 -1     12238    3    0    1
 -2      2028      2115      3374      3776
 -1     12239    3    0    1
 -2      3701      1520      3836      3917
 -1     12240    3    0    1
 -2      3513      3529      3809      3917
 -1     12241    3    0    1
 -2       983       703       987      3777
 -1     12242    3    0    1
 -2       662       703       983      3777
 -1     12243    3    0    1
 -2      2221      3322      3334      3777
 -1     12244    3    0    1
 -2       183        66      1594      3777
 -1     12245    3    0    1
 -2      2729       697      3478      3778
 -1     12246    3    0    1
 -2      1135      1754      3478      3778
 -1     12247    3    0    1
 -2      2719      2700      2735      3778
 -1     12248    3    0    1
 -2      2735      2700      3703      3778
 -1     12249    3    0    1
 -2      1145      2735      3703      3778
 -1     12250    3    0    1
 -2      1145      2732      2735      3778
 -1     12251    3    0    1
 -2      2700      2729      3703      3778
 -1     12252    3    0    1
 -2      2700      2719      2729      3778
 -1     12253    3    0    1
 -2      3709      1751      3432      3847
 -1     12254    3    0    1
 -2      1751      3151      3433      3847
 -1     12255    3    0    1
 -2      3091      1982      3478      3778
 -1     12256    3    0    1
 -2      2869      3227      3850      3894
 -1     12257    3    0    1
 -2       541      1187      3767      3799
 -1     12258    3    0    1
 -2      2018      3175      3702      3532
 -1     12259    3    0    1
 -2      1754      3091      3478      3778
 -1     12260    3    0    1
 -2      1297      2899      2910      3780
 -1     12261    3    0    1
 -2      2189      3768      3837      3922
 -1     12262    3    0    1
 -2      1303      1297      2910      3780
 -1     12263    3    0    1
 -2      2066       694      3481      3780
 -1     12264    3    0    1
 -2      2899      2903      2908      3780
 -1     12265    3    0    1
 -2      2908      2903      3779      3780
 -1     12266    3    0    1
 -2      2899      2897      2903      3780
 -1     12267    3    0    1
 -2      2903      2897      3687      3780
 -1     12268    3    0    1
 -2       694      2066      3687      3780
 -1     12269    3    0    1
 -2      1297       694      2899      3780
 -1     12270    3    0    1
 -2      2897       694      3687      3780
 -1     12271    3    0    1
 -2       694      2897      2899      3780
 -1     12272    3    0    1
 -2      2066      3230      3461      3780
 -1     12273    3    0    1
 -2      3230      2066      3481      3780
 -1     12274    3    0    1
 -2      1993      2055      2057      3484
 -1     12275    3    0    1
 -2      2057      2055      3118      3484
 -1     12276    3    0    1
 -2      2055      2084      2181      3484
 -1     12277    3    0    1
 -2      2181      2084      3174      3484
 -1     12278    3    0    1
 -2      3086      3007      3718      3544
 -1     12279    3    0    1
 -2       980       156      3715      3906
 -1     12280    3    0    1
 -2      3118      2055      3174      3484
 -1     12281    3    0    1
 -2      3271      2175      3317      3884
 -1     12282    3    0    1
 -2      3279      3760      3763      3855
 -1     12283    3    0    1
 -2      2055      2181      3174      3484
 -1     12284    3    0    1
 -2      3048       651      3056      3892
 -1     12285    3    0    1
 -2       853      1416      3709      3781
 -1     12286    3    0    1
 -2      1751      3709      3432      3781
 -1     12287    3    0    1
 -2      1941      1751      3432      3781
 -1     12288    3    0    1
 -2       184      1017      3718      3614
 -1     12289    3    0    1
 -2      1861      1941      3432      3781
 -1     12290    3    0    1
 -2      1941      1861      2140      3781
 -1     12291    3    0    1
 -2      1941      2107      3126      3781
 -1     12292    3    0    1
 -2       853      1418      3412      3781
 -1     12293    3    0    1
 -2       182      1416      3412      3781
 -1     12294    3    0    1
 -2      2140       182      3412      3781
 -1     12295    3    0    1
 -2      1751      1941      3126      3781
 -1     12296    3    0    1
 -2      3276      3232      3785      3644
 -1     12297    3    0    1
 -2      1416       853      3412      3781
 -1     12298    3    0    1
 -2       182      2140      3432      3781
 -1     12299    3    0    1
 -2      2140      1861      3432      3781
 -1     12300    3    0    1
 -2       659      1421      3444      3782
 -1     12301    3    0    1
 -2       405      3168      3171      3881
 -1     12302    3    0    1
 -2      1425       659      3444      3782
 -1     12303    3    0    1
 -2      2052      1835      2062      3487
 -1     12304    3    0    1
 -2      2062      1835      3482      3487
 -1     12305    3    0    1
 -2      3268      3087      3415      3910
 -1     12306    3    0    1
 -2       849      1015      3203      3831
 -1     12307    3    0    1
 -2      2757       685      2764      3807
 -1     12308    3    0    1
 -2       149      3518      3830      3831
 -1     12309    3    0    1
 -2       149      1813      3518      3831
 -1     12310    3    0    1
 -2       439       978      3415      3783
 -1     12311    3    0    1
 -2       439      3415      3417      3783
 -1     12312    3    0    1
 -2      1808       439      3417      3783
 -1     12313    3    0    1
 -2      2439      2479      2490      3783
 -1     12314    3    0    1
 -2      2490      2479      3748      3783
 -1     12315    3    0    1
 -2      2479       439      3748      3783
 -1     12316    3    0    1
 -2       439      2479      2488      3783
 -1     12317    3    0    1
 -2       439      1808      3748      3783
 -1     12318    3    0    1
 -2       392      2145      3415      3783
 -1     12319    3    0    1
 -2      2145       392      1558      3783
 -1     12320    3    0    1
 -2      2145      1558      3376      3783
 -1     12321    3    0    1
 -2      2285      2455      3376      3783
 -1     12322    3    0    1
 -2      2455      2285      1558      3783
 -1     12323    3    0    1
 -2      1558      2285      3376      3783
 -1     12324    3    0    1
 -2      3376      3413      3417      3783
 -1     12325    3    0    1
 -2      3413      1808      3417      3783
 -1     12326    3    0    1
 -2      2145      3376      3417      3783
 -1     12327    3    0    1
 -2      3415      2145      3417      3783
 -1     12328    3    0    1
 -2      3788      3440      3832      3885
 -1     12329    3    0    1
 -2      2010      3271      3317      3784
 -1     12330    3    0    1
 -2      1978      3683      3724      3795
 -1     12331    3    0    1
 -2      3326      2194      3736      3612
 -1     12332    3    0    1
 -2      1530        69      3788      3885
 -1     12333    3    0    1
 -2      2102      2028      3439      3658
 -1     12334    3    0    1
 -2       967      3788      3832      3885
 -1     12335    3    0    1
 -2      1239       187      3292      3489
 -1     12336    3    0    1
 -2       187      2038      3292      3489
 -1     12337    3    0    1
 -2      3293      2078      3317      3489
 -1     12338    3    0    1
 -2      2078       523      3317      3489
 -1     12339    3    0    1
 -2      3809       168      3852      3917
 -1     12340    3    0    1
 -2       404      2134      3401      3491
 -1     12341    3    0    1
 -2      1999       367      2165      3491
 -1     12342    3    0    1
 -2       404      2165      1535      3491
 -1     12343    3    0    1
 -2      2165       367      1535      3491
 -1     12344    3    0    1
 -2      2165       404      3401      3491
 -1     12345    3    0    1
 -2      1488      1185      3785      3644
 -1     12346    3    0    1
 -2      2416       520      3276      3785
 -1     12347    3    0    1
 -2      1969      3002      3685      3626
 -1     12348    3    0    1
 -2       939       400      2602      3628
 -1     12349    3    0    1
 -2      3002      3282      3346      3626
 -1     12350    3    0    1
 -2        69      3788      3885      3901
 -1     12351    3    0    1
 -2      3187        43      3763      3900
 -1     12352    3    0    1
 -2       551      2119      1564      3923
 -1     12353    3    0    1
 -2      3435      3788      3889      3901
 -1     12354    3    0    1
 -2      3788      3440      3885      3901
 -1     12355    3    0    1
 -2      3435      3205      3788      3901
 -1     12356    3    0    1
 -2      3232      3414      3448      3899
 -1     12357    3    0    2
 -2      1561      2955      2954      2292
 -1     12358    3    0    1
 -2       161      3750      3506      3901
 -1     12359    3    0    1
 -2      2223      3435      3889      3901
 -1     12360    3    0    1
 -2      2599      3205      2223      3901
 -1     12361    3    0    1
 -2      3276      2033      3411      3785
 -1     12362    3    0    1
 -2        43      1934      3448      3899
 -1     12363    3    0    1
 -2      1477      3158      3159      3900
 -1     12364    3    0    1
 -2      1792       520      3414      3644
 -1     12365    3    0    1
 -2       687      1488      3899      3644
 -1     12366    3    0    1
 -2      3279      3187      3763      3900
 -1     12367    3    0    1
 -2      3205      3440      3788      3901
 -1     12368    3    0    1
 -2       634      2797      3682      3495
 -1     12369    3    0    1
 -2      2132       634      3682      3495
 -1     12370    3    0    1
 -2      2802      3379      3749      3495
 -1     12371    3    0    1
 -2      3379       396      3749      3495
 -1     12372    3    0    1
 -2       396       634      3749      3495
 -1     12373    3    0    1
 -2      1223       396      3379      3495
 -1     12374    3    0    1
 -2      3749       634      3761      3495
 -1     12375    3    0    1
 -2      2802      3749      3761      3495
 -1     12376    3    0    1
 -2       634      2132      2802      3495
 -1     12377    3    0    1
 -2       634      2802      3761      3495
 -1     12378    3    0    1
 -2       634       396      1201      3495
 -1     12379    3    0    1
 -2      1201       396      1223      3495
 -1     12380    3    0    1
 -2      1099      3772      3637      3638
 -1     12381    3    0    1
 -2      3335      3812      3857      3635
 -1     12382    3    0    1
 -2      3812      3192      3610      3635
 -1     12383    3    0    1
 -2      1946      3451      3488      3786
 -1     12384    3    0    1
 -2      2459       281      1191      3608
 -1     12385    3    0    1
 -2      1922      1691      2067      3498
 -1     12386    3    0    1
 -2      1920      1922      2067      3498
 -1     12387    3    0    1
 -2      1670      2410      3717      3501
 -1     12388    3    0    1
 -2      1902      1938      2064      3563
 -1     12389    3    0    1
 -2      2624      3086      3375      3833
 -1     12390    3    0    1
 -2      2139      3741      3561      3832
 -1     12391    3    0    1
 -2      1976      3088      3745      3851
 -1     12392    3    0    1
 -2      3689      3083      3823      3886
 -1     12393    3    0    1
 -2      3741      3832      3631      3886
 -1     12394    3    0    1
 -2       638      1099      3829      3637
 -1     12395    3    0    1
 -2      3815       185      3618      3926
 -1     12396    3    0    1
 -2      3765      3463      3766      3878
 -1     12397    3    0    1
 -2       936      3345      3731      3833
 -1     12398    3    0    1
 -2      3375      3086      3718      3833
 -1     12399    3    0    1
 -2       434      3067      1432      3886
 -1     12400    3    0    1
 -2      3067      3066      3741      3886
 -1     12401    3    0    1
 -2      2060      3115      3823      3886
 -1     12402    3    0    1
 -2      3832      3555      3863      3886
 -1     12403    3    0    1
 -2      3205      3194      3750      3577
 -1     12404    3    0    1
 -2      2092      3343      3727      3665
 -1     12405    3    0    1
 -2      3066      3078      3689      3886
 -1     12406    3    0    1
 -2      3066      3689      3741      3886
 -1     12407    3    0    1
 -2      3083      1437      3823      3886
 -1     12408    3    0    1
 -2      3285      3435      3440      3788
 -1     12409    3    0    1
 -2      3435      3205      3440      3788
 -1     12410    3    0    1
 -2      3285      3701      3788      3832
 -1     12411    3    0    1
 -2      1766      1804      2063      3621
 -1     12412    3    0    1
 -2      1457       103      3686      3645
 -1     12413    3    0    1
 -2      2213      3113      3548      3645
 -1     12414    3    0    1
 -2      1944      2410      3498      3791
 -1     12415    3    0    1
 -2      2811      1670      3284      3789
 -1     12416    3    0    1
 -2      1920       136      3498      3791
 -1     12417    3    0    1
 -2      2178      1670      2811      3789
 -1     12418    3    0    1
 -2       136      3497      3498      3791
 -1     12419    3    0    1
 -2      1220      1213      3751      3791
 -1     12420    3    0    1
 -2       136      1222      3500      3791
 -1     12421    3    0    1
 -2      1222      1213      3500      3791
 -1     12422    3    0    1
 -2      1213      3499      3500      3791
 -1     12423    3    0    1
 -2      1213      1220      3499      3791
 -1     12424    3    0    1
 -2      1920      2068      2827      3502
 -1     12425    3    0    1
 -2      1295        52      3779      3503
 -1     12426    3    0    1
 -2      1773        44      2827      3502
 -1     12427    3    0    1
 -2      2822      2823      3751      3792
 -1     12428    3    0    1
 -2       913      2822      3751      3792
 -1     12429    3    0    1
 -2      2822       913      2823      3792
 -1     12430    3    0    1
 -2      2818      1208      3717      3792
 -1     12431    3    0    1
 -2       645      1246      3800      3554
 -1     12432    3    0    1
 -2      2410      3717      3501      3792
 -1     12433    3    0    1
 -2      3717      2410      3751      3792
 -1     12434    3    0    1
 -2      2818      3717      3751      3792
 -1     12435    3    0    1
 -2      2410      3501      3502      3792
 -1     12436    3    0    1
 -2      3501      2118      3502      3792
 -1     12437    3    0    1
 -2      1920      2410      3502      3792
 -1     12438    3    0    1
 -2        44       913      2827      3792
 -1     12439    3    0    1
 -2      1910      2997      3779      3503
 -1     12440    3    0    1
 -2      1910      2124      2205      3503
 -1     12441    3    0    1
 -2       691      2842      3784      3903
 -1     12442    3    0    1
 -2      1967      1795      2937      3504
 -1     12443    3    0    1
 -2      1243      1241      2838      3902
 -1     12444    3    0    1
 -2      3467      3420      3479      3801
 -1     12445    3    0    1
 -2      2009      3420      3467      3801
 -1     12446    3    0    1
 -2      2001      2090      3793      3519
 -1     12447    3    0    1
 -2      3794      2019      3800      3903
 -1     12448    3    0    1
 -2      2842      2831      2845      3903
 -1     12449    3    0    1
 -2      2019      2001      3504      3793
 -1     12450    3    0    1
 -2      1241      1243      3505      3793
 -1     12451    3    0    1
 -2       190       932      3769      3906
 -1     12452    3    0    1
 -2      1243       112      3505      3793
 -1     12453    3    0    1
 -2      3236      2803      3769      3906
 -1     12454    3    0    1
 -2      2937      3504      3793      3902
 -1     12455    3    0    1
 -2      2803      1781      3581      3906
 -1     12456    3    0    1
 -2      2001      1967      3504      3793
 -1     12457    3    0    1
 -2      1795      1746      3505      3793
 -1     12458    3    0    1
 -2       112      1795      3505      3793
 -1     12459    3    0    1
 -2      1795       112      2937      3793
 -1     12460    3    0    1
 -2      3064      1978      3724      3795
 -1     12461    3    0    1
 -2      3504      2019      3793      3794
 -1     12462    3    0    1
 -2      2837      1239      3422      3903
 -1     12463    3    0    1
 -2      1650      3571      3630       170
 -1     12464    3    0    1
 -2      1651        67      3630      3904
 -1     12465    3    0    1
 -2      3615      1677      3630      3904
 -1     12466    3    0    1
 -2      3422      3794      3902      3903
 -1     12467    3    0    1
 -2      2019      3271      3800      3903
 -1     12468    3    0    1
 -2      3784      3271      3884      3903
 -1     12469    3    0    1
 -2       691      2836      2842      3903
 -1     12470    3    0    1
 -2      3271      3784      3800      3903
 -1     12471    3    0    1
 -2      1890      1263      3864      3907
 -1     12472    3    0    1
 -2      1650      1651      3630      3904
 -1     12473    3    0    1
 -2      1881      1765      1896      3677
 -1     12474    3    0    1
 -2      1067      3228      3229      3919
 -1     12475    3    0    1
 -2      3422      2019      3504      3794
 -1     12476    3    0    1
 -2      1677      3571      3630      3904
 -1     12477    3    0    1
 -2       691      3784      3884      3903
 -1     12478    3    0    1
 -2      1882      1838      3549      3853
 -1     12479    3    0    1
 -2      3388       681      3468      3795
 -1     12480    3    0    1
 -2      1915      2709      3233      3509
 -1     12481    3    0    1
 -2      1483       852      3763      3509
 -1     12482    3    0    1
 -2      2709      1915      3763      3509
 -1     12483    3    0    1
 -2      3704       962      3737      3798
 -1     12484    3    0    1
 -2      3325      1960      3728      3798
 -1     12485    3    0    1
 -2      1960       420      3728      3798
 -1     12486    3    0    1
 -2       420      1960      3408      3798
 -1     12487    3    0    1
 -2      3064      2127      3468      3795
 -1     12488    3    0    1
 -2      2127      3388      3468      3795
 -1     12489    3    0    1
 -2      1978      3064      3468      3795
 -1     12490    3    0    1
 -2       132      1471      3817      3853
 -1     12491    3    0    1
 -2      2193       502      1473      3849
 -1     12492    3    0    1
 -2       502       910      2748      3849
 -1     12493    3    0    1
 -2      2058      2062      2193      3849
 -1     12494    3    0    1
 -2      1838      1882      1958      3853
 -1     12495    3    0    1
 -2      2355      2194      3326      3612
 -1     12496    3    0    1
 -2      3713      2128      3754      3812
 -1     12497    3    0    1
 -2      2949      3809       959      3812
 -1     12498    3    0    1
 -2      1410      1424      3770      3636
 -1     12499    3    0    1
 -2      3809      2949       959      2940
 -1     12500    3    0    1
 -2      2949      1357      3754      3812
 -1     12501    3    0    1
 -2      2949      3754      3809      3812
 -1     12502    3    0    1
 -2      1355       959      3809      3812
 -1     12503    3    0    1
 -2      3726       881      3851      3650
 -1     12504    3    0    1
 -2      2096      2190      1579      3537
 -1     12505    3    0    1
 -2      2467      1132      3249      3859
 -1     12506    3    0    1
 -2      3249      1132      3728      3859
 -1     12507    3    0    1
 -2      1355       959      3812      3610
 -1     12508    3    0    1
 -2      2633      2636      3683      3797
 -1     12509    3    0    1
 -2      2636      2633      2643      3797
 -1     12510    3    0    1
 -2      3323      3282      3782      3880
 -1     12511    3    0    1
 -2      2131       929      1203      3916
 -1     12512    3    0    1
 -2      2492      3834      3572      3651
 -1     12513    3    0    1
 -2       183      3738      3632      3651
 -1     12514    3    0    1
 -2      3233      1915      3509      3855
 -1     12515    3    0    1
 -2      1960       380      3446      3859
 -1     12516    3    0    1
 -2      1067      2060      3823      3919
 -1     12517    3    0    1
 -2       683      3683      3797      3795
 -1     12518    3    0    1
 -2      3763      1483      3509      3855
 -1     12519    3    0    1
 -2      3279      3428      3760      3855
 -1     12520    3    0    1
 -2       929      3473      3850      3916
 -1     12521    3    0    1
 -2      2191      2077      3233      3855
 -1     12522    3    0    1
 -2      2077      1915      3233      3855
 -1     12523    3    0    1
 -2      2616      3453      3468      3797
 -1     12524    3    0    1
 -2      1928      3536      3866      3924
 -1     12525    3    0    1
 -2      3453      1978      3468      3797
 -1     12526    3    0    1
 -2      2467      3728      3813      3859
 -1     12527    3    0    1
 -2      3428      1479      3760      3855
 -1     12528    3    0    1
 -2      2063      1766      3621      3888
 -1     12529    3    0    1
 -2      2281       380      2472      3859
 -1     12530    3    0    1
 -2      2467       380      1132      3859
 -1     12531    3    0    1
 -2      2046      1812      2061      3574
 -1     12532    3    0    1
 -2      1672      1828      2205      3576
 -1     12533    3    0    1
 -2       118      1303      3727      3898
 -1     12534    3    0    1
 -2      2127      3064      3714      3862
 -1     12535    3    0    1
 -2      3483      1881      3658      3677
 -1     12536    3    0    1
 -2      1927      2144      3317      3573
 -1     12537    3    0    1
 -2       694      3181      3201      3898
 -1     12538    3    0    1
 -2       556      3318      1996      1774
 -1     12539    3    0    1
 -2      3371      3560      3916       386
 -1     12540    3    0    1
 -2        52      2124      2205      3576
 -1     12541    3    0    1
 -2       384      2098      2783      3799
 -1     12542    3    0    1
 -2      3124      3188      3690      3799
 -1     12543    3    0    1
 -2       425      3799      3652      3653
 -1     12544    3    0    1
 -2      3124      3690      3754      3799
 -1     12545    3    0    1
 -2       995      2868      3380      3905
 -1     12546    3    0    1
 -2      3273      3722      3804      3905
 -1     12547    3    0    1
 -2      3512       402      3804      3905
 -1     12548    3    0    1
 -2      3124      2783      3188      3799
 -1     12549    3    0    1
 -2      2845      2279      3784      3800
 -1     12550    3    0    1
 -2      2279      1069      2776      3800
 -1     12551    3    0    1
 -2      2279      2776      3784      3800
 -1     12552    3    0    1
 -2      2868      2154      3753      3804
 -1     12553    3    0    1
 -2      1069       522      2776      3800
 -1     12554    3    0    1
 -2      2776      2010      3784      3800
 -1     12555    3    0    1
 -2      3784      2010      3507      3800
 -1     12556    3    0    1
 -2       156      1806      1893      3654
 -1     12557    3    0    1
 -2       999       402      3684      3804
 -1     12558    3    0    1
 -2      2010       522      3507      3800
 -1     12559    3    0    1
 -2       522      2010      2776      3800
 -1     12560    3    0    1
 -2      2912      2019      3507      3800
 -1     12561    3    0    1
 -2      2019      3271      3507      3800
 -1     12562    3    0    1
 -2      1153       529      3373      3802
 -1     12563    3    0    1
 -2      1864      2215      3458      3802
 -1     12564    3    0    1
 -2      1151      1153      3373      3802
 -1     12565    3    0    1
 -2      2867      1864      3458      3802
 -1     12566    3    0    1
 -2       696      1151      3373      3802
 -1     12567    3    0    1
 -2      2156       696      3373      3802
 -1     12568    3    0    1
 -2      1551      1549      3257      3803
 -1     12569    3    0    1
 -2      3420      3479      3801      3803
 -1     12570    3    0    1
 -2      3737      3420      3801      3803
 -1     12571    3    0    1
 -2      3420      3737      3479      3803
 -1     12572    3    0    1
 -2       878      3257      3704      3803
 -1     12573    3    0    1
 -2       878      1551      3257      3803
 -1     12574    3    0    1
 -2       878      3737      3801      3803
 -1     12575    3    0    1
 -2      1551       878      3801      3803
 -1     12576    3    0    1
 -2       878      3704      3737      3803
 -1     12577    3    0    1
 -2      1902      3467      3479      3803
 -1     12578    3    0    1
 -2      2076       527      3814      3656
 -1     12579    3    0    1
 -2      3260      1902      3479      3803
 -1     12580    3    0    1
 -2        55      2332      3004      3834
 -1     12581    3    0    1
 -2      1711      2001      2912      3519
 -1     12582    3    0    1
 -2      2001      2019      2912      3519
 -1     12583    3    0    1
 -2      2154      2868      3273      3804
 -1     12584    3    0    1
 -2       402      1044      3512      3804
 -1     12585    3    0    1
 -2      1893      1843      3496      3654
 -1     12586    3    0    1
 -2      3266      2154      3273      3804
 -1     12587    3    0    1
 -2       402       999      1044      3804
 -1     12588    3    0    1
 -2       999       966      1044      3804
 -1     12589    3    0    1
 -2      1317       689      2918      3805
 -1     12590    3    0    1
 -2      3692      3199      3723      3805
 -1     12591    3    0    1
 -2       689      3692      3723      3805
 -1     12592    3    0    1
 -2      2918       689      3723      3805
 -1     12593    3    0    1
 -2      2867      2045      3711      3844
 -1     12594    3    0    1
 -2       375      3703      3711      3844
 -1     12595    3    0    1
 -2      1137       106      2728      3846
 -1     12596    3    0    1
 -2      3842      1115      3914      3915
 -1     12597    3    0    1
 -2      3716      1946      3786      3896
 -1     12598    3    0    1
 -2      2150      2934      3202      3805
 -1     12599    3    0    1
 -2       998      1317      1330      3805
 -1     12600    3    0    1
 -2      3199      2150      3202      3805
 -1     12601    3    0    1
 -2       142       998      1330      3805
 -1     12602    3    0    1
 -2      2934      2150      3384      3805
 -1     12603    3    0    1
 -2        47       142      1330      3805
 -1     12604    3    0    1
 -2       998       689      1317      3805
 -1     12605    3    0    1
 -2       406       689       998      3805
 -1     12606    3    0    1
 -2       708      2091      2106      3523
 -1     12607    3    0    1
 -2      1986      1996      1127      3523
 -1     12608    3    0    1
 -2      1127      1996      3472      3523
 -1     12609    3    0    1
 -2      2091      1331      1595      3523
 -1     12610    3    0    1
 -2      1738      2091      1595      3523
 -1     12611    3    0    1
 -2      1738      1595      3472      3523
 -1     12612    3    0    1
 -2      1331       286      3472      3523
 -1     12613    3    0    1
 -2       286      1127      3472      3523
 -1     12614    3    0    1
 -2      1595      1331      3472      3523
 -1     12615    3    0    1
 -2      1893      3715      3654      3906
 -1     12616    3    0    1
 -2      1819      3856      3904      3655
 -1     12617    3    0    1
 -2      2127      3388      3795      3848
 -1     12618    3    0    1
 -2      3151      3200      3721      3525
 -1     12619    3    0    1
 -2      3407      3490      3829      3848
 -1     12620    3    0    1
 -2      2147      3198      3774      3526
 -1     12621    3    0    1
 -2      3536      3278      3866      3920
 -1     12622    3    0    1
 -2      3439      2102      3542      3826
 -1     12623    3    0    1
 -2      3717      3501      3792      3826
 -1     12624    3    0    1
 -2      2019      3793      3794      3554
 -1     12625    3    0    1
 -2      1208      3717      3792      3826
 -1     12626    3    0    1
 -2      1169      1064      3740      3527
 -1     12627    3    0    1
 -2      3338      3342      3819      3867
 -1     12628    3    0    1
 -2      1167      2450      2764      3807
 -1     12629    3    0    1
 -2       506      1167      3744      3807
 -1     12630    3    0    1
 -2      3423       506      3744      3807
 -1     12631    3    0    1
 -2       651      3721      3525      3892
 -1     12632    3    0    1
 -2      1183       651      3151      3892
 -1     12633    3    0    1
 -2      3441      2136      3752      3807
 -1     12634    3    0    1
 -2      2036       530      1183      3892
 -1     12635    3    0    1
 -2       530      2036      3443      3892
 -1     12636    3    0    1
 -2      2755      2618      1183      3892
 -1     12637    3    0    1
 -2      2755      3443      3810      3892
 -1     12638    3    0    1
 -2      3699      3046      3810      3892
 -1     12639    3    0    1
 -2      2450      2469      3423      3807
 -1     12640    3    0    1
 -2      2469      2450      1167      3807
 -1     12641    3    0    1
 -2      1167       506      2469      3807
 -1     12642    3    0    1
 -2      2469       506      3423      3807
 -1     12643    3    0    1
 -2      2450      3423      3441      3807
 -1     12644    3    0    1
 -2      2450      3441      3752      3807
 -1     12645    3    0    1
 -2      3048      3699      3721      3892
 -1     12646    3    0    1
 -2      3048      3046      3699      3892
 -1     12647    3    0    1
 -2      1183       530      2755      3892
 -1     12648    3    0    1
 -2       651      3048      3721      3892
 -1     12649    3    0    1
 -2       651      1183      3056      3892
 -1     12650    3    0    1
 -2      3832      1522      3863      3894
 -1     12651    3    0    1
 -2      3151       651      3525      3892
 -1     12652    3    0    1
 -2      1924      3193      3438      3807
 -1     12653    3    0    1
 -2      3443      3200      3530      3892
 -1     12654    3    0    1
 -2      3438      2136      3441      3807
 -1     12655    3    0    1
 -2      1013      2869      2255      3894
 -1     12656    3    0    1
 -2      3423      3438      3441      3807
 -1     12657    3    0    1
 -2      3046      2618      3057      3810
 -1     12658    3    0    1
 -2      2940      2939      2942      3808
 -1     12659    3    0    1
 -2      3124      2939      3754      3808
 -1     12660    3    0    1
 -2      3124      3754      3529      3808
 -1     12661    3    0    1
 -2      2939      2940      3754      3808
 -1     12662    3    0    1
 -2      3754      2940      3529      3808
 -1     12663    3    0    1
 -2      3371      2160      3450      3808
 -1     12664    3    0    1
 -2      2085      1872      3566      3615
 -1     12665    3    0    1
 -2      1968      3695      3649      3908
 -1     12666    3    0    1
 -2      2160      3124      3529      3808
 -1     12667    3    0    1
 -2      3513      2160      3529      3808
 -1     12668    3    0    1
 -2      1493       498      3368      3838
 -1     12669    3    0    1
 -2      1872      1816      2085      3566
 -1     12670    3    0    1
 -2      2207      3513      3529      3809
 -1     12671    3    0    1
 -2      1073      3247      1546      3813
 -1     12672    3    0    1
 -2      2060      1067      3229      3919
 -1     12673    3    0    1
 -2      2671      2283      2674      3860
 -1     12674    3    0    1
 -2      3256      2467      3813      3907
 -1     12675    3    0    1
 -2      3194      2081      3694      3577
 -1     12676    3    0    1
 -2       190       976      3558      3910
 -1     12677    3    0    1
 -2      2018      3517      3815      3893
 -1     12678    3    0    1
 -2       185      3517      3618      3893
 -1     12679    3    0    1
 -2      1375      1113      3815      3893
 -1     12680    3    0    1
 -2      1810      3583      3618      3893
 -1     12681    3    0    1
 -2        59      3191      3702      3893
 -1     12682    3    0    1
 -2      2022        59      3583      3893
 -1     12683    3    0    1
 -2      3264      1995      3530      3810
 -1     12684    3    0    1
 -2      1995      3443      3530      3810
 -1     12685    3    0    1
 -2      1479      3231      3280      3881
 -1     12686    3    0    1
 -2      3153      3168      3760      3881
 -1     12687    3    0    1
 -2      1163      2767      3693      3891
 -1     12688    3    0    1
 -2       685      2758      1163      3891
 -1     12689    3    0    1
 -2      2128      3405      3529      3812
 -1     12690    3    0    1
 -2      2132      3682      3739      3858
 -1     12691    3    0    1
 -2       121      1079      3797      3858
 -1     12692    3    0    1
 -2       192      1355      3809      3610
 -1     12693    3    0    1
 -2      2431      3592      3606      3882
 -1     12694    3    0    1
 -2      3229      3228      3666      3919
 -1     12695    3    0    1
 -2       692      1599      3317      3573
 -1     12696    3    0    1
 -2      3306        55      3827      3834
 -1     12697    3    0    1
 -2      1406       648      3890      3924
 -1     12698    3    0    1
 -2      1027       547      3730      3674
 -1     12699    3    0    1
 -2      2179       911      3766      3860
 -1     12700    3    0    1
 -2      2283      2671      3764      3860
 -1     12701    3    0    1
 -2      3260      3190      3442      3813
 -1     12702    3    0    1
 -2       911       264      2674      3860
 -1     12703    3    0    1
 -2      3004      2220      3827      3834
 -1     12704    3    0    1
 -2      3705      3306      3827      3834
 -1     12705    3    0    1
 -2      3768      3150      3854      3879
 -1     12706    3    0    1
 -2       640      3176      1609      3816
 -1     12707    3    0    1
 -2       948      1457      3686      3657
 -1     12708    3    0    1
 -2      1846      2076      3532      3814
 -1     12709    3    0    1
 -2      3548      3686      3645      3657
 -1     12710    3    0    1
 -2      3004       105      3686      3657
 -1     12711    3    0    1
 -2      2213      3686      3548      3657
 -1     12712    3    0    1
 -2      2213      2332      3548      2146
 -1     12713    3    0    1
 -2      2222      2219      3326      3632
 -1     12714    3    0    1
 -2      3699      2059      3770      3841
 -1     12715    3    0    1
 -2      2256      2592      3700      3816
 -1     12716    3    0    1
 -2      2256      2585      2592      3816
 -1     12717    3    0    1
 -2      2256      3700      3722      3816
 -1     12718    3    0    1
 -2      2583      2256      3722      3816
 -1     12719    3    0    1
 -2      2256      2583      2585      3816
 -1     12720    3    0    1
 -2      2585      2583      3722      3816
 -1     12721    3    0    1
 -2      3172      2153      3176      3816
 -1     12722    3    0    1
 -2      3176      2153      3493      3816
 -1     12723    3    0    1
 -2      2195      3172      3176      3816
 -1     12724    3    0    1
 -2      3064      2127      3724      3862
 -1     12725    3    0    1
 -2      3712      2560      3746      3821
 -1     12726    3    0    1
 -2      2153      3700      3493      3821
 -1     12727    3    0    1
 -2      1037      3816      3535      3821
 -1     12728    3    0    1
 -2       662      3321      3777      3818
 -1     12729    3    0    1
 -2      3383      1943      3483      3817
 -1     12730    3    0    1
 -2      2028      3383      3483      3817
 -1     12731    3    0    1
 -2      1668      1835      3559      3579
 -1     12732    3    0    1
 -2      1943      3383      3434      3817
 -1     12733    3    0    1
 -2      1856      1968      2096      3659
 -1     12734    3    0    1
 -2      1968       537      1161      3659
 -1     12735    3    0    1
 -2      1682      1668      1887      3579
 -1     12736    3    0    1
 -2      3296      2342      3307      3818
 -1     12737    3    0    1
 -2      1261      1406      3890      3924
 -1     12738    3    0    1
 -2      3738        66      3834      3651
 -1     12739    3    0    1
 -2      3726       881      3745      3851
 -1     12740    3    0    1
 -2      3753      2518      3843      3895
 -1     12741    3    0    1
 -2      2192      3320      3321      3818
 -1     12742    3    0    1
 -2       437      3707      3819      3867
 -1     12743    3    0    1
 -2       890       885      3707      3867
 -1     12744    3    0    1
 -2        71      1929      3726      3867
 -1     12745    3    0    1
 -2      1863       272      3281      3908
 -1     12746    3    0    1
 -2       556      1774      3010      3819
 -1     12747    3    0    1
 -2      2338       556      3010      3819
 -1     12748    3    0    1
 -2       891      2338      2369      3819
 -1     12749    3    0    1
 -2      1774       891      2369      3819
 -1     12750    3    0    1
 -2      2360      2370      3707      3819
 -1     12751    3    0    1
 -2      2370      2360      2374      3819
 -1     12752    3    0    1
 -2      2370       437      3707      3819
 -1     12753    3    0    1
 -2       437      2370      2374      3819
 -1     12754    3    0    1
 -2       556      2338       891      3819
 -1     12755    3    0    1
 -2      1774       556       891      3819
 -1     12756    3    0    1
 -2      3340      3342      3344      3819
 -1     12757    3    0    1
 -2      1774      3340      3344      3819
 -1     12758    3    0    1
 -2      3342      1974      3344      3819
 -1     12759    3    0    1
 -2      3340      3338      3342      3819
 -1     12760    3    0    1
 -2      1476      3140      1177      3820
 -1     12761    3    0    1
 -2      3130      3128      3138      3820
 -1     12762    3    0    1
 -2      3130      3138      3757      3820
 -1     12763    3    0    1
 -2      3129      3130      3757      3820
 -1     12764    3    0    1
 -2      3130      3129      3137      3820
 -1     12765    3    0    1
 -2      3128      1155      3138      3820
 -1     12766    3    0    1
 -2      3138      1155      3757      3820
 -1     12767    3    0    1
 -2      1471      3140      3817      3820
 -1     12768    3    0    1
 -2      1155      1471      3817      3820
 -1     12769    3    0    1
 -2      1471      1155      3140      3820
 -1     12770    3    0    1
 -2      3225      1531      3227      3850
 -1     12771    3    0    1
 -2      3129      3144      3776      3820
 -1     12772    3    0    1
 -2      3144      3129      3757      3820
 -1     12773    3    0    1
 -2      3137      3129      3143      3820
 -1     12774    3    0    1
 -2      3143      3129      3776      3820
 -1     12775    3    0    1
 -2      3712      3746      3493      3821
 -1     12776    3    0    1
 -2      2559      2560      2564      3821
 -1     12777    3    0    1
 -2      2564      2560      3712      3821
 -1     12778    3    0    1
 -2      2559      2564      3712      3821
 -1     12779    3    0    1
 -2       363      1047      3535      3821
 -1     12780    3    0    1
 -2      2127      3714      3848      3862
 -1     12781    3    0    1
 -2      1047      1037      3535      3821
 -1     12782    3    0    1
 -2       505      1087      3848      3862
 -1     12783    3    0    1
 -2      1323        47      1330      3822
 -1     12784    3    0    1
 -2      1330        47      3805      3822
 -1     12785    3    0    1
 -2      1317      1330      3805      3822
 -1     12786    3    0    1
 -2      1317      2929      1330      3822
 -1     12787    3    0    1
 -2      1215       678      3717      3826
 -1     12788    3    0    1
 -2      3717      1670      3501      3826
 -1     12789    3    0    1
 -2      2167      1670      1210      3826
 -1     12790    3    0    1
 -2      2918      1317      3805      3822
 -1     12791    3    0    1
 -2      1317      2918      2929      3822
 -1     12792    3    0    1
 -2      1434       933      3750      3909
 -1     12793    3    0    1
 -2      2147      3202      3526      3822
 -1     12794    3    0    1
 -2      2102      2167      1210      3826
 -1     12795    3    0    1
 -2      1210      1670      3717      3826
 -1     12796    3    0    1
 -2      2147      3199      3202      3822
 -1     12797    3    0    1
 -2       678      1210      3717      3826
 -1     12798    3    0    1
 -2      2616      3739      3484      3887
 -1     12799    3    0    1
 -2      3150      3484      3854      3887
 -1     12800    3    0    1
 -2       281      1582      3314      3608
 -1     12801    3    0    1
 -2      2326      1987      1582      3608
 -1     12802    3    0    1
 -2      3755      3121      3480      3827
 -1     12803    3    0    1
 -2      2316      2534      1067      3823
 -1     12804    3    0    1
 -2      2060      2316      1067      3823
 -1     12805    3    0    1
 -2      3856        67      3904      3671
 -1     12806    3    0    1
 -2       555      2060      2197      3823
 -1     12807    3    0    1
 -2      2197      2060      3689      3823
 -1     12808    3    0    1
 -2       555      2197      3689      3823
 -1     12809    3    0    1
 -2       121      3739      3797      3887
 -1     12810    3    0    1
 -2      2015      2955      2292      1344
 -1     12811    3    0    1
 -2      3705      3297      3824      3827
 -1     12812    3    0    1
 -2      2005      1938      3377      3564
 -1     12813    3    0    1
 -2      2316      2060      1009      3823
 -1     12814    3    0    1
 -2      1009      2534      2316      3823
 -1     12815    3    0    1
 -2      2060       555      1009      3823
 -1     12816    3    0    1
 -2       105        55      3004      3827
 -1     12817    3    0    1
 -2      2060      3115      3689      3823
 -1     12818    3    0    1
 -2        55      1501      3306      3827
 -1     12819    3    0    1
 -2      2459      2326      1582      3608
 -1     12820    3    0    1
 -2      1987       665      1582      3608
 -1     12821    3    0    1
 -2      1907      1947      2002      3543
 -1     12822    3    0    1
 -2       976       190      3769      3910
 -1     12823    3    0    1
 -2       974       976      3769      3910
 -1     12824    3    0    1
 -2      2832      2838      3794      3902
 -1     12825    3    0    1
 -2      1907      3408      3798      3543
 -1     12826    3    0    1
 -2      1907      1759      3408      3543
 -1     12827    3    0    1
 -2      1759      1907      2002      3543
 -1     12828    3    0    1
 -2      1370       657      3799      3652
 -1     12829    3    0    1
 -2      3736       844      3738      3632
 -1     12830    3    0    1
 -2      2219      2222      2492      3632
 -1     12831    3    0    1
 -2      2492      3736      3738      3632
 -1     12832    3    0    1
 -2      2492      3326      3736      3632
 -1     12833    3    0    1
 -2      2042      2179      3317      3573
 -1     12834    3    0    1
 -2      2180      2146      2182      3548
 -1     12835    3    0    1
 -2      3607      3874      3882      3646
 -1     12836    3    0    1
 -2      3706      3097      3842      3915
 -1     12837    3    0    1
 -2      3292      1239      3489      3884
 -1     12838    3    0    1
 -2      3335      3192      3405      3635
 -1     12839    3    0    1
 -2       523      1179      3784      3884
 -1     12840    3    0    1
 -2      2028      1881      3439      3658
 -1     12841    3    0    1
 -2      1881      1851      3439      3658
 -1     12842    3    0    1
 -2      2620       382      2689      3927
 -1     12843    3    0    1
 -2      2182      2146      2213      3548
 -1     12844    3    0    1
 -2      1887      1668      1963      3579
 -1     12845    3    0    1
 -2      1835      3487      3559      3579
 -1     12846    3    0    1
 -2      3311      1451      3313      3824
 -1     12847    3    0    1
 -2      3311      3313      3708      3824
 -1     12848    3    0    1
 -2      2011       532      3427      3824
 -1     12849    3    0    1
 -2      1451       532      3313      3824
 -1     12850    3    0    1
 -2      3313       532      3708      3824
 -1     12851    3    0    1
 -2      3297       655      3308      3824
 -1     12852    3    0    1
 -2      3705      3297      3818      3824
 -1     12853    3    0    1
 -2      2342      3708      3818      3824
 -1     12854    3    0    1
 -2      2342      3311      3708      3824
 -1     12855    3    0    1
 -2      3308      2342      3818      3824
 -1     12856    3    0    1
 -2      2342      3308      3311      3824
 -1     12857    3    0    1
 -2      3296      3308      3818      3824
 -1     12858    3    0    1
 -2      3297      3296      3818      3824
 -1     12859    3    0    1
 -2      3296      3297      3308      3824
 -1     12860    3    0    1
 -2      3480      3705      3827      2220
 -1     12861    3    0    1
 -2      2121       690      2169      3873
 -1     12862    3    0    1
 -2      1451      1592      3427      3824
 -1     12863    3    0    1
 -2      2011      3418      3480      3824
 -1     12864    3    0    1
 -2      3320      2011      3480      3824
 -1     12865    3    0    1
 -2       532      1451      3427      3824
 -1     12866    3    0    1
 -2      1418      3412      3781      3642
 -1     12867    3    0    1
 -2      3856      3586      3874      3921
 -1     12868    3    0    1
 -2      3193      3693      3485      3891
 -1     12869    3    0    1
 -2       437       896      3339      3867
 -1     12870    3    0    1
 -2      3194      3694      3750      3909
 -1     12871    3    0    1
 -2      2045      2867      3186      3844
 -1     12872    3    0    1
 -2      1711      2045      3186      3844
 -1     12873    3    0    1
 -2      1144      3336      3839      3844
 -1     12874    3    0    1
 -2      1150      2089      3330      3844
 -1     12875    3    0    1
 -2      1144      1148      3336      3844
 -1     12876    3    0    1
 -2      1148      3330      3336      3844
 -1     12877    3    0    1
 -2        47      3805      3822      3825
 -1     12878    3    0    1
 -2        49      1434      3694      3909
 -1     12879    3    0    1
 -2      3202      3526      3822      3825
 -1     12880    3    0    1
 -2      2081      3694      3577      3909
 -1     12881    3    0    1
 -2      2934      3202      3805      3825
 -1     12882    3    0    1
 -2      3805      3202      3822      3825
 -1     12883    3    0    1
 -2      3445      1001      3486      3825
 -1     12884    3    0    1
 -2      1001       142      3486      3825
 -1     12885    3    0    1
 -2      2619      2109      2934      3825
 -1     12886    3    0    1
 -2      2934      2109      3526      3825
 -1     12887    3    0    1
 -2      2413      3445      3486      3825
 -1     12888    3    0    1
 -2       945      1001      3445      3825
 -1     12889    3    0    1
 -2      2619      2934      3528      3825
 -1     12890    3    0    1
 -2      3703      1144      3839      3844
 -1     12891    3    0    1
 -2       142        47      3486      3825
 -1     12892    3    0    1
 -2      3202      2934      3526      3825
 -1     12893    3    0    1
 -2      3694      3194      3577      3909
 -1     12894    3    0    1
 -2        72      2081      2395      3909
 -1     12895    3    0    1
 -2      1191       281      3314      3608
 -1     12896    3    0    1
 -2      2624      3696      3731      3833
 -1     12897    3    0    1
 -2      1095       638      2654      3835
 -1     12898    3    0    1
 -2      3755      3480      3824      3827
 -1     12899    3    0    1
 -2       424      3688      3105      3706
 -1     12900    3    0    1
 -2      3755      3688       424      3706
 -1     12901    3    0    1
 -2       105      3004      3686      3827
 -1     12902    3    0    1
 -2      3686      3004      3688      3827
 -1     12903    3    0    1
 -2       105      3686      3688      3827
 -1     12904    3    0    1
 -2      1501       655      3297      3827
 -1     12905    3    0    1
 -2      3297       655      3824      3827
 -1     12906    3    0    1
 -2      3688      3755       424      3827
 -1     12907    3    0    2
 -2      1021      2537      2545       928
 -1     12908    3    0    1
 -2       655       424      3755      3827
 -1     12909    3    0    1
 -2       655      3755      3824      3827
 -1     12910    3    0    1
 -2        55      1459      1501      3827
 -1     12911    3    0    1
 -2      3004      2220      3121      3827
 -1     12912    3    0    1
 -2      1459      1453      1501      3827
 -1     12913    3    0    1
 -2        55       105      1459      3827
 -1     12914    3    0    1
 -2      3121      2220      3480      3827
 -1     12915    3    0    1
 -2      1453       424      1501      3827
 -1     12916    3    0    1
 -2      3114      3004      3121      3827
 -1     12917    3    0    1
 -2      3873      2653      2654      2668
 -1     12918    3    0    1
 -2       424       655      1501      3827
 -1     12919    3    0    1
 -2      2138       521      3692      3828
 -1     12920    3    0    1
 -2      3040      2138      3692      3828
 -1     12921    3    0    1
 -2       521      2138      1391      3828
 -1     12922    3    0    1
 -2      1391      2138      3006      3828
 -1     12923    3    0    1
 -2      2135      3006      3040      3828
 -1     12924    3    0    1
 -2      3006      2138      3040      3828
 -1     12925    3    0    1
 -2      3177      1105      3182      3638
 -1     12926    3    0    1
 -2      1105      3177      3772      3638
 -1     12927    3    0    1
 -2      2025      3407      3490      3829
 -1     12928    3    0    1
 -2       638      1095      3347      3829
 -1     12929    3    0    1
 -2      1095      1089      3347      3829
 -1     12930    3    0    1
 -2      3449      2025      3490      3829
 -1     12931    3    0    1
 -2      3347      1089      3508      3829
 -1     12932    3    0    1
 -2       502      2748      3148      3849
 -1     12933    3    0    1
 -2      3772      3177      3637      3638
 -1     12934    3    0    1
 -2      3144      1473      3146      3849
 -1     12935    3    0    1
 -2      1185      1792      3276      3644
 -1     12936    3    0    1
 -2       400      1813       904      3831
 -1     12937    3    0    1
 -2      1813       400      2299      3831
 -1     12938    3    0    1
 -2      2299       400       904      3831
 -1     12939    3    0    1
 -2       642      2299      1015      3831
 -1     12940    3    0    1
 -2      2043       642      1015      3831
 -1     12941    3    0    1
 -2       642      2043      2299      3831
 -1     12942    3    0    1
 -2      3518      1813      3520      3831
 -1     12943    3    0    1
 -2      1813      2043      3520      3831
 -1     12944    3    0    1
 -2      2043      1894      3520      3831
 -1     12945    3    0    1
 -2      2139      3741      3555      3561
 -1     12946    3    0    1
 -2      3322      3738      3777      3834
 -1     12947    3    0    1
 -2      3738        66      3777      3834
 -1     12948    3    0    1
 -2      1589      3309      1594      3834
 -1     12949    3    0    1
 -2      2875        99      3544      3833
 -1     12950    3    0    1
 -2      1021      3718      3544      3833
 -1     12951    3    0    1
 -2      1021      3718      2537       928
 -1     12952    3    0    1
 -2      3718      1021      2537      3833
 -1     12953    3    0    1
 -2      3208      3214      3701      3832
 -1     12954    3    0    1
 -2      3214      3208      3221      3832
 -1     12955    3    0    1
 -2      3207      3210      3223      3832
 -1     12956    3    0    1
 -2      3207      3223      3788      3832
 -1     12957    3    0    1
 -2      1437      3078      1442      3886
 -1     12958    3    0    1
 -2      1432      3741      3631      3886
 -1     12959    3    0    1
 -2      3788      3440      3561      3832
 -1     12960    3    0    1
 -2      1007       406      2527      3895
 -1     12961    3    0    1
 -2      3805       406      3845      3895
 -1     12962    3    0    1
 -2       272       875      3756      3883
 -1     12963    3    0    1
 -2       272      3756      3539      3883
 -1     12964    3    0    1
 -2      2099      1973      1191      3608
 -1     12965    3    0    1
 -2      3823      1437      3863      3886
 -1     12966    3    0    1
 -2      3555      3823      3863      3886
 -1     12967    3    0    1
 -2      3741      3115      3555      3886
 -1     12968    3    0    1
 -2       665      1987      2131      3608
 -1     12969    3    0    1
 -2       665      1794      1582      3608
 -1     12970    3    0    1
 -2      3291      3551      3561      3832
 -1     12971    3    0    1
 -2      1959       403      3392      3580
 -1     12972    3    0    1
 -2      3863       434      3631      3886
 -1     12973    3    0    1
 -2      1794       665      2131      3608
 -1     12974    3    0    1
 -2      3539      3281       272      3883
 -1     12975    3    0    1
 -2       423      2782      3039      3883
 -1     12976    3    0    1
 -2      2326      2459      3149      3608
 -1     12977    3    0    1
 -2      1582      1794      3314      3608
 -1     12978    3    0    1
 -2      1594      3309      3777      3834
 -1     12979    3    0    1
 -2      3004      2492      3322      3834
 -1     12980    3    0    1
 -2      2220      3004      3322      3834
 -1     12981    3    0    1
 -2      1599      2078      3317      3573
 -1     12982    3    0    1
 -2        55       872      2332      3834
 -1     12983    3    0    1
 -2      3837      3734      3629      3912
 -1     12984    3    0    1
 -2      1181      1101      3873      3912
 -1     12985    3    0    1
 -2      2654       638      2659      3835
 -1     12986    3    0    1
 -2      1257       524      3758      3912
 -1     12987    3    0    1
 -2      2649      2267      3714      3835
 -1     12988    3    0    1
 -2      2267      2649      2654      3835
 -1     12989    3    0    1
 -2      1101      1181      3567      3912
 -1     12990    3    0    1
 -2      3781      3709      3841      3913
 -1     12991    3    0    1
 -2      1121      3758      3837      3912
 -1     12992    3    0    1
 -2      1257      1121      3629      3912
 -1     12993    3    0    1
 -2      3447      2866      3758      3912
 -1     12994    3    0    1
 -2      3758      2866      3837      3912
 -1     12995    3    0    1
 -2      2623      2463      3027      3890
 -1     12996    3    0    1
 -2      1089      2649      3714      3835
 -1     12997    3    0    1
 -2      2649      1089      1095      3835
 -1     12998    3    0    1
 -2      3868      3567      3629      3912
 -1     12999    3    0    1
 -2      2121      1181      3873      3912
 -1     13000    3    0    1
 -2      1121      1257      3758      3912
 -1     13001    3    0    1
 -2      3567      1257      3629      3912
 -1     13002    3    0    1
 -2       524      1257      3567      3912
 -1     13003    3    0    1
 -2      2169      2121      3447      3912
 -1     13004    3    0    1
 -2      3262      2170      3449      3835
 -1     13005    3    0    1
 -2      3262      3449      3490      3835
 -1     13006    3    0    1
 -2      1664      2148      3492      3851
 -1     13007    3    0    1
 -2       861      1525      3222      3852
 -1     13008    3    0    1
 -2      1783      2017      2038      3624
 -1     13009    3    0    1
 -2      3346      3272      3731      3674
 -1     13010    3    0    1
 -2      1677      1776      3615      3630
 -1     13011    3    0    1
 -2      1796      3740      3582      3869
 -1     13012    3    0    1
 -2      3346      3626      3627      3674
 -1     13013    3    0    1
 -2      1023      3685      3731      3674
 -1     13014    3    0    1
 -2      3331        71      3726      3623
 -1     13015    3    0    1
 -2      3685      1023      3730      3674
 -1     13016    3    0    1
 -2      2866      2189      3274      3837
 -1     13017    3    0    1
 -2      2189      2866      3400      3837
 -1     13018    3    0    1
 -2      3350      3743      3838      3749
 -1     13019    3    0    1
 -2      1223      3379      3749      3838
 -1     13020    3    0    1
 -2      3369      1223      3749      3838
 -1     13021    3    0    1
 -2      3350      3369      3749      3838
 -1     13022    3    0    1
 -2      3350      2706      3369      3838
 -1     13023    3    0    1
 -2      2706      1223      3369      3838
 -1     13024    3    0    1
 -2      2708       361      2804      3838
 -1     13025    3    0    1
 -2      2708      2161      1648      3838
 -1     13026    3    0    1
 -2       361      2708      1648      3838
 -1     13027    3    0    1
 -2      2161       361      1648      3838
 -1     13028    3    0    1
 -2      2047      3275      3379      3838
 -1     13029    3    0    1
 -2      2161      2047      3379      3838
 -1     13030    3    0    1
 -2      3270      3000      3455      3840
 -1     13031    3    0    1
 -2      1826       170      3571      3620
 -1     13032    3    0    1
 -2      3587      1639      1655      3921
 -1     13033    3    0    1
 -2      2097      3882      3918      3921
 -1     13034    3    0    1
 -2       853      3047      3061      3841
 -1     13035    3    0    1
 -2      3047      3709      3721      3841
 -1     13036    3    0    1
 -2      3699      3041      3721      3841
 -1     13037    3    0    1
 -2      1488      3785      3899      3644
 -1     13038    3    0    1
 -2      3050      3041      3058      3841
 -1     13039    3    0    1
 -2      3058      3041      3699      3841
 -1     13040    3    0    1
 -2      3041      3047      3721      3841
 -1     13041    3    0    1
 -2      3047      3041      3050      3841
 -1     13042    3    0    1
 -2      2059      3126      3386      3841
 -1     13043    3    0    1
 -2      1462      1115      3842      3915
 -1     13044    3    0    1
 -2       707      1658      3918      3679
 -1     13045    3    0    1
 -2      1357        65      3812      3635
 -1     13046    3    0    1
 -2      1789      2009      3467      3680
 -1     13047    3    0    1
 -2       170      1639      3921      3925
 -1     13048    3    0    1
 -2      1305      3727      3576      3665
 -1     13049    3    0    1
 -2      2041      3514      3842      3664
 -1     13050    3    0    1
 -2      2041      3706      3418      3664
 -1     13051    3    0    1
 -2      3801      3404      3647      3680
 -1     13052    3    0    1
 -2      1115      3663      3914      3915
 -1     13053    3    0    1
 -2      3775      3896      3663      3915
 -1     13054    3    0    1
 -2      3097      1462      3842      3915
 -1     13055    3    0    1
 -2      1408      1404      3876      3920
 -1     13056    3    0    1
 -2      3101      3706      3775      3915
 -1     13057    3    0    1
 -2      2092      3624      3625      3665
 -1     13058    3    0    1
 -2      2124      1672      2205      3576
 -1     13059    3    0    1
 -2      3753      3684      3528      3843
 -1     13060    3    0    1
 -2       142       998      3805      3843
 -1     13061    3    0    1
 -2       998       142      2523      3843
 -1     13062    3    0    1
 -2      1005      1003      2525      3843
 -1     13063    3    0    1
 -2      2525      1003      3753      3843
 -1     13064    3    0    1
 -2      3684      1005      3787      3843
 -1     13065    3    0    1
 -2      1003      1005      3684      3843
 -1     13066    3    0    1
 -2      1003      3684      3753      3843
 -1     13067    3    0    1
 -2      2934      3384      3528      3843
 -1     13068    3    0    1
 -2       689       406      3556      3845
 -1     13069    3    0    1
 -2      1754      3091      3778      3846
 -1     13070    3    0    1
 -2      3778      3091      3515      3846
 -1     13071    3    0    1
 -2      1137      3778      3515      3846
 -1     13072    3    0    1
 -2      1135      1754      3778      3846
 -1     13073    3    0    1
 -2      1754      1135      2724      3846
 -1     13074    3    0    1
 -2      2724      1135      3778      3846
 -1     13075    3    0    1
 -2      1981      3091      3522      3846
 -1     13076    3    0    1
 -2      1139       106      3510      3846
 -1     13077    3    0    1
 -2       833      1139      3510      3846
 -1     13078    3    0    1
 -2      3091      1981      3515      3846
 -1     13079    3    0    1
 -2      3091      1754      3522      3846
 -1     13080    3    0    1
 -2      3460      1981      3522      3846
 -1     13081    3    0    1
 -2        53       833      3510      3846
 -1     13082    3    0    1
 -2      3388      2127      3407      3848
 -1     13083    3    0    1
 -2      1177      1476      3817      3678
 -1     13084    3    0    1
 -2      1881      1958      3534      3853
 -1     13085    3    0    1
 -2       503      1061      3508      3848
 -1     13086    3    0    1
 -2      1943      3483      3817      3853
 -1     13087    3    0    1
 -2       505      1087      3508      3848
 -1     13088    3    0    1
 -2      3407      2127      3490      3848
 -1     13089    3    0    1
 -2      3817      1155      3820      3853
 -1     13090    3    0    1
 -2      1089       505      3508      3848
 -1     13091    3    0    1
 -2      2115      3374      3776      3849
 -1     13092    3    0    1
 -2      1895      3757      3776      3849
 -1     13093    3    0    1
 -2      3374      1895      3776      3849
 -1     13094    3    0    1
 -2       680      2062      1473      3849
 -1     13095    3    0    1
 -2       680      3144      3757      3849
 -1     13096    3    0    1
 -2      2115      2613      2748      3849
 -1     13097    3    0    1
 -2      2115      2613      3849      3776
 -1     13098    3    0    1
 -2      2115      1470      2613      3776
 -1     13099    3    0    1
 -2      3776      3757      3820      3849
 -1     13100    3    0    1
 -2      3144      3776      3820      3849
 -1     13101    3    0    1
 -2      3757      3144      3820      3849
 -1     13102    3    0    1
 -2      2062       680      3757      3849
 -1     13103    3    0    1
 -2      1895      2062      3757      3849
 -1     13104    3    0    1
 -2      2193      2062      3457      3849
 -1     13105    3    0    1
 -2      2062      1895      3457      3849
 -1     13106    3    0    1
 -2      3374      2115      3457      3849
 -1     13107    3    0    1
 -2      1895      3374      3457      3849
 -1     13108    3    0    1
 -2      3762      3452      3845      3895
 -1     13109    3    0    1
 -2      2255       929      3473      3850
 -1     13110    3    0    1
 -2       929      2255      2869      3850
 -1     13111    3    0    1
 -2      2869      2255      3473      3850
 -1     13112    3    0    1
 -2      2131      3450      3473      3850
 -1     13113    3    0    1
 -2      3450      1716      3473      3850
 -1     13114    3    0    1
 -2      3473      1716      3551      3850
 -1     13115    3    0    1
 -2      2942      1347      3809      3917
 -1     13116    3    0    1
 -2      3529      3513      3808      3917
 -1     13117    3    0    1
 -2      2207      3285      3513      3852
 -1     13118    3    0    1
 -2      1710       170      1826      3673
 -1     13119    3    0    1
 -2      2850      1125      3837      3922
 -1     13120    3    0    1
 -2       503      1467      3848      3578
 -1     13121    3    0    1
 -2      3508       503      3848      3578
 -1     13122    3    0    1
 -2      3434      3817      3820      3853
 -1     13123    3    0    1
 -2      1155      3434      3757      3853
 -1     13124    3    0    1
 -2      3757      3434      3820      3853
 -1     13125    3    0    1
 -2      1155      3757      3820      3853
 -1     13126    3    0    1
 -2      3534      1882      3549      3853
 -1     13127    3    0    1
 -2       132      3534      3549      3853
 -1     13128    3    0    1
 -2      1471       132      3549      3853
 -1     13129    3    0    1
 -2      1155      1471      3549      3853
 -1     13130    3    0    1
 -2      1943      1838      1958      3853
 -1     13131    3    0    1
 -2      1881      1943      1958      3853
 -1     13132    3    0    1
 -2      1838      1943      3434      3853
 -1     13133    3    0    1
 -2      1943      1881      3483      3853
 -1     13134    3    0    1
 -2      2027      1838      3434      3853
 -1     13135    3    0    1
 -2        33      1155      3549      3853
 -1     13136    3    0    1
 -2       845      1959       403      2211
 -1     13137    3    0    1
 -2      1101       377      2684      3873
 -1     13138    3    0    1
 -2      3262      2170      3835      3873
 -1     13139    3    0    1
 -2       414      1101      2668      3873
 -1     13140    3    0    1
 -2      1959       403      2211      3392
 -1     13141    3    0    1
 -2      2063       430      2099      3888
 -1     13142    3    0    1
 -2       430      1341      3619      3888
 -1     13143    3    0    1
 -2      1083        36      3118      3854
 -1     13144    3    0    1
 -2       955      1083      3118      3854
 -1     13145    3    0    1
 -2        36       114      3118      3854
 -1     13146    3    0    1
 -2       387      1660      3875      3888
 -1     13147    3    0    1
 -2      3450      3371      3808      3916
 -1     13148    3    0    1
 -2      2057      3150      3484      3854
 -1     13149    3    0    1
 -2       114       949      3118      3854
 -1     13150    3    0    1
 -2      2039      1341      3875      3888
 -1     13151    3    0    1
 -2      3319      1928      3890      3924
 -1     13152    3    0    1
 -2       189      3231      3233      3855
 -1     13153    3    0    1
 -2      1915      2077      3428      3855
 -1     13154    3    0    1
 -2       189      1479      3231      3855
 -1     13155    3    0    1
 -2      2077      2191      3428      3855
 -1     13156    3    0    2
 -2      2508      2509      3591      3593
 -1     13157    3    0    1
 -2      2096      2075      2190      3649
 -1     13158    3    0    1
 -2      1899      3267      3431      3633
 -1     13159    3    0    1
 -2      2119      3494      3640      3662
 -1     13160    3    0    1
 -2      1912      1741      3268      3581
 -1     13161    3    0    1
 -2      1963      1935      2080      3582
 -1     13162    3    0    1
 -2      2080      1935      3381      3582
 -1     13163    3    0    1
 -2      1963      2080      3381      3582
 -1     13164    3    0    1
 -2      3563      1938      3864      3870
 -1     13165    3    0    1
 -2      3559      1963      3579      3582
 -1     13166    3    0    1
 -2      1963      3396      3579      3582
 -1     13167    3    0    1
 -2      1265      3704      3803      3870
 -1     13168    3    0    1
 -2      3701      3551      3850      3894
 -1     13169    3    0    1
 -2      1674      1760      1805      3583
 -1     13170    3    0    1
 -2      1760      1674      2022      3583
 -1     13171    3    0    1
 -2        59      1760      2022      3583
 -1     13172    3    0    1
 -2      2390       388      1522      3894
 -1     13173    3    0    1
 -2      1050      1041      3747      3865
 -1     13174    3    0    1
 -2       865       837      2386      3865
 -1     13175    3    0    1
 -2        38       837       865      3865
 -1     13176    3    0    1
 -2      1364        56      3459      3857
 -1     13177    3    0    1
 -2        56      3335      3459      3857
 -1     13178    3    0    1
 -2      3329      2204      3405      3857
 -1     13179    3    0    1
 -2        56        65      3335      3857
 -1     13180    3    0    1
 -2       880      1364      3459      3857
 -1     13181    3    0    1
 -2      2128      3329      3405      3857
 -1     13182    3    0    1
 -2       837      2395      3552      3865
 -1     13183    3    0    1
 -2       153      1050      3747      3865
 -1     13184    3    0    1
 -2      1195      1079      1199      3858
 -1     13185    3    0    1
 -2       681      1079      1195      3858
 -1     13186    3    0    1
 -2      2132      2616      3468      3858
 -1     13187    3    0    1
 -2       681       683      1079      3858
 -1     13188    3    0    1
 -2      1079       121      1199      3858
 -1     13189    3    0    1
 -2       121        37      1199      3858
 -1     13190    3    0    1
 -2      2467      3249      3728      3859
 -1     13191    3    0    1
 -2      3863       388      3667      3919
 -1     13192    3    0    1
 -2      3190      3442      3813      3859
 -1     13193    3    0    1
 -2      1890      3190      3446      3859
 -1     13194    3    0    1
 -2      3190      1890      3442      3859
 -1     13195    3    0    1
 -2      2121      2866      3447      3912
 -1     13196    3    0    1
 -2      2866      3734      3837      3912
 -1     13197    3    0    1
 -2      3734      2866      3868      3912
 -1     13198    3    0    1
 -2      2675      2671      3772      3860
 -1     13199    3    0    1
 -2      2671      2675      3764      3860
 -1     13200    3    0    1
 -2      3764      2675      3772      3860
 -1     13201    3    0    1
 -2      2121      3567      3868      3912
 -1     13202    3    0    1
 -2      1121      3837      3629      3912
 -1     13203    3    0    1
 -2      2170      2179      3235      3860
 -1     13204    3    0    1
 -2       264       911      2996      3860
 -1     13205    3    0    1
 -2      1978      3683      3797      3879
 -1     13206    3    0    1
 -2      2170      1927      2179      3860
 -1     13207    3    0    1
 -2      2996       911      3456      3860
 -1     13208    3    0    1
 -2      2996      3456      3573      3860
 -1     13209    3    0    1
 -2      1307       264      2996      3860
 -1     13210    3    0    1
 -2      1606       639      3533      3861
 -1     13211    3    0    1
 -2       398      1029      3533      3861
 -1     13212    3    0    1
 -2      3533       363      3535      3861
 -1     13213    3    0    1
 -2      2632      1087      2640      3862
 -1     13214    3    0    1
 -2       505      2639      2640      3862
 -1     13215    3    0    1
 -2      2632      3724      3795      3862
 -1     13216    3    0    1
 -2      2632      2640      3724      3862
 -1     13217    3    0    1
 -2      2639      3714      3724      3862
 -1     13218    3    0    1
 -2      2640      2639      3724      3862
 -1     13219    3    0    1
 -2       899      2632      3795      3862
 -1     13220    3    0    1
 -2      2632       899      1087      3862
 -1     13221    3    0    1
 -2      1087       899      3795      3862
 -1     13222    3    0    1
 -2      3459       880      3857      3612
 -1     13223    3    0    2
 -2       169      1650       170      3585
 -1     13224    3    0    1
 -2       121        37      3739      3887
 -1     13225    3    0    2
 -2      1640       170      1639      3585
 -1     13226    3    0    2
 -2      3585      1649      3586      3588
 -1     13227    3    0    2
 -2      2715      2716      3600      3602
 -1     13228    3    0    2
 -2      2509      3587      3589      3590
 -1     13229    3    0    2
 -2      1631      1632      3588      1653
 -1     13230    3    0    1
 -2      1651        67      3856      1653
 -1     13231    3    0    1
 -2       989      3326      3736      3612
 -1     13232    3    0    1
 -2      3570      3563      3870      3669
 -1     13233    3    0    1
 -2       114      1251      3768      3922
 -1     13234    3    0    2
 -2      1649      1651      1650      3588
 -1     13235    3    0    2
 -2      1652       171      1653      1654
 -1     13236    3    0    2
 -2      3589      3587      1655      3590
 -1     13237    3    0    1
 -2      1651      3856      3586      1653
 -1     13238    3    0    2
 -2      3586      1631      3588      1653
 -1     13239    3    0    2
 -2      1651      3586      3588      1653
 -1     13240    3    0    2
 -2      1652      1651      3588      1653
 -1     13241    3    0    2
 -2      1652        67      1651      1653
 -1     13242    3    0    1
 -2       693      3734      3837      3922
 -1     13243    3    0    2
 -2        67      1652       171      1653
 -1     13244    3    0    2
 -2      1639      1656      1640      3589
 -1     13245    3    0    1
 -2       433       967      3832      3631
 -1     13246    3    0    2
 -2      2431      2430      3594      3597
 -1     13247    3    0    2
 -2      1656      3589      1655      3590
 -1     13248    3    0    2
 -2      2716      3604      3605      3606
 -1     13249    3    0    1
 -2      2174      3281      3539      3883
 -1     13250    3    0    2
 -2       431       817      3598      3601
 -1     13251    3    0    1
 -2      1902      3563      3609      3669
 -1     13252    3    0    1
 -2      3566      1677      3615      3904
 -1     13253    3    0    2
 -2       707      1656      1655      3590
 -1     13254    3    0    2
 -2      2509      3590      3591      3592
 -1     13255    3    0    2
 -2       814      3589      1656      3590
 -1     13256    3    0    2
 -2      1656       707       814      3590
 -1     13257    3    0    2
 -2      3590       707      3591      3592
 -1     13258    3    0    1
 -2      2811      3789      3790      3617
 -1     13259    3    0    1
 -2      3449      3829      3835      3911
 -1     13260    3    0    2
 -2      1193      3592      1657      1658
 -1     13261    3    0    1
 -2      2620      1447      3540      3883
 -1     13262    3    0    2
 -2      3597      2431      3599      3600
 -1     13263    3    0    2
 -2      1194      1193      3592      1657
 -1     13264    3    0    2
 -2      3592      3591      3593      1657
 -1     13265    3    0    2
 -2      1194      3592      3593      1657
 -1     13266    3    0    2
 -2      3591       707      1657      1658
 -1     13267    3    0    2
 -2       707      3591      3592      1658
 -1     13268    3    0    2
 -2      3592      3591      1657      1658
 -1     13269    3    0    1
 -2      2310       875      3039      3883
 -1     13270    3    0    2
 -2      2431      2430      3593      3594
 -1     13271    3    0    2
 -2      1634      1633      3595      3597
 -1     13272    3    0    2
 -2      2508      2509      3593      3594
 -1     13273    3    0    2
 -2      2431      2430      3597      3599
 -1     13274    3    0    2
 -2      1633       817      3595       431
 -1     13275    3    0    2
 -2      1634      1660      1633      3599
 -1     13276    3    0    2
 -2      2508      3594      3595      3596
 -1     13277    3    0    2
 -2      3595      1633       431      3596
 -1     13278    3    0    2
 -2      2508      2509      3594      3596
 -1     13279    3    0    1
 -2       875      2310      3756      3883
 -1     13280    3    0    2
 -2      2508      2509      3596      3598
 -1     13281    3    0    2
 -2      3594      2430      3595      3597
 -1     13282    3    0    1
 -2       397      2580      2591      3877
 -1     13283    3    0    2
 -2      1633       817      1634      3595
 -1     13284    3    0    1
 -2      3032      1404      3756      3876
 -1     13285    3    0    1
 -2      1373      1432      3741      3631
 -1     13286    3    0    1
 -2      3453      2616      3484      3887
 -1     13287    3    0    1
 -2      3452      2150      3845      3895
 -1     13288    3    0    1
 -2      1522       433      3832      3863
 -1     13289    3    0    1
 -2       701      3570      3870      3669
 -1     13290    3    0    2
 -2      3596       431      3598      3601
 -1     13291    3    0    2
 -2      2431      2430      3602      3604
 -1     13292    3    0    1
 -2      3756      3382      3545      3876
 -1     13293    3    0    2
 -2      1633      3597      3599      3600
 -1     13294    3    0    2
 -2      3598      2508      3601      3603
 -1     13295    3    0    1
 -2      1633      3597      3600      3875
 -1     13296    3    0    2
 -2       551      2716       612      3605
 -1     13297    3    0    1
 -2      3516      2216      3531      3618
 -1     13298    3    0    2
 -2      3586      3585      3588      3603
 -1     13299    3    0    2
 -2       614      2715      3600      3602
 -1     13300    3    0    2
 -2      2431      2430      3599      3602
 -1     13301    3    0    2
 -2      1634      1660      3599      1659
 -1     13302    3    0    1
 -2      3823      2060      3555      3863
 -1     13303    3    0    2
 -2      3585      3586      3587      3601
 -1     13304    3    0    1
 -2      3590       707      3882      3921
 -1     13305    3    0    1
 -2        37      3174      3739      3887
 -1     13306    3    0    1
 -2      3596       431      3874      3875
 -1     13307    3    0    2
 -2      3600       387      1659      1660
 -1     13308    3    0    2
 -2       817      3598      3601      3603
 -1     13309    3    0    2
 -2      2508      3587      3601      3603
 -1     13310    3    0    2
 -2      2509      3596      3598      3601
 -1     13311    3    0    2
 -2      3599      3600      3602      1659
 -1     13312    3    0    2
 -2      2509      2508      3587      3601
 -1     13313    3    0    1
 -2      1633      3596      3597      3875
 -1     13314    3    0    1
 -2      3037      3035      3756      3876
 -1     13315    3    0    2
 -2      3600       614      3602      1659
 -1     13316    3    0    2
 -2      3601       817      1631       431
 -1     13317    3    0    1
 -2      3873      2654      2267      2668
 -1     13318    3    0    2
 -2      3586      1631      3601      3603
 -1     13319    3    0    2
 -2      1631      3586      3588      3603
 -1     13320    3    0    2
 -2       817      1631      1632      3603
 -1     13321    3    0    2
 -2       817      3601      1631      3603
 -1     13322    3    0    1
 -2      1633       431      3596      3875
 -1     13323    3    0    2
 -2      3599      3600      1659      1660
 -1     13324    3    0    2
 -2      3599      1633      3600      1660
 -1     13325    3    0    2
 -2      3600      2431      3602      3604
 -1     13326    3    0    1
 -2       434      1442      3863      3631
 -1     13327    3    0    2
 -2      1193      1194      3592      3606
 -1     13328    3    0    1
 -2      1846      3531      3656      3668
 -1     13329    3    0    1
 -2      3817      3483      3658      3677
 -1     13330    3    0    2
 -2       612       551      3605      3606
 -1     13331    3    0    1
 -2       408      3499      3790      3617
 -1     13332    3    0    2
 -2       551      2716      3605      3606
 -1     13333    3    0    2
 -2      3604      2430      3605      3606
 -1     13334    3    0    1
 -2      3876      2006      3672      3920
 -1     13335    3    0    1
 -2      3037      2782      3876      3883
 -1     13336    3    0    1
 -2      1651      1650      3856      3904
 -1     13337    3    0    1
 -2      2153      3172      3722      3877
 -1     13338    3    0    1
 -2      2811      3469      3789      3617
 -1     13339    3    0    1
 -2      3469      2811      3790      3617
 -1     13340    3    0    1
 -2      3789      1218      3790      3617
 -1     13341    3    0    1
 -2      1218       408      3790      3617
 -1     13342    3    0    1
 -2      2620      2782      3540      3876
 -1     13343    3    0    2
 -2      3592      1194      3593      3606
 -1     13344    3    0    2
 -2      2430      3592      3593      3606
 -1     13345    3    0    2
 -2       551      1194      1193      3606
 -1     13346    3    0    2
 -2      1194       612      3605      3606
 -1     13347    3    0    2
 -2      1194       551       612      3606
 -1     13348    3    0    2
 -2      2430      1194      3605      3606
 -1     13349    3    0    2
 -2      1194      2430      3593      3606
 -1     13350    3    0    1
 -2      3600       387      1660      3875
 -1     13351    3    0    1
 -2      1041      3747      3865      3877
 -1     13352    3    0    1
 -2      3499      3469      3790      3617
 -1     13353    3    0    1
 -2      1404      3032      3035      3876
 -1     13354    3    0    1
 -2      2216      2157      3531      3618
 -1     13355    3    0    1
 -2      2580       397      2585      3877
 -1     13356    3    0    1
 -2      1810      2216      3516      3618
 -1     13357    3    0    1
 -2       372      1211      3789      3617
 -1     13358    3    0    1
 -2      3278      2006      3876      3920
 -1     13359    3    0    1
 -2      3555      3291      3561      3863
 -1     13360    3    0    1
 -2      2060      3291      3555      3863
 -1     13361    3    0    1
 -2      1442      1437      3863      3667
 -1     13362    3    0    1
 -2       875       423      3039      3883
 -1     13363    3    0    1
 -2      3904      3566      3655      3671
 -1     13364    3    0    1
 -2       423      2065      1447      3883
 -1     13365    3    0    1
 -2       388      1522      3863      3667
 -1     13366    3    0    1
 -2      2064      1755      3467      3609
 -1     13367    3    0    1
 -2      1902      2064      3467      3609
 -1     13368    3    0    1
 -2      3377      1938      3565      3864
 -1     13369    3    0    1
 -2      2999      3007      3122      3614
 -1     13370    3    0    1
 -2      3442      1890      3565      3864
 -1     13371    3    0    1
 -2      1890      3377      3565      3864
 -1     13372    3    0    1
 -2      1263       542      3864      3907
 -1     13373    3    0    1
 -2      2190      1863      3537      3649
 -1     13374    3    0    1
 -2      3259      2472      3859      3907
 -1     13375    3    0    1
 -2      1553      3813      3864      3907
 -1     13376    3    0    1
 -2       542      2472      3259      3907
 -1     13377    3    0    1
 -2      2467      3256      3259      3907
 -1     13378    3    0    1
 -2      1890      2281      1263      3907
 -1     13379    3    0    1
 -2       177      2194      3329      3612
 -1     13380    3    0    1
 -2       177      3329      3857      3612
 -1     13381    3    0    1
 -2      3329      2204      3857      3612
 -1     13382    3    0    1
 -2      2194      2204      3329      3612
 -1     13383    3    0    1
 -2      2195       640       865      3865
 -1     13384    3    0    1
 -2       153        38      1050      3865
 -1     13385    3    0    1
 -2        38       865      1050      3865
 -1     13386    3    0    1
 -2       865      1041      1050      3865
 -1     13387    3    0    1
 -2        38       153      3267      3865
 -1     13388    3    0    1
 -2      1899      3172      3552      3865
 -1     13389    3    0    1
 -2       837        38      3267      3865
 -1     13390    3    0    1
 -2      3172      2195      3552      3865
 -1     13391    3    0    1
 -2      2395      1899      3552      3865
 -1     13392    3    0    1
 -2      3338      1929      3341      3867
 -1     13393    3    0    1
 -2       885       890      3339      3867
 -1     13394    3    0    1
 -2        71       885      3339      3867
 -1     13395    3    0    1
 -2       852      1481      3763      3613
 -1     13396    3    0    1
 -2      2646      1091      2650      3868
 -1     13397    3    0    1
 -2      2650      1091      3724      3868
 -1     13398    3    0    1
 -2      2646      2650      3724      3868
 -1     13399    3    0    1
 -2      1776      1677      3571      3630
 -1     13400    3    0    1
 -2      3781      1418      3642      3913
 -1     13401    3    0    1
 -2      3709      3126      3841      3913
 -1     13402    3    0    1
 -2      1418       853      3841      3913
 -1     13403    3    0    1
 -2       377      2646      3714      3868
 -1     13404    3    0    1
 -2      3714      2646      3724      3868
 -1     13405    3    0    1
 -2       853      3781      3841      3913
 -1     13406    3    0    1
 -2      3386      3283      3634      3913
 -1     13407    3    0    1
 -2      2096      2190      3537      3649
 -1     13408    3    0    1
 -2      2866      2121      3064      3868
 -1     13409    3    0    1
 -2      1094       377      3567      3868
 -1     13410    3    0    1
 -2        57      3770      3634      3913
 -1     13411    3    0    1
 -2      3465      1796      3582      3869
 -1     13412    3    0    1
 -2      3559      3465      3582      3869
 -1     13413    3    0    1
 -2      3396      3527      3579      3869
 -1     13414    3    0    1
 -2      1796      3465      3485      3869
 -1     13415    3    0    1
 -2      3527       126      3579      3869
 -1     13416    3    0    1
 -2       126      3487      3579      3869
 -1     13417    3    0    1
 -2       126      1165      3487      3869
 -1     13418    3    0    1
 -2      2312      2563      2571      3871
 -1     13419    3    0    1
 -2      2571      2563      3712      3871
 -1     13420    3    0    1
 -2      2571      3712      3746      3871
 -1     13421    3    0    1
 -2      2312      2571      3746      3871
 -1     13422    3    0    1
 -2       690       414      1927      3873
 -1     13423    3    0    1
 -2       398      2312      3746      3871
 -1     13424    3    0    1
 -2       398      2304      2312      3871
 -1     13425    3    0    1
 -2      2306      2304       915      3871
 -1     13426    3    0    1
 -2      2306       915      3746      3871
 -1     13427    3    0    1
 -2      2653      3873      2654      3835
 -1     13428    3    0    1
 -2      2306      2134      1449      3871
 -1     13429    3    0    1
 -2      1449      2134      3426      3871
 -1     13430    3    0    1
 -2      2134      1959      3426      3871
 -1     13431    3    0    1
 -2       915       398      3746      3871
 -1     13432    3    0    1
 -2       915      2304       398      3871
 -1     13433    3    0    1
 -2      1959      2306      2615      3871
 -1     13434    3    0    1
 -2       414      2653      3835      3873
 -1     13435    3    0    1
 -2      3714      3262      3835      3873
 -1     13436    3    0    1
 -2      1959      2134      2306      3871
 -1     13437    3    0    1
 -2      3714       377      3868      3873
 -1     13438    3    0    1
 -2      2868      1959      3263      3872
 -1     13439    3    0    1
 -2       624      1449      3426      3872
 -1     13440    3    0    1
 -2       845       366      3580      3872
 -1     13441    3    0    1
 -2      2267      3714      3835      3873
 -1     13442    3    0    1
 -2      3873      2654      3835      2267
 -1     13443    3    0    1
 -2      2668      1101      2677      3873
 -1     13444    3    0    1
 -2      3567      2121      3868      3873
 -1     13445    3    0    1
 -2       377      3567      3868      3873
 -1     13446    3    0    1
 -2      2677      2684      3714      3873
 -1     13447    3    0    1
 -2      2677      1101      2684      3873
 -1     13448    3    0    1
 -2      2267      2668      2677      3873
 -1     13449    3    0    1
 -2      2267      2677      3714      3873
 -1     13450    3    0    1
 -2      2121      2170      3262      3873
 -1     13451    3    0    1
 -2       414       690      1101      3873
 -1     13452    3    0    1
 -2      2121      1927      2170      3873
 -1     13453    3    0    1
 -2      1101       690      1181      3873
 -1     13454    3    0    1
 -2       377      1101      3567      3873
 -1     13455    3    0    1
 -2      1927      2121      2169      3873
 -1     13456    3    0    1
 -2      3386      3770      3841      3913
 -1     13457    3    0    1
 -2      2509      3594      3596      3874
 -1     13458    3    0    1
 -2      3596       431      3601      3874
 -1     13459    3    0    1
 -2      1631      3856      3601      3874
 -1     13460    3    0    1
 -2       431      1631      3601      3874
 -1     13461    3    0    1
 -2      3689      3115      3741      3886
 -1     13462    3    0    1
 -2      3453      3150      3879      3887
 -1     13463    3    0    1
 -2      3150      3854      3879      3887
 -1     13464    3    0    1
 -2      3874      2509      3882      3921
 -1     13465    3    0    1
 -2      2620      2006      1559      3876
 -1     13466    3    0    1
 -2       657      3690      3799      3652
 -1     13467    3    0    1
 -2      2782      3540      3876      3883
 -1     13468    3    0    1
 -2      1442       434      3863      3886
 -1     13469    3    0    1
 -2      3278      2006      3382      3876
 -1     13470    3    0    1
 -2      3866       265      3641      3920
 -1     13471    3    0    1
 -2       650      2620      1559      3876
 -1     13472    3    0    1
 -2      3278      3382      3756      3876
 -1     13473    3    0    1
 -2      1846      3516      3531      3926
 -1     13474    3    0    1
 -2       650      1408      3876      3920
 -1     13475    3    0    1
 -2      3382      2006      3540      3876
 -1     13476    3    0    1
 -2      3382      3540      3545      3876
 -1     13477    3    0    1
 -2       650      3876      3672      3920
 -1     13478    3    0    1
 -2      1819      3421      3607      3874
 -1     13479    3    0    1
 -2      2006      3399      3672      3920
 -1     13480    3    0    1
 -2      2065      3539      3545      3883
 -1     13481    3    0    1
 -2      2782      2620      3540      3883
 -1     13482    3    0    1
 -2      2782      3037      3039      3883
 -1     13483    3    0    1
 -2      2398      3430      3431      3633
 -1     13484    3    0    1
 -2      1660      1633      3888      3675
 -1     13485    3    0    1
 -2      3756      3037      3876      3883
 -1     13486    3    0    1
 -2      2620      2782      1447      3883
 -1     13487    3    0    1
 -2       423       875      3281      3883
 -1     13488    3    0    1
 -2      3430      1899      3431      3633
 -1     13489    3    0    1
 -2      1633       431      3875      3675
 -1     13490    3    0    1
 -2      3621      1660      3888      3675
 -1     13491    3    0    1
 -2      3421      2039      3607      3875
 -1     13492    3    0    1
 -2      2065       656      2174      3883
 -1     13493    3    0    1
 -2      2039      3421      3619      3875
 -1     13494    3    0    1
 -2       397       640      3816      3877
 -1     13495    3    0    1
 -2      3172      2195      3865      3877
 -1     13496    3    0    1
 -2       865      1041      3865      3877
 -1     13497    3    0    1
 -2      2584      3722      3747      3877
 -1     13498    3    0    1
 -2      2584      2591      3722      3877
 -1     13499    3    0    1
 -2      2584      1041      2591      3877
 -1     13500    3    0    1
 -2      2195       640      3865      3877
 -1     13501    3    0    1
 -2       640       865      3865      3877
 -1     13502    3    0    1
 -2      1041      2584      2593      3877
 -1     13503    3    0    1
 -2      2593      2584      3747      3877
 -1     13504    3    0    1
 -2      1041      2593      3747      3877
 -1     13505    3    0    1
 -2       865       397      1041      3877
 -1     13506    3    0    1
 -2       640       397       865      3877
 -1     13507    3    0    1
 -2      2687      2445      3765      3878
 -1     13508    3    0    1
 -2      2283       647      2674      3878
 -1     13509    3    0    1
 -2      2283      2674      3764      3878
 -1     13510    3    0    1
 -2       647       911      2674      3878
 -1     13511    3    0    1
 -2      2674       911      3860      3878
 -1     13512    3    0    1
 -2      3764      2674      3860      3878
 -1     13513    3    0    1
 -2      1636      3764      3765      3878
 -1     13514    3    0    1
 -2      2445      1636      3765      3878
 -1     13515    3    0    1
 -2       636      2445      2683      3878
 -1     13516    3    0    1
 -2      1108      3765      3766      3878
 -1     13517    3    0    1
 -2      1110      1108      3766      3878
 -1     13518    3    0    1
 -2      1108      2687      3765      3878
 -1     13519    3    0    1
 -2      1108      1110      2687      3878
 -1     13520    3    0    1
 -2      2445       636      1636      3878
 -1     13521    3    0    1
 -2      1636       636      3764      3878
 -1     13522    3    0    1
 -2      3764      2683       636      2680
 -1     13523    3    0    1
 -2      3781      3283      2107      3913
 -1     13524    3    0    1
 -2      2683      3764       636      3878
 -1     13525    3    0    1
 -2      3235      2179      3463      3878
 -1     13526    3    0    1
 -2      3002      3685      3626      3674
 -1     13527    3    0    1
 -2      3346      3002      3626      3674
 -1     13528    3    0    1
 -2      3685      3730      3626      3674
 -1     13529    3    0    1
 -2      3685      3002      3731      3674
 -1     13530    3    0    1
 -2      3002      3346      3731      3674
 -1     13531    3    0    1
 -2      3150      3400      3453      3879
 -1     13532    3    0    1
 -2      3400      1978      3453      3879
 -1     13533    3    0    1
 -2      1023      1027      3730      3674
 -1     13534    3    0    1
 -2      1273      1995      3429      3880
 -1     13535    3    0    1
 -2      1273      1983      3323      3880
 -1     13536    3    0    1
 -2      1421      1414      3323      3880
 -1     13537    3    0    1
 -2      1995      1840      3429      3880
 -1     13538    3    0    1
 -2      3411      2263      3785      3881
 -1     13539    3    0    1
 -2      3168      3153      3171      3881
 -1     13540    3    0    1
 -2      2263      1490      3171      3881
 -1     13541    3    0    1
 -2      1490      2416       367      3881
 -1     13542    3    0    1
 -2       367      2416      3411      3881
 -1     13543    3    0    1
 -2      2263      3153      3785      3881
 -1     13544    3    0    1
 -2      3153      2263      3171      3881
 -1     13545    3    0    1
 -2      2416      2263      3411      3881
 -1     13546    3    0    1
 -2      2263      2416      1490      3881
 -1     13547    3    0    1
 -2      2033      3280      3411      3881
 -1     13548    3    0    1
 -2      3280      1926      3411      3881
 -1     13549    3    0    1
 -2      1479       405      3231      3881
 -1     13550    3    0    1
 -2      3476       663      3562      3627
 -1     13551    3    0    1
 -2      1983      3476      3562      3627
 -1     13552    3    0    1
 -2      3476      1840      3626      3627
 -1     13553    3    0    1
 -2      1825       939      2602      3628
 -1     13554    3    0    1
 -2      1825       364       939      3628
 -1     13555    3    0    1
 -2       364      1825      2013      3628
 -1     13556    3    0    1
 -2      2013      1825      2602      3628
 -1     13557    3    0    1
 -2      3567      1094      3868      3629
 -1     13558    3    0    1
 -2      1094      1091      3868      3629
 -1     13559    3    0    1
 -2      3642      3781      3283      3412
 -1     13560    3    0    1
 -2        57      1418      3841      3913
 -1     13561    3    0    1
 -2       693      1256      3837      3629
 -1     13562    3    0    1
 -2      3734       693      3837      3629
 -1     13563    3    0    1
 -2       415       693      3734      3629
 -1     13564    3    0    1
 -2       853      1418      3781      3913
 -1     13565    3    0    1
 -2      1424        57      3841      3913
 -1     13566    3    0    1
 -2      1259       648      3538      3924
 -1     13567    3    0    1
 -2      3875      3421      3888      3675
 -1     13568    3    0    1
 -2       431      3421      3875      3675
 -1     13569    3    0    1
 -2      1804      3421      3611      3675
 -1     13570    3    0    1
 -2      3594      2431      3597      3882
 -1     13571    3    0    1
 -2      3597      2431      3875      3882
 -1     13572    3    0    1
 -2      3590       707      3592      3882
 -1     13573    3    0    1
 -2      1724      1710      1826      3673
 -1     13574    3    0    1
 -2      2509      3590      3592      3882
 -1     13575    3    0    1
 -2      3594      3596      3874      3882
 -1     13576    3    0    1
 -2      3596      3594      3597      3882
 -1     13577    3    0    1
 -2      3596      3597      3875      3882
 -1     13578    3    0    1
 -2      3874      3596      3875      3882
 -1     13579    3    0    1
 -2      1826      1744      1931      3673
 -1     13580    3    0    1
 -2      2039      2097      3607      3882
 -1     13581    3    0    1
 -2      3449      2714      3772      3911
 -1     13582    3    0    1
 -2      3539      2185      3545      3883
 -1     13583    3    0    1
 -2       875       272      3281      3883
 -1     13584    3    0    1
 -2      3540      2065      3545      3883
 -1     13585    3    0    1
 -2      2065      2174      3539      3883
 -1     13586    3    0    1
 -2       656       423      3281      3883
 -1     13587    3    0    1
 -2      2175      3271      3422      3884
 -1     13588    3    0    1
 -2      1179       523      3489      3884
 -1     13589    3    0    1
 -2      3292      2175      3422      3884
 -1     13590    3    0    1
 -2      3741      1373      3631      3885
 -1     13591    3    0    1
 -2      3832      3741      3631      3885
 -1     13592    3    0    1
 -2       967      3832      3631      3885
 -1     13593    3    0    1
 -2       161        69      1530      3885
 -1     13594    3    0    1
 -2      1373       161      1530      3885
 -1     13595    3    0    1
 -2       967      1373      1530      3885
 -1     13596    3    0    1
 -2      3440      2139      3561      3885
 -1     13597    3    0    1
 -2      2213       840      2471      3645
 -1     13598    3    0    1
 -2      1373       967      3631      3885
 -1     13599    3    0    1
 -2      3066      3067      3078      3886
 -1     13600    3    0    1
 -2       434      1432      3631      3886
 -1     13601    3    0    1
 -2      3115      2060      3555      3886
 -1     13602    3    0    1
 -2       121      1085      3174      3887
 -1     13603    3    0    1
 -2      3174      3854       955      3118
 -1     13604    3    0    1
 -2        37       121      3174      3887
 -1     13605    3    0    1
 -2      1660       387      3621      3888
 -1     13606    3    0    1
 -2      3421      1766      3619      3888
 -1     13607    3    0    1
 -2       387      1341      3621      3888
 -1     13608    3    0    1
 -2      3866      3538      3536      2995
 -1     13609    3    0    1
 -2      1341      2063      3621      3888
 -1     13610    3    0    1
 -2      3924      2156      3536      3538
 -1     13611    3    0    1
 -2      2156      2215      1259      3924
 -1     13612    3    0    1
 -2      1766      2099      3619      3888
 -1     13613    3    0    1
 -2       430      2063      1341      3888
 -1     13614    3    0    1
 -2      3192      3405      3812      3889
 -1     13615    3    0    1
 -2      3285      3788      3852      3889
 -1     13616    3    0    1
 -2      3285      3435      3788      3889
 -1     13617    3    0    1
 -2      2471       840      3113      3645
 -1     13618    3    0    1
 -2      3842      3706      3664      3927
 -1     13619    3    0    1
 -2      2213       109       840      3645
 -1     13620    3    0    1
 -2      3616      2223      2599      2217
 -1     13621    3    0    1
 -2      2223      3616      2599      3889
 -1     13622    3    0    1
 -2      3610       168      3616      3889
 -1     13623    3    0    1
 -2       168      1525      3616      3889
 -1     13624    3    0    1
 -2       192       168      3610      3889
 -1     13625    3    0    1
 -2      3192      3610      3616      3889
 -1     13626    3    0    1
 -2      1525       861      3616      3889
 -1     13627    3    0    1
 -2      3285      2207      3435      3889
 -1     13628    3    0    1
 -2      2207      3405      3435      3889
 -1     13629    3    0    1
 -2      3405      2223      3435      3889
 -1     13630    3    0    1
 -2      3686      2213      3548      3645
 -1     13631    3    0    1
 -2      3027      2463      3319      3890
 -1     13632    3    0    1
 -2      1928      3185      3319      3890
 -1     13633    3    0    1
 -2      3185      1928      3511      3890
 -1     13634    3    0    1
 -2      2092      3624      3665      3676
 -1     13635    3    0    1
 -2       118      1303      3898      3676
 -1     13636    3    0    1
 -2       118      3727      3665      3676
 -1     13637    3    0    1
 -2      2765      1165      3869      3891
 -1     13638    3    0    1
 -2      2768      2757      2770      3891
 -1     13639    3    0    1
 -2      2768      2770      3752      3891
 -1     13640    3    0    1
 -2       633      2768      3752      3891
 -1     13641    3    0    1
 -2       633      2762      2768      3891
 -1     13642    3    0    1
 -2      2757      2450      2770      3891
 -1     13643    3    0    1
 -2      2770      2450      3752      3891
 -1     13644    3    0    1
 -2      3752      2450      3807      3891
 -1     13645    3    0    1
 -2      3465      3485      3869      3891
 -1     13646    3    0    1
 -2      1165      3465      3869      3891
 -1     13647    3    0    1
 -2      2450      2757      2764      3891
 -1     13648    3    0    1
 -2      2764      2757      3807      3891
 -1     13649    3    0    1
 -2      2450      2764      3807      3891
 -1     13650    3    0    1
 -2      2136      3193      3485      3891
 -1     13651    3    0    1
 -2      3193      2136      3438      3891
 -1     13652    3    0    1
 -2      3465      2136      3485      3891
 -1     13653    3    0    1
 -2      3291      3832      3863      3894
 -1     13654    3    0    1
 -2      1987      2255      3473      3894
 -1     13655    3    0    1
 -2      2255      1987      1013      3894
 -1     13656    3    0    1
 -2      1013      1987      3229      3894
 -1     13657    3    0    1
 -2       388      1013      3229      3894
 -1     13658    3    0    1
 -2       388      3229      3291      3894
 -1     13659    3    0    1
 -2      3291      3473      3551      3894
 -1     13660    3    0    1
 -2      3291      1987      3473      3894
 -1     13661    3    0    1
 -2      3229      1987      3291      3894
 -1     13662    3    0    1
 -2      2522       998      2523      3895
 -1     13663    3    0    1
 -2      2523       998      3843      3895
 -1     13664    3    0    1
 -2      2522      2523      3843      3895
 -1     13665    3    0    1
 -2      2150      3380      3384      3895
 -1     13666    3    0    1
 -2      3380      2150      3452      3895
 -1     13667    3    0    1
 -2      3716      2889      3775      3896
 -1     13668    3    0    1
 -2      1291       416      3775      3896
 -1     13669    3    0    1
 -2       416      1291      2889      3896
 -1     13670    3    0    1
 -2      2889      1291      3775      3896
 -1     13671    3    0    1
 -2      1559      2006      3842      3914
 -1     13672    3    0    1
 -2      2126      3399      3546      3914
 -1     13673    3    0    1
 -2      2126      3451      3466      3896
 -1     13674    3    0    1
 -2      3451      1946      3466      3896
 -1     13675    3    0    1
 -2      1294       378      3547      3896
 -1     13676    3    0    1
 -2      3514      2006      3842      3664
 -1     13677    3    0    1
 -2      1465       528      3842      3914
 -1     13678    3    0    1
 -2      3896      3547      3663      3914
 -1     13679    3    0    1
 -2      1099      1103      3772      3638
 -1     13680    3    0    1
 -2       188      3774      3796      3639
 -1     13681    3    0    1
 -2      3774      2277      3796      3639
 -1     13682    3    0    1
 -2      2277      2276      3796      3639
 -1     13683    3    0    1
 -2      1124       188      3796      3639
 -1     13684    3    0    1
 -2      2276      1124      3796      3639
 -1     13685    3    0    1
 -2      1744      1826      1929      3640
 -1     13686    3    0    1
 -2      1744      1988      3494      3640
 -1     13687    3    0    1
 -2      3727      1305      3576      3897
 -1     13688    3    0    1
 -2      3779      1237      3780      3897
 -1     13689    3    0    1
 -2      3727      3779      3780      3897
 -1     13690    3    0    1
 -2      1237      3727      3780      3897
 -1     13691    3    0    1
 -2      1672      2124      3343      3897
 -1     13692    3    0    1
 -2      2124      3230      3343      3897
 -1     13693    3    0    1
 -2      1299        52      3576      3897
 -1     13694    3    0    1
 -2      1237      1299      3576      3897
 -1     13695    3    0    1
 -2      1305      1237      3576      3897
 -1     13696    3    0    1
 -2      1639      1655      3921      3925
 -1     13697    3    0    1
 -2      3918      2097      3921      3925
 -1     13698    3    0    1
 -2      3201      3477      3481      3898
 -1     13699    3    0    1
 -2      1297      1303      3181      3898
 -1     13700    3    0    1
 -2      3477      2092      3481      3898
 -1     13701    3    0    1
 -2       694      1297      3181      3898
 -1     13702    3    0    1
 -2       707      3918      3921      3925
 -1     13703    3    0    1
 -2      2097      1826      3620      3925
 -1     13704    3    0    1
 -2       416      1291      3775      3663
 -1     13705    3    0    1
 -2       416      3775      3896      3663
 -1     13706    3    0    1
 -2      1115      1465      3842      3914
 -1     13707    3    0    1
 -2      3414      3448      3899      3644
 -1     13708    3    0    1
 -2      3889      2599       861      3616
 -1     13709    3    0    1
 -2       520      1792      1185      3644
 -1     13710    3    0    1
 -2      3205      3750      3885      3901
 -1     13711    3    0    1
 -2      1934        43      3187      3899
 -1     13712    3    0    1
 -2      1486      1477      3448      3899
 -1     13713    3    0    1
 -2       687      1486      3448      3899
 -1     13714    3    0    1
 -2      3232      1934      3643      3899
 -1     13715    3    0    1
 -2      3760      3153      3785      3900
 -1     13716    3    0    1
 -2      3187      3643      3899      3900
 -1     13717    3    0    1
 -2      1477        43      3448      3899
 -1     13718    3    0    1
 -2      1934      3187      3643      3899
 -1     13719    3    0    1
 -2      3158      3153      3760      3900
 -1     13720    3    0    1
 -2      1185      3276      3785      3644
 -1     13721    3    0    1
 -2      3232      1792      3414      3644
 -1     13722    3    0    1
 -2      1792      3232      3276      3644
 -1     13723    3    0    1
 -2      1481      3159      3763      3900
 -1     13724    3    0    1
 -2        43      1481      3763      3900
 -1     13725    3    0    1
 -2      1481        43      3159      3900
 -1     13726    3    0    1
 -2      3154      3158      3760      3900
 -1     13727    3    0    1
 -2      3158      3154      3159      3900
 -1     13728    3    0    1
 -2      3159      3154      3760      3900
 -1     13729    3    0    1
 -2        43      3187      3899      3900
 -1     13730    3    0    1
 -2      1477        43      3899      3900
 -1     13731    3    0    1
 -2      3158      1486      3165      3900
 -1     13732    3    0    1
 -2      3153      3158      3165      3900
 -1     13733    3    0    1
 -2      3153      3165      3785      3900
 -1     13734    3    0    1
 -2       687      1486      3899      3900
 -1     13735    3    0    1
 -2      3785       687      3899      3900
 -1     13736    3    0    1
 -2      1486       687      3165      3900
 -1     13737    3    0    1
 -2      3165       687      3785      3900
 -1     13738    3    0    1
 -2      3279      2033      3643      3900
 -1     13739    3    0    1
 -2      3187      3279      3643      3900
 -1     13740    3    0    1
 -2      3324      2599      3506      3901
 -1     13741    3    0    1
 -2        69       161      3506      3901
 -1     13742    3    0    1
 -2      2599       861      1523      3901
 -1     13743    3    0    1
 -2      2599      3889       861      3901
 -1     13744    3    0    1
 -2      2223      3205      3435      3901
 -1     13745    3    0    1
 -2      2049      1789      3467      3680
 -1     13746    3    0    1
 -2      1724      1826      1931      3673
 -1     13747    3    0    1
 -2      3609      3467      3670      3680
 -1     13748    3    0    1
 -2       649      3814      3668      3926
 -1     13749    3    0    1
 -2      1282      1382      3815      3926
 -1     13750    3    0    1
 -2        67      3856      1653      3671
 -1     13751    3    0    1
 -2      1872      3611      3655      3671
 -1     13752    3    0    1
 -2      2838      1241      3794      3902
 -1     13753    3    0    1
 -2      1243       112      3793      3902
 -1     13754    3    0    1
 -2       112      1243      2838      3902
 -1     13755    3    0    1
 -2       869      2832      2837      3902
 -1     13756    3    0    1
 -2       187       869      2837      3902
 -1     13757    3    0    1
 -2      1889       187      2837      3902
 -1     13758    3    0    1
 -2       187      1889       869      3902
 -1     13759    3    0    1
 -2      1889      2837      3422      3902
 -1     13760    3    0    1
 -2      1851      1881      1896      3677
 -1     13761    3    0    1
 -2      2937      1889      3504      3902
 -1     13762    3    0    1
 -2       869      1889      2937      3902
 -1     13763    3    0    1
 -2      1889      3422      3504      3902
 -1     13764    3    0    1
 -2       112       869      2937      3902
 -1     13765    3    0    1
 -2      2837      3422      3902      3903
 -1     13766    3    0    1
 -2      2832      2836      2837      3903
 -1     13767    3    0    1
 -2      1239       691      3884      3903
 -1     13768    3    0    1
 -2       691      1239      2836      3903
 -1     13769    3    0    1
 -2      3784      2845      3800      3903
 -1     13770    3    0    1
 -2      2845      2831      3800      3903
 -1     13771    3    0    1
 -2      2832      2837      3902      3903
 -1     13772    3    0    1
 -2      3794      2832      3902      3903
 -1     13773    3    0    1
 -2      3271      2019      3422      3903
 -1     13774    3    0    1
 -2      1677      3566      3571      3904
 -1     13775    3    0    1
 -2      1559       650      3876      3672
 -1     13776    3    0    1
 -2      3442      1890      3864      3907
 -1     13777    3    0    1
 -2      3649      3695      1863      3908
 -1     13778    3    0    1
 -2       893       881      3726      3650
 -1     13779    3    0    1
 -2        71      3726      3623      3650
 -1     13780    3    0    1
 -2        71       893      3726      3650
 -1     13781    3    0    1
 -2       183        66      3738      3651
 -1     13782    3    0    1
 -2      1589       872      3834      3651
 -1     13783    3    0    1
 -2      3834       872      3572      3651
 -1     13784    3    0    1
 -2      1349       425      3754      3652
 -1     13785    3    0    1
 -2       995       366      2868      3905
 -1     13786    3    0    1
 -2      3722      1039      3804      3905
 -1     13787    3    0    1
 -2      3124       425      3799      3652
 -1     13788    3    0    1
 -2       425      3124      3754      3652
 -1     13789    3    0    1
 -2      3754      3124      3799      3652
 -1     13790    3    0    1
 -2      1365      1362      3754      3652
 -1     13791    3    0    1
 -2      1362      1349      3754      3652
 -1     13792    3    0    1
 -2       402      3753      3804      3905
 -1     13793    3    0    1
 -2       402       995      3753      3905
 -1     13794    3    0    1
 -2      2578      1039      3722      3905
 -1     13795    3    0    1
 -2      2578      1035      1039      3905
 -1     13796    3    0    1
 -2      1035      2578      3700      3905
 -1     13797    3    0    1
 -2      3700      2578      3722      3905
 -1     13798    3    0    1
 -2      3273      3700      3722      3905
 -1     13799    3    0    1
 -2      2868       366      3872      3905
 -1     13800    3    0    1
 -2      3263       365      3700      3905
 -1     13801    3    0    1
 -2       365      1035      2575      3905
 -1     13802    3    0    1
 -2      2575      1035      3700      3905
 -1     13803    3    0    1
 -2       365      2575      3700      3905
 -1     13804    3    0    1
 -2      3273      3263      3700      3905
 -1     13805    3    0    1
 -2      3263      2868      3872      3905
 -1     13806    3    0    1
 -2       365      3263      3872      3905
 -1     13807    3    0    1
 -2      3580       365      3872      3905
 -1     13808    3    0    1
 -2       366      3580      3872      3905
 -1     13809    3    0    1
 -2      1039      1035      3512      3905
 -1     13810    3    0    1
 -2      1035       365      3512      3905
 -1     13811    3    0    1
 -2       366       995      3512      3905
 -1     13812    3    0    1
 -2       995       402      3512      3905
 -1     13813    3    0    1
 -2      1039      3804      3512       401
 -1     13814    3    0    1
 -2       365       366      3512      3905
 -1     13815    3    0    1
 -2      2868      3263      3273      3905
 -1     13816    3    0    1
 -2       366       365      3580      3905
 -1     13817    3    0    1
 -2      1721      2803      3496      3906
 -1     13818    3    0    1
 -2      2803      3236      3496      3906
 -1     13819    3    0    1
 -2      3524      2454      3654      3906
 -1     13820    3    0    1
 -2       156      3524      3654      3906
 -1     13821    3    0    1
 -2       932       190      3524      3906
 -1     13822    3    0    1
 -2       980       932      3524      3906
 -1     13823    3    0    1
 -2       156       980      3524      3906
 -1     13824    3    0    1
 -2      1781      3524      3581      3906
 -1     13825    3    0    1
 -2      3524       190      3581      3906
 -1     13826    3    0    1
 -2      3683      1078      3879      3922
 -1     13827    3    0    1
 -2      3620      3856      3646      3921
 -1     13828    3    0    1
 -2      1804      3277      3611      3655
 -1     13829    3    0    1
 -2      3277      1872      3611      3655
 -1     13830    3    0    1
 -2      2006      1559      3876      3672
 -1     13831    3    0    1
 -2      2509      3590      3882      3921
 -1     13832    3    0    1
 -2      1553      3813      3256      1073
 -1     13833    3    0    1
 -2      3813      1553      3256      3907
 -1     13834    3    0    1
 -2       527      2076      2215      3656
 -1     13835    3    0    1
 -2      2076      1846      2215      3656
 -1     13836    3    0    1
 -2      1169      3693      2765      3869
 -1     13837    3    0    1
 -2      2213      2332      3004      3657
 -1     13838    3    0    1
 -2      2213      3004      3686      3657
 -1     13839    3    0    1
 -2       382      2620      1447      3927
 -1     13840    3    0    1
 -2      3817       132      3677      3678
 -1     13841    3    0    1
 -2       630      2028      3658      3678
 -1     13842    3    0    1
 -2      3776      1177      3817      3678
 -1     13843    3    0    1
 -2      2028      3776      3817      3678
 -1     13844    3    0    1
 -2      1476       132      3817      3678
 -1     13845    3    0    1
 -2      3483      3817      3658      3678
 -1     13846    3    0    1
 -2      1881      2028      3483      3658
 -1     13847    3    0    1
 -2       698      1968      1161      3908
 -1     13848    3    0    1
 -2      1161      1968      3659      3908
 -1     13849    3    0    1
 -2      2096      3537      3659      3908
 -1     13850    3    0    1
 -2      3537      1401      3659      3908
 -1     13851    3    0    1
 -2      1075      1401      3537      3908
 -1     13852    3    0    1
 -2       272      1075      3537      3908
 -1     13853    3    0    1
 -2      1401       698      3659      3908
 -1     13854    3    0    1
 -2      3281       272      3537      3908
 -1     13855    3    0    1
 -2       698      1161      3659      3908
 -1     13856    3    0    1
 -2      3526      3822      3825      3660
 -1     13857    3    0    1
 -2      2998      3526      3825      3660
 -1     13858    3    0    1
 -2        47      3486      3825      3660
 -1     13859    3    0    1
 -2      3774      2998      3639      3660
 -1     13860    3    0    1
 -2      1325      3774      3639      3660
 -1     13861    3    0    1
 -2      3750       933      3622      3909
 -1     13862    3    0    1
 -2       837      2395      3189      3909
 -1     13863    3    0    1
 -2       837        72      2395      3909
 -1     13864    3    0    1
 -2      2200      3189      3577      3909
 -1     13865    3    0    1
 -2      3189      2200      3541      3909
 -1     13866    3    0    1
 -2      3324      2200      3506      3909
 -1     13867    3    0    1
 -2        49        72      3541      3909
 -1     13868    3    0    1
 -2      3541      3324      3622      3909
 -1     13869    3    0    1
 -2      1434      3541      3622      3909
 -1     13870    3    0    1
 -2      2395      2081      3577      3909
 -1     13871    3    0    1
 -2      1434        49      3541      3909
 -1     13872    3    0    1
 -2        72      3189      3541      3909
 -1     13873    3    0    1
 -2       933      1434      3622      3909
 -1     13874    3    0    1
 -2        72       837      3189      3909
 -1     13875    3    0    1
 -2      3324      3506      3622      3909
 -1     13876    3    0    1
 -2       976       974      3558      3910
 -1     13877    3    0    1
 -2      3395      3268      3415      3910
 -1     13878    3    0    1
 -2      2803      3268      3395      3910
 -1     13879    3    0    1
 -2      2803      1912      3268      3910
 -1     13880    3    0    1
 -2      3814      1846      3656      3668
 -1     13881    3    0    1
 -2        64      3801      3647      3670
 -1     13882    3    0    1
 -2      2301      2653      2659      3911
 -1     13883    3    0    1
 -2      2659      2653      3835      3911
 -1     13884    3    0    1
 -2      2663      1099      2667      3911
 -1     13885    3    0    1
 -2      2667      1099      3772      3911
 -1     13886    3    0    1
 -2      2666      2667      3772      3911
 -1     13887    3    0    1
 -2      2666      2301      2667      3911
 -1     13888    3    0    1
 -2      2659      1099      2663      3911
 -1     13889    3    0    1
 -2      2025      3772      3829      3911
 -1     13890    3    0    1
 -2      3449      2025      3829      3911
 -1     13891    3    0    1
 -2      2025      3449      3772      3911
 -1     13892    3    0    1
 -2      3772      1099      3829      3911
 -1     13893    3    0    1
 -2      2301       264      1307      3911
 -1     13894    3    0    1
 -2      1307       264      3860      3911
 -1     13895    3    0    1
 -2      3835       414      3873      3911
 -1     13896    3    0    1
 -2      2170      3835      3873      3911
 -1     13897    3    0    1
 -2       414      2170      3873      3911
 -1     13898    3    0    1
 -2      1307       414      2653      3911
 -1     13899    3    0    1
 -2      2653       414      3835      3911
 -1     13900    3    0    1
 -2       264      2301      2666      3911
 -1     13901    3    0    1
 -2       264      2666      2671      3911
 -1     13902    3    0    1
 -2      2671      2666      3860      3911
 -1     13903    3    0    1
 -2       264      2671      3860      3911
 -1     13904    3    0    1
 -2      1099       638      3829      3911
 -1     13905    3    0    1
 -2       638      1099      2659      3911
 -1     13906    3    0    1
 -2       638      2659      3835      3911
 -1     13907    3    0    1
 -2      3829       638      3835      3911
 -1     13908    3    0    1
 -2      2170      2714      3449      3911
 -1     13909    3    0    1
 -2      1418        57      3642      3913
 -1     13910    3    0    1
 -2      3126      2107      3386      3913
 -1     13911    3    0    1
 -2      3634      3283      3642      3913
 -1     13912    3    0    1
 -2        57      3634      3642      3913
 -1     13913    3    0    1
 -2      2006      2126      3514      3914
 -1     13914    3    0    1
 -2      2126      2006      3399      3914
 -1     13915    3    0    1
 -2      1559       528      3546      3914
 -1     13916    3    0    1
 -2      3546       528      3547      3914
 -1     13917    3    0    1
 -2       378      3546      3547      3914
 -1     13918    3    0    1
 -2       528      1465      3547      3914
 -1     13919    3    0    1
 -2      1465      1115      3547      3914
 -1     13920    3    0    1
 -2      3547      1115      3663      3914
 -1     13921    3    0    1
 -2      3514      2041      3842      3915
 -1     13922    3    0    1
 -2      2126      3514      3914      3915
 -1     13923    3    0    1
 -2      3896      2126      3914      3915
 -1     13924    3    0    1
 -2      3093      3097      3706      3915
 -1     13925    3    0    1
 -2      3093       695      3097      3915
 -1     13926    3    0    1
 -2       695      3093      3101      3915
 -1     13927    3    0    1
 -2      3101      3093      3706      3915
 -1     13928    3    0    1
 -2      2041      2409      3706      3915
 -1     13929    3    0    1
 -2      3706      2409      3775      3915
 -1     13930    3    0    1
 -2      2409      3466      3775      3915
 -1     13931    3    0    1
 -2      1115      1462      3663      3915
 -1     13932    3    0    1
 -2      1462       695      3663      3915
 -1     13933    3    0    1
 -2      2126      3466      3514      3915
 -1     13934    3    0    1
 -2      3466      2041      3514      3915
 -1     13935    3    0    1
 -2      2409      2041      3466      3915
 -1     13936    3    0    1
 -2       707      3918      3925      3679
 -1     13937    3    0    1
 -2      1828      1949      1970      3665
 -1     13938    3    0    1
 -2      1970      1949      3625      3665
 -1     13939    3    0    1
 -2      1828      1672      1949      3665
 -1     13940    3    0    1
 -2      3343      2092      3625      3665
 -1     13941    3    0    1
 -2      1672      3343      3625      3665
 -1     13942    3    0    1
 -2      1949      1672      3625      3665
 -1     13943    3    0    1
 -2       550      1531      3560      3916
 -1     13944    3    0    1
 -2       929       550      3560      3916
 -1     13945    3    0    1
 -2      1531      1267      3560      3916
 -1     13946    3    0    1
 -2      2131      3371      3450      3916
 -1     13947    3    0    1
 -2      1203       929      3560      3916
 -1     13948    3    0    1
 -2       386      1203      3560      3916
 -1     13949    3    0    1
 -2       706       429      3836      3917
 -1     13950    3    0    1
 -2      1520       706      3836      3917
 -1     13951    3    0    1
 -2       429      1347      2942      3917
 -1     13952    3    0    1
 -2       429      2942      3808      3917
 -1     13953    3    0    1
 -2      1492      1347      1520      3917
 -1     13954    3    0    1
 -2      1347       429      1520      3917
 -1     13955    3    0    1
 -2       168       192      1347      3917
 -1     13956    3    0    1
 -2       168      1347      1492      3917
 -1     13957    3    0    1
 -2       429       706      1520      3917
 -1     13958    3    0    1
 -2      1755      3467      3609      3680
 -1     13959    3    0    1
 -2       551      1193      3494      3918
 -1     13960    3    0    1
 -2      3768      3400      3879      3922
 -1     13961    3    0    1
 -2      3814      1846      3668      3926
 -1     13962    3    0    1
 -2      1125       693      3837      3922
 -1     13963    3    0    1
 -2      3866      3538      3641      3924
 -1     13964    3    0    1
 -2      1384       649      3814      3668
 -1     13965    3    0    1
 -2      1379      1384      3814      3668
 -1     13966    3    0    1
 -2      1765      1851      1896      3677
 -1     13967    3    0    1
 -2      1881      3483      3817      3677
 -1     13968    3    0    1
 -2      3534      1881      3853      3677
 -1     13969    3    0    1
 -2      1881      3817      3853      3677
 -1     13970    3    0    1
 -2      1437      1445      3823      3919
 -1     13971    3    0    1
 -2      1437      3863      3667      3919
 -1     13972    3    0    1
 -2      2060      3229      3291      3919
 -1     13973    3    0    1
 -2       389      1445      3666      3919
 -1     13974    3    0    1
 -2      1067       389      3666      3919
 -1     13975    3    0    1
 -2      3228      1067      3666      3919
 -1     13976    3    0    1
 -2       388      3666      3667      3919
 -1     13977    3    0    1
 -2      3666      1445      3667      3919
 -1     13978    3    0    1
 -2      1445      1437      3667      3919
 -1     13979    3    0    1
 -2      3856      1631      1653      3681
 -1     13980    3    0    1
 -2      3611      3421      3655      3681
 -1     13981    3    0    1
 -2      3856      1653      3671      3681
 -1     13982    3    0    1
 -2      1872      3566      3615      3671
 -1     13983    3    0    1
 -2      3615      3566      3904      3671
 -1     13984    3    0    1
 -2      3630      3615      3904      3671
 -1     13985    3    0    1
 -2        67      3630      3904      3671
 -1     13986    3    0    1
 -2      3399      1612      3546      3672
 -1     13987    3    0    1
 -2      3768      3837      2850      3710
 -1     13988    3    0    1
 -2      3546      1559      3914      3672
 -1     13989    3    0    1
 -2      2006      3546      3914      3672
 -1     13990    3    0    1
 -2      1559      2006      3914      3672
 -1     13991    3    0    1
 -2      1251      1125      3768      3922
 -1     13992    3    0    1
 -2      2186      2995      3569      3920
 -1     13993    3    0    1
 -2      2995      2186      3536      3920
 -1     13994    3    0    1
 -2      2995      3866      3641      3920
 -1     13995    3    0    1
 -2      1404      1408      3569      3920
 -1     13996    3    0    1
 -2      3569      1408      3672      3920
 -1     13997    3    0    1
 -2       265      1404      3569      3920
 -1     13998    3    0    1
 -2      1408       650      3672      3920
 -1     13999    3    0    1
 -2      2006      3278      3399      3920
 -1     14000    3    0    1
 -2      3278      2186      3399      3920
 -1     14001    3    0    1
 -2      2186      3278      3536      3920
 -1     14002    3    0    1
 -2       265      3569      3641      3920
 -1     14003    3    0    1
 -2      3569      2995      3641      3920
 -1     14004    3    0    1
 -2      3882       707      3918      3921
 -1     14005    3    0    1
 -2      1650      1639      3587      3921
 -1     14006    3    0    1
 -2      3856      1650      3586      3921
 -1     14007    3    0    1
 -2      3586      1650      3587      3921
 -1     14008    3    0    1
 -2      3702      1282      3815      3926
 -1     14009    3    0    1
 -2       170      1639      1650      3921
 -1     14010    3    0    1
 -2      1650      3856      3620      3921
 -1     14011    3    0    1
 -2       170      1650      3620      3921
 -1     14012    3    0    1
 -2      2097      3620      3646      3921
 -1     14013    3    0    1
 -2      2189      3400      3768      3922
 -1     14014    3    0    1
 -2      1846      3531      3668      3926
 -1     14015    3    0    1
 -2      3531      3516      3648      3926
 -1     14016    3    0    1
 -2      3516      3815      3618      3926
 -1     14017    3    0    1
 -2      3532      3702      3815      3926
 -1     14018    3    0    1
 -2      1078      1125      1251      3922
 -1     14019    3    0    1
 -2      1078       693      1125      3922
 -1     14020    3    0    1
 -2       114        36      1251      3922
 -1     14021    3    0    1
 -2        36      1078      1251      3922
 -1     14022    3    0    1
 -2       415       693      1078      3922
 -1     14023    3    0    1
 -2      1973      2039      2400      3923
 -1     14024    3    0    1
 -2      1973      2400      1564      3923
 -1     14025    3    0    1
 -2      2119      1973      1564      3923
 -1     14026    3    0    1
 -2      2400      2039      1341      3923
 -1     14027    3    0    1
 -2      1341      2039      3875      3923
 -1     14028    3    0    1
 -2      2400       387      2716      3923
 -1     14029    3    0    1
 -2      2431      3875      3882      3923
 -1     14030    3    0    1
 -2      2431      3604      3875      3923
 -1     14031    3    0    1
 -2      2716      3600      3604      3923
 -1     14032    3    0    1
 -2      3604      3600      3875      3923
 -1     14033    3    0    1
 -2      3604      2431      3606      3923
 -1     14034    3    0    1
 -2      3606      2431      3882      3923
 -1     14035    3    0    1
 -2       387      1341      3875      3923
 -1     14036    3    0    1
 -2       387      2400      1341      3923
 -1     14037    3    0    1
 -2      2716       387      3600      3923
 -1     14038    3    0    1
 -2      3600       387      3875      3923
 -1     14039    3    0    1
 -2      2039      2119      3662      3923
 -1     14040    3    0    1
 -2      2039      1973      2119      3923
 -1     14041    3    0    1
 -2      2156      1259      3538      3924
 -1     14042    3    0    1
 -2      1928      2215      3536      3924
 -1     14043    3    0    1
 -2      3538      1406      3641      3924
 -1     14044    3    0    1
 -2      1406      1261      3641      3924
 -1     14045    3    0    1
 -2      2092      3727      3898      3676
 -1     14046    3    0    1
 -2      2092      2017      3624      3676
 -1     14047    3    0    1
 -2      2017      2092      3477      3676
 -1     14048    3    0    1
 -2      1639       170      3673      3925
 -1     14049    3    0    1
 -2      1798      1755      3609      3680
 -1     14050    3    0    1
 -2      1826      2097      3640      3925
 -1     14051    3    0    1
 -2      1755      1798      2049      3680
 -1     14052    3    0    1
 -2      3640      2097      3662      3925
 -1     14053    3    0    1
 -2      3467      3801      3670      3680
 -1     14054    3    0    1
 -2       649      1282      3702      3926
 -1     14055    3    0    1
 -2       649      3702      3814      3926
 -1     14056    3    0    1
 -2      3648      1282      3668      3926
 -1     14057    3    0    1
 -2      3531      3648      3668      3926
 -1     14058    3    0    1
 -2      1382      1282      3648      3926
 -1     14059    3    0    1
 -2      1846      2018      3516      3926
 -1     14060    3    0    1
 -2      1282       649      3668      3926
 -1     14061    3    0    1
 -2       185      1382      3648      3926
 -1     14062    3    0    1
 -2      2018      1846      3532      3926
 -1     14063    3    0    1
 -2      3618       185      3648      3926
 -1     14064    3    0    1
 -2      2286      3706      3842      3927
 -1     14065    3    0    1
 -2      2620      2689      3842      3927
 -1     14066    3    0    1
 -2       132      3534      3853      3677
 -1     14067    3    0    1
 -2      3817       132      3853      3677
 -1     14068    3    0    1
 -2       630      1177      3776      3678
 -1     14069    3    0    1
 -2      2028       630      3776      3678
 -1     14070    3    0    1
 -2      2065      1447      3540      3927
 -1     14071    3    0    1
 -2      2065       382      1447      3927
 -1     14072    3    0    1
 -2       382      3418      3755      3927
 -1     14073    3    0    1
 -2      1279       382      3755      3927
 -1     14074    3    0    1
 -2       382      2065      3418      3927
 -1     14075    3    0    1
 -2      2286      1279      3112      3927
 -1     14076    3    0    1
 -2      2286      3112      3706      3927
 -1     14077    3    0    1
 -2      3540      3842      2620      2006
 -1     14078    3    0    1
 -2      3842      3540      2620      3927
 -1     14079    3    0    1
 -2      3706      3418      3664      3927
 -1     14080    3    0    1
 -2      3418      3706      3755      3927
 -1     14081    3    0    1
 -2      1279      1463      3112      3927
 -1     14082    3    0    1
 -2      3112      1463      3706      3927
 -1     14083    3    0    1
 -2      1463      1279      3755      3927
 -1     14084    3    0    1
 -2      3706      1463      3755      3927
 -1     14085    3    0    1
 -2      2065      3540      3664      3927
 -1     14086    3    0    1
 -2      3418      2065      3664      3927
 -1     14087    3    0    1
 -2      1755      2049      3467      3680
 -1     14088    3    0    1
 -2      1819      3421      3856      3681
 -1     14089    3    0    1
 -2      1631      3856      3874      3681
 -1     14090    3    0    1
 -2       431      1631      3874      3681
 -1     14091    3    0    1
 -2      3856      3421      3874      3681
 -1     14092    3    0    1
 -2      3421       431      3874      3681
 -1     14093    3    0    1
 -2      3421      1819      3655      3681
 -3
    1PSTEP                         1           1           1          
  100CL  101 1.000000000        3927                     0    1           1
 -4  DISP        4    1
 -5  D1          1    2    1    0
 -5  D2          1    2    2    0
 -5  D3          1    2    3    0
 -5  ALL         1    2    0    0    1ALL
 -1         1 0.00000E+00 0.00000E+00 0.00000E+00
 -1         2 0.00000E+00 0.00000E+00 0.00000E+00
 -1         3 0.00000E+00 0.00000E+00 0.00000E+00
 -1         4 0.00000E+00 0.00000E+00 0.00000E+00
 -1         5 0.00000E+00 0.00000E+00 0.00000E+00
 -1         6 0.00000E+00 0.00000E+00 0.00000E+00
 -1         7 0.00000E+00 0.00000E+00 0.00000E+00
 -1         8 0.00000E+00 0.00000E+00 0.00000E+00
 -1         9 0.00000E+00 0.00000E+00 0.00000E+00
 -1        10 0.00000E+00 0.00000E+00 0.00000E+00
 -1        11 0.00000E+00 0.00000E+00 0.00000E+00
 -1        12 0.00000E+00 0.00000E+00 0.00000E+00
 -1        13 0.00000E+00 0.00000E+00 0.00000E+00
 -1        14 0.00000E+00 0.00000E+00 0.00000E+00
 -1        15 0.00000E+00 0.00000E+00 0.00000E+00
 -1        16 0.00000E+00 0.00000E+00 0.00000E+00
 -1        17 0.00000E+00 0.00000E+00 0.00000E+00
 -1        18 0.00000E+00 0.00000E+00 0.00000E+00
 -1        19 0.00000E+00 0.00000E+00 0.00000E+00
 -1        20 0.00000E+00 0.00000E+00 0.00000E+00
 -1        21 0.00000E+00 0.00000E+00 0.00000E+00
 -1        22 0.00000E+00 0.00000E+00 0.00000E+00
 -1        23 0.00000E+00 0.00000E+00 0.00000E+00
 -1        24 0.00000E+00 0.00000E+00 0.00000E+00
 -1        25 0.00000E+00 0.00000E+00 0.00000E+00
 -1        26 0.00000E+00 0.00000E+00 0.00000E+00
 -1        27 0.00000E+00 0.00000E+00 0.00000E+00
 -1        28 0.00000E+00 0.00000E+00 0.00000E+00
 -1        29 0.00000E+00 0.00000E+00 0.00000E+00
 -1        30 0.00000E+00 0.00000E+00 0.00000E+00
 -1        31 1.79329E-02-8.40241E-03-4.92571E-01
 -1        32 0.00000E+00 0.00000E+00 0.00000E+00
 -1        33 1.85681E-02-6.86882E-03-1.41489E-01
 -1        34 0.00000E+00 0.00000E+00 0.00000E+00
 -1        35 0.00000E+00 0.00000E+00 0.00000E+00
 -1        36 7.96921E-03-1.76860E-02-4.98384E-01
 -1        37 1.45578E-02-1.32544E-02-4.97039E-01
 -1        38 7.67423E-03 1.68483E-02-4.93664E-01
 -1        39 0.00000E+00 0.00000E+00 0.00000E+00
 -1        40 1.78349E-02 6.70430E-03-4.92320E-01
 -1        41 0.00000E+00 0.00000E+00 0.00000E+00
 -1        42 0.00000E+00 0.00000E+00 0.00000E+00
 -1        43 1.79195E-02 6.39281E-03-1.40192E-01
 -1        44 1.93399E-02 1.89813E-04-1.40130E-01
 -1        45 0.00000E+00 0.00000E+00 0.00000E+00
 -1        46 0.00000E+00 0.00000E+00 0.00000E+00
 -1        47 1.90653E-02-1.95195E-03-4.93688E-01
 -1        48 0.00000E+00 0.00000E+00 0.00000E+00
 -1        49 1.03628E-03 1.85613E-02-4.93438E-01
 -1        50 0.00000E+00 0.00000E+00 0.00000E+00
 -1        51 0.00000E+00 0.00000E+00 0.00000E+00
 -1        52 7.67598E-03-1.78540E-02-1.52358E-01
 -1        53-6.78552E-03-1.73969E-02-1.47864E-01
 -1        54-1.93178E-02 5.88255E-04-4.87084E-01
 -1        55-1.76108E-02-6.78672E-03-4.91531E-01
 -1        56-1.79298E-02 4.18834E-03-4.87905E-01
 -1        57-1.91852E-02-4.45663E-04-1.42440E-01
 -1        58 0.00000E+00 0.00000E+00 0.00000E+00
 -1        59-1.36839E-02-1.30417E-02-1.47798E-01
 -1        60 0.00000E+00 0.00000E+00 0.00000E+00
 -1        61 0.00000E+00 0.00000E+00 0.00000E+00
 -1        62 0.00000E+00 0.00000E+00 0.00000E+00
 -1        63-1.33702E-02 1.21796E-02-1.44163E-01
 -1        64-1.68963E-02 6.68349E-03-1.42224E-01
 -1        65-1.43113E-02 1.12385E-02-4.89057E-01
 -1        66-1.76797E-02-6.81522E-03-4.90520E-01
 -1        67-7.05733E-03 1.67933E-02-1.47579E-01
 -1        68 0.00000E+00 0.00000E+00 0.00000E+00
 -1        69-7.84445E-03 1.63425E-02-4.93881E-01
 -1        70-5.85473E-04-1.89277E-02-5.00698E-01
 -1        71 7.44329E-04 1.85238E-02-1.48367E-01
 -1        72 7.70152E-03 1.69141E-02-4.94646E-01
 -1        73 0.00000E+00 0.00000E+00 0.00000E+00
 -1        74 0.00000E+00 0.00000E+00 0.00000E+00
 -1        75 0.00000E+00 0.00000E+00 0.00000E+00
 -1        76 0.00000E+00 0.00000E+00 0.00000E+00
 -1        77 0.00000E+00 0.00000E+00 0.00000E+00
 -1        78 0.00000E+00 0.00000E+00 0.00000E+00
 -1        79 0.00000E+00 0.00000E+00 0.00000E+00
 -1        80 0.00000E+00 0.00000E+00 0.00000E+00
 -1        81 0.00000E+00 0.00000E+00 0.00000E+00
 -1        82 0.00000E+00 0.00000E+00 0.00000E+00
 -1        83 0.00000E+00 0.00000E+00 0.00000E+00
 -1        84 0.00000E+00 0.00000E+00 0.00000E+00
 -1        85 0.00000E+00 0.00000E+00 0.00000E+00
 -1        86 0.00000E+00 0.00000E+00 0.00000E+00
 -1        87 0.00000E+00 0.00000E+00 0.00000E+00
 -1        88 0.00000E+00 0.00000E+00 0.00000E+00
 -1        89 0.00000E+00 0.00000E+00 0.00000E+00
 -1        90 0.00000E+00 0.00000E+00 0.00000E+00
 -1        91-2.89493E-02 1.04124E-03-4.87084E-01
 -1        92-2.89493E-02 7.31846E-06-1.40350E-01
 -1        93-2.88168E-02 7.31804E-06-1.42440E-01
 -1        94-2.88167E-02 1.04123E-03-4.89175E-01
 -1        95-2.63544E-02-1.08003E-02-1.45428E-01
 -1        96-2.66457E-02-1.02919E-02-4.90520E-01
 -1        97-2.65768E-02-1.02634E-02-4.91531E-01
 -1        98-2.64233E-02-1.08289E-02-1.44417E-01
 -1        99-1.74573E-02-7.35219E-03-1.44417E-01
 -1       100-2.05038E-02-1.95441E-02-1.48834E-01
 -1       101-2.16302E-02-1.86736E-02-4.93443E-01
 -1       102-2.06318E-02-1.96721E-02-1.47798E-01
 -1       103-1.45544E-02-1.19153E-02-4.94479E-01
 -1       104-2.15022E-02-1.85457E-02-4.94479E-01
 -1       105-1.46824E-02-1.20433E-02-4.93443E-01
 -1       106-6.75121E-03-1.73141E-02-1.47620E-01
 -1       107-1.04175E-02-2.63033E-02-1.47620E-01
 -1       108-1.10635E-02-2.60356E-02-4.97105E-01
 -1       109-7.43163E-03-1.71293E-02-4.97349E-01
 -1       110-1.04518E-02-2.63861E-02-1.47864E-01
 -1       111-1.10979E-02-2.61185E-02-4.97349E-01
 -1       112 7.75503E-04-1.89276E-02-1.48636E-01
 -1       113 7.06988E-04-2.85327E-02-1.48953E-01
 -1       114-5.85461E-04-1.87532E-02-5.01014E-01
 -1       115-6.53974E-04-2.85327E-02-5.01014E-01
 -1       116 7.06988E-04-2.87072E-02-1.48636E-01
 -1       117-6.53981E-04-2.87071E-02-5.00698E-01
 -1       118 7.65954E-03-1.78143E-02-1.53427E-01
 -1       119 1.15571E-02-2.66180E-02-1.52358E-01
 -1       120 1.15406E-02-2.65783E-02-1.53427E-01
 -1       121 7.98566E-03-1.77257E-02-4.97314E-01
 -1       122 1.18503E-02-2.64500E-02-4.98384E-01
 -1       123 1.18667E-02-2.64897E-02-4.97314E-01
 -1       124 2.16202E-02-1.99273E-02-1.47393E-01
 -1       125 2.17120E-02-1.98356E-02-4.97039E-01
 -1       126 1.44778E-02-1.33579E-02-1.45523E-01
 -1       127 1.44660E-02-1.33461E-02-1.47393E-01
 -1       128 2.16320E-02-1.99391E-02-1.45523E-01
 -1       129 2.17237E-02-1.98473E-02-4.95169E-01
 -1       130 1.45695E-02-1.32661E-02-4.95169E-01
 -1       131 2.69514E-02-1.21136E-02-4.92571E-01
 -1       132 1.83715E-02-6.78737E-03-1.41385E-01
 -1       133 2.67548E-02-1.20321E-02-4.92467E-01
 -1       134 2.75867E-02-1.05800E-02-1.41489E-01
 -1       135 2.73901E-02-1.04985E-02-1.41385E-01
 -1       136 1.90653E-02 1.89817E-04-1.40114E-01
 -1       137 2.88868E-02 1.93336E-04-1.40114E-01
 -1       138 2.91614E-02 1.93334E-04-1.40130E-01
 -1       139 2.91613E-02-1.94845E-03-4.93704E-01
 -1       140 1.93399E-02-1.95197E-03-4.93704E-01
 -1       141 2.88868E-02-1.94844E-03-4.93688E-01
 -1       142 1.77970E-02 6.68859E-03-4.92633E-01
 -1       143 2.69383E-02 1.02021E-02-1.40192E-01
 -1       144 2.69763E-02 1.02178E-02-1.39879E-01
 -1       145 2.68158E-02 1.04979E-02-4.92633E-01
 -1       146 2.68537E-02 1.05136E-02-4.92320E-01
 -1       147 2.07207E-02 1.96532E-02-4.92179E-01
 -1       148 2.06831E-02 1.96156E-02-4.92454E-01
 -1       149 1.34546E-02 1.30579E-02-1.41516E-01
 -1       150 2.04275E-02 1.99464E-02-1.41240E-01
 -1       151 1.37855E-02 1.28023E-02-4.92179E-01
 -1       152 1.34922E-02 1.30955E-02-1.41240E-01
 -1       153 1.37479E-02 1.27647E-02-4.92454E-01
 -1       154 2.03899E-02 1.99088E-02-1.41516E-01
 -1       155 1.16031E-02 2.57770E-02-4.93664E-01
 -1       156 8.18808E-03 1.66354E-02-1.42571E-01
 -1       157 1.21169E-02 2.55642E-02-1.42571E-01
 -1       158 1.21442E-02 2.56301E-02-1.43553E-01
 -1       159 1.16303E-02 2.58429E-02-4.94646E-01
 -1       160 1.03316E-03 2.81462E-02-1.48367E-01
 -1       161 1.03627E-03 1.85238E-02-4.94771E-01
 -1       162 1.32511E-03 2.81461E-02-4.94771E-01
 -1       163 7.44331E-04 1.85613E-02-1.47034E-01
 -1       164 1.32511E-03 2.81836E-02-4.93438E-01
 -1       165 1.03316E-03 2.81836E-02-1.47034E-01
 -1       166-1.17594E-02 2.50958E-02-4.93881E-01
 -1       167-1.18036E-02 2.52024E-02-4.92648E-01
 -1       168-7.88861E-03 1.64490E-02-4.92648E-01
 -1       169-1.09282E-02 2.54402E-02-1.48812E-01
 -1       170-7.01319E-03 1.66868E-02-1.48812E-01
 -1       171-1.09723E-02 2.55467E-02-1.47579E-01
 -1       172-2.12932E-02 1.78053E-02-4.89057E-01
 -1       173-2.03521E-02 1.87464E-02-1.44163E-01
 -1       174-2.11725E-02 1.76847E-02-4.90411E-01
 -1       175-2.02315E-02 1.86257E-02-1.45518E-01
 -1       176-2.71909E-02 7.82680E-03-4.87063E-01
 -1       177-1.82497E-02 4.32083E-03-4.87063E-01
 -1       178-2.58375E-02 1.01895E-02-1.42224E-01
 -1       179-2.61574E-02 1.03220E-02-1.41381E-01
 -1       180-1.72162E-02 6.81599E-03-1.41381E-01
 -1       181-2.68710E-02 7.69430E-03-4.87905E-01
 -1       182-1.93178E-02-4.45661E-04-1.40350E-01
 -1       183-1.91852E-02 5.88248E-04-4.89175E-01
 -1       184-1.73884E-02-7.32367E-03-1.45428E-01
 -1       185-1.35559E-02-1.29137E-02-1.48834E-01
 -1       186-7.39731E-03-1.70465E-02-4.97105E-01
 -1       187 7.75504E-04-1.87532E-02-1.48953E-01
 -1       188 1.77363E-02-8.32096E-03-4.92467E-01
 -1       189 1.79574E-02 6.40852E-03-1.39879E-01
 -1       190 8.21536E-03 1.67013E-02-1.43553E-01
 -1       191-1.32495E-02 1.20590E-02-1.45518E-01
 -1       192-1.41906E-02 1.11179E-02-4.90411E-01
 -1       193 0.00000E+00 0.00000E+00 0.00000E+00
 -1       194 0.00000E+00 0.00000E+00 0.00000E+00
 -1       195 0.00000E+00 0.00000E+00 0.00000E+00
 -1       196 0.00000E+00 0.00000E+00 0.00000E+00
 -1       197 0.00000E+00 0.00000E+00 0.00000E+00
 -1       198 0.00000E+00 0.00000E+00 0.00000E+00
 -1       199 0.00000E+00 0.00000E+00 0.00000E+00
 -1       200 0.00000E+00 0.00000E+00 0.00000E+00
 -1       201 0.00000E+00 0.00000E+00 0.00000E+00
 -1       202 0.00000E+00 0.00000E+00 0.00000E+00
 -1       203 0.00000E+00 0.00000E+00 0.00000E+00
 -1       204 0.00000E+00 0.00000E+00 0.00000E+00
 -1       205 0.00000E+00 0.00000E+00 0.00000E+00
 -1       206 0.00000E+00 0.00000E+00 0.00000E+00
 -1       207 0.00000E+00 0.00000E+00 0.00000E+00
 -1       208 0.00000E+00 0.00000E+00 0.00000E+00
 -1       209 0.00000E+00 0.00000E+00 0.00000E+00
 -1       210 0.00000E+00 0.00000E+00 0.00000E+00
 -1       211 0.00000E+00 0.00000E+00 0.00000E+00
 -1       212 0.00000E+00 0.00000E+00 0.00000E+00
 -1       213 0.00000E+00 0.00000E+00 0.00000E+00
 -1       214 0.00000E+00 0.00000E+00 0.00000E+00
 -1       215 0.00000E+00 0.00000E+00 0.00000E+00
 -1       216 0.00000E+00 0.00000E+00 0.00000E+00
 -1       217 0.00000E+00 0.00000E+00 0.00000E+00
 -1       218 0.00000E+00 0.00000E+00 0.00000E+00
 -1       219 0.00000E+00 0.00000E+00 0.00000E+00
 -1       220 0.00000E+00 0.00000E+00 0.00000E+00
 -1       221 0.00000E+00 0.00000E+00 0.00000E+00
 -1       222 0.00000E+00 0.00000E+00 0.00000E+00
 -1       223 0.00000E+00 0.00000E+00 0.00000E+00
 -1       224 0.00000E+00 0.00000E+00 0.00000E+00
 -1       225 0.00000E+00 0.00000E+00 0.00000E+00
 -1       226 0.00000E+00 0.00000E+00 0.00000E+00
 -1       227 0.00000E+00 0.00000E+00 0.00000E+00
 -1       228 0.00000E+00 0.00000E+00 0.00000E+00
 -1       229 0.00000E+00 0.00000E+00 0.00000E+00
 -1       230 0.00000E+00 0.00000E+00 0.00000E+00
 -1       231 0.00000E+00 0.00000E+00 0.00000E+00
 -1       232 0.00000E+00 0.00000E+00 0.00000E+00
 -1       233 0.00000E+00 0.00000E+00 0.00000E+00
 -1       234 0.00000E+00 0.00000E+00 0.00000E+00
 -1       235 0.00000E+00 0.00000E+00 0.00000E+00
 -1       236 0.00000E+00 0.00000E+00 0.00000E+00
 -1       237 0.00000E+00 0.00000E+00 0.00000E+00
 -1       238 0.00000E+00 0.00000E+00 0.00000E+00
 -1       239 0.00000E+00 0.00000E+00 0.00000E+00
 -1       240 0.00000E+00 0.00000E+00 0.00000E+00
 -1       241 1.80539E-02-7.55417E-03-3.16926E-01
 -1       242 1.93399E-02-8.81116E-04-3.16918E-01
 -1       243 1.45237E-02-1.33120E-02-3.20346E-01
 -1       244 1.82505E-02-7.63561E-03-3.17030E-01
 -1       245 7.83080E-03-1.77898E-02-3.24836E-01
 -1       246 1.45119E-02-1.33002E-02-3.22216E-01
 -1       247 0.00000E+00 0.00000E+00 0.00000E+00
 -1       248 7.93116E-03 1.67418E-02-3.18117E-01
 -1       249 1.36013E-02 1.29113E-02-3.16985E-01
 -1       250 0.00000E+00 0.00000E+00 0.00000E+00
 -1       251 1.36389E-02 1.29489E-02-3.16710E-01
 -1       252 1.78962E-02 6.55642E-03-3.16099E-01
 -1       253 0.00000E+00 0.00000E+00 0.00000E+00
 -1       254 0.00000E+00 0.00000E+00 0.00000E+00
 -1       255 0.00000E+00 0.00000E+00 0.00000E+00
 -1       256 0.00000E+00 0.00000E+00 0.00000E+00
 -1       257 0.00000E+00 0.00000E+00 0.00000E+00
 -1       258 1.78583E-02 6.54071E-03-3.16413E-01
 -1       259 1.90653E-02-8.81115E-04-3.16901E-01
 -1       260 9.50090E-05-1.89277E-02-3.24668E-01
 -1       261-7.07424E-03-1.71803E-02-3.22363E-01
 -1       262 9.50100E-05-1.87532E-02-3.24984E-01
 -1       263 0.00000E+00 0.00000E+00 0.00000E+00
 -1       264 7.81436E-03-1.77501E-02-3.25906E-01
 -1       265-1.40552E-02-1.24145E-02-3.21657E-01
 -1       266-7.10855E-03-1.72632E-02-3.22607E-01
 -1       267-1.93178E-02 7.12761E-05-3.13717E-01
 -1       268-1.77329E-02 5.56844E-03-3.14222E-01
 -1       269 0.00000E+00 0.00000E+00 0.00000E+00
 -1       270 0.00000E+00 0.00000E+00 0.00000E+00
 -1       271-1.74996E-02-7.05519E-03-3.18480E-01
 -1       272-1.41832E-02-1.25425E-02-3.20621E-01
 -1       273 0.00000E+00 0.00000E+00 0.00000E+00
 -1       274 0.00000E+00 0.00000E+00 0.00000E+00
 -1       275-1.74130E-02 5.43594E-03-3.15065E-01
 -1       276-1.38407E-02 1.17091E-02-3.16610E-01
 -1       277-1.91852E-02 7.12757E-05-3.15808E-01
 -1       278-1.75685E-02-7.08371E-03-3.17469E-01
 -1       279 0.00000E+00 0.00000E+00 0.00000E+00
 -1       280-1.37201E-02 1.15884E-02-3.17965E-01
 -1       281-7.47296E-03 1.66212E-02-3.20114E-01
 -1       282 0.00000E+00 0.00000E+00 0.00000E+00
 -1       283-7.42882E-03 1.65146E-02-3.21347E-01
 -1       284 8.90300E-04 1.85238E-02-3.21569E-01
 -1       285 0.00000E+00 0.00000E+00 0.00000E+00
 -1       286 8.90300E-04 1.85613E-02-3.20236E-01
 -1       287 7.95844E-03 1.68077E-02-3.19100E-01
 -1       288 0.00000E+00 0.00000E+00 0.00000E+00
 -1       289-2.88168E-02 5.24259E-04-3.15808E-01
 -1       290-2.89493E-02 5.24260E-04-3.13717E-01
 -1       291-2.65345E-02-1.05604E-02-3.17469E-01
 -1       292-2.64656E-02-1.05319E-02-3.18480E-01
 -1       293-2.11311E-02-1.91729E-02-3.20621E-01
 -1       294-2.10030E-02-1.90449E-02-3.21657E-01
 -1       295-1.07748E-02-2.62523E-02-3.22607E-01
 -1       296-1.07405E-02-2.61695E-02-3.22363E-01
 -1       297 2.64982E-05-2.87071E-02-3.24668E-01
 -1       298 2.64987E-05-2.85327E-02-3.24984E-01
 -1       299 1.16954E-02-2.65142E-02-3.25906E-01
 -1       300 1.17119E-02-2.65539E-02-3.24836E-01
 -1       301 2.16661E-02-1.98814E-02-3.22216E-01
 -1       302 2.16779E-02-1.98932E-02-3.20346E-01
 -1       303 2.72691E-02-1.13468E-02-3.17030E-01
 -1       304 2.70724E-02-1.12653E-02-3.16926E-01
 -1       305 2.91614E-02-8.77598E-04-3.16918E-01
 -1       306 2.88868E-02-8.77597E-04-3.16901E-01
 -1       307 2.69150E-02 1.03657E-02-3.16099E-01
 -1       308 2.68771E-02 1.03500E-02-3.16413E-01
 -1       309 2.05365E-02 1.97622E-02-3.16985E-01
 -1       310 2.05741E-02 1.97998E-02-3.16710E-01
 -1       311 1.18873E-02 2.57365E-02-3.19100E-01
 -1       312 1.18600E-02 2.56706E-02-3.18117E-01
 -1       313 1.17913E-03 2.81462E-02-3.21569E-01
 -1       314 1.17913E-03 2.81836E-02-3.20236E-01
 -1       315-1.13879E-02 2.53746E-02-3.20114E-01
 -1       316-1.13438E-02 2.52680E-02-3.21347E-01
 -1       317-2.08227E-02 1.82758E-02-3.16610E-01
 -1       318-2.07020E-02 1.81552E-02-3.17965E-01
 -1       319-2.66741E-02 9.07441E-03-3.14222E-01
 -1       320-2.63542E-02 8.94190E-03-3.15065E-01
 -1       321 0.00000E+00 0.00000E+00 0.00000E+00
 -1       322 0.00000E+00 0.00000E+00 0.00000E+00
 -1       323 0.00000E+00 0.00000E+00 0.00000E+00
 -1       324 0.00000E+00 0.00000E+00 0.00000E+00
 -1       325 0.00000E+00 0.00000E+00 0.00000E+00
 -1       326 0.00000E+00 0.00000E+00 0.00000E+00
 -1       327 0.00000E+00 0.00000E+00 0.00000E+00
 -1       328 0.00000E+00 0.00000E+00 0.00000E+00
 -1       329 0.00000E+00 0.00000E+00 0.00000E+00
 -1       330 0.00000E+00 0.00000E+00 0.00000E+00
 -1       331 0.00000E+00 0.00000E+00 0.00000E+00
 -1       332 0.00000E+00 0.00000E+00 0.00000E+00
 -1       333 0.00000E+00 0.00000E+00 0.00000E+00
 -1       334 0.00000E+00 0.00000E+00 0.00000E+00
 -1       335 0.00000E+00 0.00000E+00 0.00000E+00
 -1       336 0.00000E+00 0.00000E+00 0.00000E+00
 -1       337 0.00000E+00 0.00000E+00 0.00000E+00
 -1       338 0.00000E+00 0.00000E+00 0.00000E+00
 -1       339 0.00000E+00 0.00000E+00 0.00000E+00
 -1       340 0.00000E+00 0.00000E+00 0.00000E+00
 -1       341 0.00000E+00 0.00000E+00 0.00000E+00
 -1       342 0.00000E+00 0.00000E+00 0.00000E+00
 -1       343 0.00000E+00 0.00000E+00 0.00000E+00
 -1       344 0.00000E+00 0.00000E+00 0.00000E+00
 -1       345 0.00000E+00 0.00000E+00 0.00000E+00
 -1       346 0.00000E+00 0.00000E+00 0.00000E+00
 -1       347 0.00000E+00 0.00000E+00 0.00000E+00
 -1       348 0.00000E+00 0.00000E+00 0.00000E+00
 -1       349 0.00000E+00 0.00000E+00 0.00000E+00
 -1       350 0.00000E+00 0.00000E+00 0.00000E+00
 -1       351 0.00000E+00 0.00000E+00 0.00000E+00
 -1       352 0.00000E+00 0.00000E+00 0.00000E+00
 -1       353 0.00000E+00 0.00000E+00 0.00000E+00
 -1       354 0.00000E+00 0.00000E+00 0.00000E+00
 -1       355 0.00000E+00 0.00000E+00 0.00000E+00
 -1       356 0.00000E+00 0.00000E+00 0.00000E+00
 -1       357 0.00000E+00 0.00000E+00 0.00000E+00
 -1       358 0.00000E+00 0.00000E+00 0.00000E+00
 -1       359 0.00000E+00 0.00000E+00 0.00000E+00
 -1       360 1.93399E-02-1.41655E-03-4.05311E-01
 -1       361 1.80917E-02-8.01902E-03-4.04801E-01
 -1       362 0.00000E+00 0.00000E+00 0.00000E+00
 -1       363 1.36746E-02 1.28380E-02-4.04720E-01
 -1       364 1.35279E-02 1.29846E-02-2.29251E-01
 -1       365 1.37122E-02 1.28756E-02-4.04444E-01
 -1       366 1.78655E-02 6.63036E-03-4.04209E-01
 -1       367 1.79268E-02 6.48247E-03-2.27989E-01
 -1       368 0.00000E+00 0.00000E+00 0.00000E+00
 -1       369 0.00000E+00 0.00000E+00 0.00000E+00
 -1       370 0.00000E+00 0.00000E+00 0.00000E+00
 -1       371 1.78276E-02 6.61466E-03-4.04523E-01
 -1       372 1.90653E-02-3.45656E-04-2.28508E-01
 -1       373-2.45239E-04-1.89277E-02-4.12683E-01
 -1       374-7.23577E-03-1.71134E-02-4.09734E-01
 -1       375-6.91272E-03-1.72472E-02-2.34991E-01
 -1       376 0.00000E+00 0.00000E+00 0.00000E+00
 -1       377 7.89178E-03-1.77181E-02-4.12145E-01
 -1       378-7.27009E-03-1.71962E-02-4.09978E-01
 -1       379-1.93178E-02 3.29752E-04-4.00401E-01
 -1       380-1.74745E-02 6.19221E-03-2.27801E-01
 -1       381-1.74440E-02-7.18943E-03-2.31954E-01
 -1       382-1.44328E-02-1.22929E-02-4.07032E-01
 -1       383 0.00000E+00 0.00000E+00 0.00000E+00
 -1       384-1.40760E-02 1.14738E-02-4.02833E-01
 -1       385-1.36055E-02 1.19443E-02-2.30387E-01
 -1       386-1.39554E-02 1.13532E-02-4.04188E-01
 -1       387-7.26515E-03 1.67073E-02-2.33846E-01
 -1       388-7.63664E-03 1.64285E-02-4.07614E-01
 -1       389 9.63292E-04 1.85238E-02-4.08170E-01
 -1       390 8.17315E-04 1.85238E-02-2.34968E-01
 -1       391 0.00000E+00 0.00000E+00 0.00000E+00
 -1       392 8.08690E-03 1.67545E-02-2.31326E-01
 -1       393 1.93399E-02-1.14884E-03-3.61114E-01
 -1       394 1.93399E-02-1.68426E-03-4.49508E-01
 -1       395 1.81711E-02-7.82731E-03-3.60915E-01
 -1       396 1.80123E-02-8.21071E-03-4.48686E-01
 -1       397 1.37112E-02 1.28014E-02-4.48587E-01
 -1       398 1.36379E-02 1.28747E-02-3.60853E-01
 -1       399 1.35646E-02 1.29480E-02-2.73118E-01
 -1       400 1.34913E-02 1.30213E-02-1.85383E-01
 -1       401 1.37488E-02 1.28390E-02-4.48312E-01
 -1       402 1.78502E-02 6.66733E-03-4.48265E-01
 -1       403 1.78809E-02 6.59339E-03-3.60154E-01
 -1       404 1.79115E-02 6.51945E-03-2.72044E-01
 -1       405 1.79421E-02 6.44550E-03-1.83934E-01
 -1       406 1.78123E-02 6.65163E-03-4.48578E-01
 -1       407 1.90653E-02-6.13388E-04-2.72705E-01
 -1       408 1.90653E-02-7.79222E-05-1.84311E-01
 -1       409-7.51137E-05-1.89277E-02-3.68675E-01
 -1       410-4.15356E-04-1.89277E-02-4.56691E-01
 -1       411-7.31654E-03-1.70800E-02-4.53420E-01
 -1       412-7.15501E-03-1.71469E-02-3.66048E-01
 -1       413-6.83197E-03-1.72807E-02-1.91306E-01
 -1       414 7.85307E-03-1.77341E-02-3.69026E-01
 -1       415 7.93050E-03-1.77020E-02-4.55265E-01
 -1       416-7.35086E-03-1.71628E-02-4.53663E-01
 -1       417-1.93178E-02 2.00513E-04-3.57059E-01
 -1       418-1.93178E-02 4.59002E-04-4.43742E-01
 -1       419-1.76037E-02 5.88032E-03-2.71012E-01
 -1       420-1.73454E-02 6.50410E-03-1.84591E-01
 -1       421-1.74718E-02-7.12231E-03-2.75217E-01
 -1       422-1.74162E-02-7.25655E-03-1.88691E-01
 -1       423-1.43080E-02-1.24177E-02-3.63827E-01
 -1       424-1.45576E-02-1.21681E-02-4.50238E-01
 -1       425-1.41936E-02 1.13562E-02-4.45945E-01
 -1       426-1.39584E-02 1.15914E-02-3.59722E-01
 -1       427-1.37231E-02 1.18267E-02-2.73498E-01
 -1       428-1.34878E-02 1.20620E-02-1.87275E-01
 -1       429-1.40730E-02 1.12355E-02-4.47300E-01
 -1       430-7.36906E-03 1.66642E-02-2.76980E-01
 -1       431-7.16124E-03 1.67503E-02-1.90713E-01
 -1       432-7.53273E-03 1.64716E-02-3.64480E-01
 -1       433-7.74055E-03 1.63855E-02-4.50748E-01
 -1       434 9.99782E-04 1.85238E-02-4.51470E-01
 -1       435 9.26796E-04 1.85238E-02-3.64869E-01
 -1       436 8.53805E-04 1.85238E-02-2.78268E-01
 -1       437 7.80823E-04 1.85238E-02-1.91667E-01
 -1       438 8.02267E-03 1.67811E-02-2.75213E-01
 -1       439 8.15113E-03 1.67279E-02-1.87440E-01
 -1       440 0.00000E+00 0.00000E+00 0.00000E+00
 -1       441 0.00000E+00 0.00000E+00 0.00000E+00
 -1       442 0.00000E+00 0.00000E+00 0.00000E+00
 -1       443 0.00000E+00 0.00000E+00 0.00000E+00
 -1       444 0.00000E+00 0.00000E+00 0.00000E+00
 -1       445 0.00000E+00 0.00000E+00 0.00000E+00
 -1       446 0.00000E+00 0.00000E+00 0.00000E+00
 -1       447 0.00000E+00 0.00000E+00 0.00000E+00
 -1       448 0.00000E+00 0.00000E+00 0.00000E+00
 -1       449 0.00000E+00 0.00000E+00 0.00000E+00
 -1       450 0.00000E+00 0.00000E+00 0.00000E+00
 -1       451 0.00000E+00 0.00000E+00 0.00000E+00
 -1       452 0.00000E+00 0.00000E+00 0.00000E+00
 -1       453 0.00000E+00 0.00000E+00 0.00000E+00
 -1       454 0.00000E+00 0.00000E+00 0.00000E+00
 -1       455 0.00000E+00 0.00000E+00 0.00000E+00
 -1       456 0.00000E+00 0.00000E+00 0.00000E+00
 -1       457 0.00000E+00 0.00000E+00 0.00000E+00
 -1       458 0.00000E+00 0.00000E+00 0.00000E+00
 -1       459 0.00000E+00 0.00000E+00 0.00000E+00
 -1       460 0.00000E+00 0.00000E+00 0.00000E+00
 -1       461 0.00000E+00 0.00000E+00 0.00000E+00
 -1       462 0.00000E+00 0.00000E+00 0.00000E+00
 -1       463 0.00000E+00 0.00000E+00 0.00000E+00
 -1       464 0.00000E+00 0.00000E+00 0.00000E+00
 -1       465 0.00000E+00 0.00000E+00 0.00000E+00
 -1       466 0.00000E+00 0.00000E+00 0.00000E+00
 -1       467 0.00000E+00 0.00000E+00 0.00000E+00
 -1       468 0.00000E+00 0.00000E+00 0.00000E+00
 -1       469 0.00000E+00 0.00000E+00 0.00000E+00
 -1       470 0.00000E+00 0.00000E+00 0.00000E+00
 -1       471 0.00000E+00 0.00000E+00 0.00000E+00
 -1       472 0.00000E+00 0.00000E+00 0.00000E+00
 -1       473 0.00000E+00 0.00000E+00 0.00000E+00
 -1       474 0.00000E+00 0.00000E+00 0.00000E+00
 -1       475 0.00000E+00 0.00000E+00 0.00000E+00
 -1       476 0.00000E+00 0.00000E+00 0.00000E+00
 -1       477 0.00000E+00 0.00000E+00 0.00000E+00
 -1       478 0.00000E+00 0.00000E+00 0.00000E+00
 -1       479 0.00000E+00 0.00000E+00 0.00000E+00
 -1       480 0.00000E+00 0.00000E+00 0.00000E+00
 -1       481 0.00000E+00 0.00000E+00 0.00000E+00
 -1       482 0.00000E+00 0.00000E+00 0.00000E+00
 -1       483 0.00000E+00 0.00000E+00 0.00000E+00
 -1       484 0.00000E+00 0.00000E+00 0.00000E+00
 -1       485 0.00000E+00 0.00000E+00 0.00000E+00
 -1       486 0.00000E+00 0.00000E+00 0.00000E+00
 -1       487 0.00000E+00 0.00000E+00 0.00000E+00
 -1       488 0.00000E+00 0.00000E+00 0.00000E+00
 -1       489 0.00000E+00 0.00000E+00 0.00000E+00
 -1       490 0.00000E+00 0.00000E+00 0.00000E+00
 -1       491 0.00000E+00 0.00000E+00 0.00000E+00
 -1       492 0.00000E+00 0.00000E+00 0.00000E+00
 -1       493 0.00000E+00 0.00000E+00 0.00000E+00
 -1       494 0.00000E+00 0.00000E+00 0.00000E+00
 -1       495 0.00000E+00 0.00000E+00 0.00000E+00
 -1       496 0.00000E+00 0.00000E+00 0.00000E+00
 -1       497 1.82127E-02-7.17077E-03-2.29155E-01
 -1       498 1.78951E-02-7.93757E-03-4.04696E-01
 -1       499 1.93399E-02-3.45656E-04-2.28524E-01
 -1       500 1.45007E-02-1.33350E-02-2.32935E-01
 -1       501 1.45466E-02-1.32891E-02-4.07758E-01
 -1       502 1.84093E-02-7.25221E-03-2.29260E-01
 -1       503 1.45348E-02-1.32773E-02-4.09628E-01
 -1       504 7.75339E-03-1.78219E-02-2.38597E-01
 -1       505 7.90823E-03-1.77578E-02-4.11075E-01
 -1       506 1.44889E-02-1.33232E-02-2.34805E-01
 -1       507 0.00000E+00 0.00000E+00 0.00000E+00
 -1       508 7.80270E-03 1.67951E-02-4.05890E-01
 -1       509 8.05961E-03 1.66886E-02-2.30344E-01
 -1       510 0.00000E+00 0.00000E+00 0.00000E+00
 -1       511 0.00000E+00 0.00000E+00 0.00000E+00
 -1       512 1.35655E-02 1.30222E-02-2.28975E-01
 -1       513 0.00000E+00 0.00000E+00 0.00000E+00
 -1       514 0.00000E+00 0.00000E+00 0.00000E+00
 -1       515 0.00000E+00 0.00000E+00 0.00000E+00
 -1       516 0.00000E+00 0.00000E+00 0.00000E+00
 -1       517 0.00000E+00 0.00000E+00 0.00000E+00
 -1       518 0.00000E+00 0.00000E+00 0.00000E+00
 -1       519 0.00000E+00 0.00000E+00 0.00000E+00
 -1       520 1.78889E-02 6.46676E-03-2.28302E-01
 -1       521 1.90653E-02-1.41655E-03-4.05295E-01
 -1       522 4.35257E-04-1.89276E-02-2.36652E-01
 -1       523 4.35258E-04-1.87532E-02-2.36968E-01
 -1       524-2.45237E-04-1.87532E-02-4.12999E-01
 -1       525 0.00000E+00 0.00000E+00 0.00000E+00
 -1       526 7.73695E-03-1.77822E-02-2.39667E-01
 -1       527-1.38056E-02-1.26641E-02-2.35246E-01
 -1       528-1.43048E-02-1.21649E-02-4.08069E-01
 -1       529-6.94703E-03-1.73300E-02-2.35235E-01
 -1       530-1.93178E-02-1.87194E-04-2.27033E-01
 -1       531-1.79913E-02 4.94465E-03-4.00643E-01
 -1       532-1.75552E-02-6.92094E-03-4.05006E-01
 -1       533 0.00000E+00 0.00000E+00 0.00000E+00
 -1       534 0.00000E+00 0.00000E+00 0.00000E+00
 -1       535 0.00000E+00 0.00000E+00 0.00000E+00
 -1       536 0.00000E+00 0.00000E+00 0.00000E+00
 -1       537-1.39336E-02-1.27921E-02-2.34210E-01
 -1       538 0.00000E+00 0.00000E+00 0.00000E+00
 -1       539 0.00000E+00 0.00000E+00 0.00000E+00
 -1       540 0.00000E+00 0.00000E+00 0.00000E+00
 -1       541-1.76714E-02 4.81214E-03-4.01485E-01
 -1       542-1.71547E-02 6.05971E-03-2.28644E-01
 -1       543 0.00000E+00 0.00000E+00 0.00000E+00
 -1       544-1.91852E-02-1.87195E-04-2.29124E-01
 -1       545-1.91852E-02 3.29751E-04-4.02491E-01
 -1       546-1.76241E-02-6.94946E-03-4.03994E-01
 -1       547-1.75129E-02-7.21795E-03-2.30943E-01
 -1       548 0.00000E+00 0.00000E+00 0.00000E+00
 -1       549-1.34848E-02 1.18237E-02-2.31742E-01
 -1       550-7.68078E-03 1.65351E-02-4.06381E-01
 -1       551-7.22100E-03 1.66007E-02-2.35079E-01
 -1       552 0.00000E+00 0.00000E+00 0.00000E+00
 -1       553 0.00000E+00 0.00000E+00 0.00000E+00
 -1       554 0.00000E+00 0.00000E+00 0.00000E+00
 -1       555 9.63294E-04 1.85613E-02-4.06837E-01
 -1       556 8.17316E-04 1.85613E-02-2.33635E-01
 -1       557 7.82998E-03 1.68609E-02-4.06873E-01
 -1       558 0.00000E+00 0.00000E+00 0.00000E+00
 -1       559 0.00000E+00 0.00000E+00 0.00000E+00
 -1       560-2.89493E-02 2.65788E-04-2.27033E-01
 -1       561-2.88168E-02 7.82736E-04-4.02491E-01
 -1       562-2.88168E-02 2.65788E-04-2.29124E-01
 -1       563-2.89493E-02 7.82736E-04-4.00401E-01
 -1       564-2.65212E-02-1.03976E-02-4.05006E-01
 -1       565-2.64789E-02-1.06946E-02-2.30943E-01
 -1       566-2.65901E-02-1.04261E-02-4.03994E-01
 -1       567-2.64100E-02-1.06661E-02-2.31954E-01
 -1       568-2.12526E-02-1.87952E-02-4.08069E-01
 -1       569-2.08815E-02-1.94225E-02-2.34210E-01
 -1       570-2.13806E-02-1.89232E-02-4.07032E-01
 -1       571-2.07534E-02-1.92945E-02-2.35246E-01
 -1       572-1.09020E-02-2.61026E-02-4.09734E-01
 -1       573-1.06133E-02-2.63192E-02-2.35235E-01
 -1       574-1.09363E-02-2.61854E-02-4.09978E-01
 -1       575-1.05790E-02-2.62364E-02-2.34991E-01
 -1       576-3.13747E-04-2.85327E-02-4.12999E-01
 -1       577 3.66745E-04-2.87072E-02-2.36652E-01
 -1       578-3.13748E-04-2.87071E-02-4.12683E-01
 -1       579 3.66745E-04-2.85327E-02-2.36968E-01
 -1       580 1.16180E-02-2.65462E-02-2.39667E-01
 -1       581 1.17728E-02-2.64821E-02-4.12145E-01
 -1       582 1.17893E-02-2.65218E-02-4.11075E-01
 -1       583 1.16345E-02-2.65859E-02-2.38597E-01
 -1       584 2.16431E-02-1.99044E-02-2.34805E-01
 -1       585 2.16890E-02-1.98585E-02-4.09628E-01
 -1       586 2.17008E-02-1.98702E-02-4.07758E-01
 -1       587 2.16549E-02-1.99162E-02-2.32935E-01
 -1       588 2.69136E-02-1.16487E-02-4.04696E-01
 -1       589 2.74279E-02-1.09634E-02-2.29260E-01
 -1       590 2.71102E-02-1.17302E-02-4.04801E-01
 -1       591 2.72313E-02-1.08819E-02-2.29155E-01
 -1       592 2.91614E-02-3.42137E-04-2.28524E-01
 -1       593 2.91614E-02-1.41303E-03-4.05311E-01
 -1       594 2.88868E-02-1.41303E-03-4.05295E-01
 -1       595 2.88868E-02-3.42137E-04-2.28508E-01
 -1       596 2.69077E-02 1.02760E-02-2.28302E-01
 -1       597 2.68843E-02 1.04396E-02-4.04209E-01
 -1       598 2.69456E-02 1.02917E-02-2.27989E-01
 -1       599 2.68464E-02 1.04239E-02-4.04523E-01
 -1       600 2.06098E-02 1.96889E-02-4.04720E-01
 -1       601 2.04632E-02 1.98355E-02-2.29251E-01
 -1       602 2.05008E-02 1.98731E-02-2.28975E-01
 -1       603 2.06474E-02 1.97265E-02-4.04444E-01
 -1       604 1.17588E-02 2.57897E-02-4.06873E-01
 -1       605 1.20157E-02 2.56833E-02-2.31326E-01
 -1       606 1.19884E-02 2.56174E-02-2.30344E-01
 -1       607 1.17315E-02 2.57238E-02-4.05890E-01
 -1       608 1.25213E-03 2.81462E-02-4.08170E-01
 -1       609 1.10615E-03 2.81462E-02-2.34968E-01
 -1       610 1.10615E-03 2.81836E-02-2.33635E-01
 -1       611 1.25213E-03 2.81836E-02-4.06837E-01
 -1       612-1.11360E-02 2.53541E-02-2.35079E-01
 -1       613-1.15958E-02 2.52885E-02-4.06381E-01
 -1       614-1.11801E-02 2.54606E-02-2.33846E-01
 -1       615-1.15516E-02 2.51819E-02-4.07614E-01
 -1       616-2.04667E-02 1.83905E-02-2.31742E-01
 -1       617-2.10579E-02 1.80406E-02-4.02833E-01
 -1       618-2.05874E-02 1.85111E-02-2.30387E-01
 -1       619-2.09373E-02 1.79199E-02-4.04188E-01
 -1       620-2.60959E-02 9.56568E-03-2.28644E-01
 -1       621-2.69325E-02 8.45061E-03-4.00643E-01
 -1       622-2.64158E-02 9.69819E-03-2.27801E-01
 -1       623-2.66126E-02 8.31811E-03-4.01485E-01
 -1       624 1.36755E-02 1.29123E-02-3.60577E-01
 -1       625 1.78429E-02 6.57768E-03-3.60468E-01
 -1       626-6.99348E-03-1.72138E-02-2.78677E-01
 -1       627-7.18932E-03-1.72297E-02-3.66292E-01
 -1       628-1.38377E-02 1.14708E-02-3.61077E-01
 -1       629 1.81333E-02-7.36247E-03-2.73041E-01
 -1       630 1.82921E-02-6.97907E-03-1.85270E-01
 -1       631 1.79745E-02-7.74587E-03-3.60811E-01
 -1       632 1.45122E-02-1.33235E-02-2.76640E-01
 -1       633 1.44892E-02-1.33464E-02-1.89229E-01
 -1       634 1.45581E-02-1.32776E-02-4.51463E-01
 -1       635 1.45351E-02-1.33005E-02-3.64052E-01
 -1       636 7.79210E-03-1.78059E-02-2.81717E-01
 -1       637 7.71468E-03-1.78379E-02-1.95478E-01
 -1       638 7.86951E-03-1.77738E-02-3.67956E-01
 -1       639 7.86693E-03 1.67685E-02-3.62004E-01
 -1       640 7.73846E-03 1.68217E-02-4.49777E-01
 -1       641 7.99539E-03 1.67152E-02-2.74231E-01
 -1       642 1.35289E-02 1.30589E-02-1.85108E-01
 -1       643 1.36022E-02 1.29856E-02-2.72843E-01
 -1       644 1.78736E-02 6.50374E-03-2.72358E-01
 -1       645 6.05380E-04-1.89276E-02-1.92644E-01
 -1       646 2.65134E-04-1.89276E-02-2.80660E-01
 -1       647 7.77565E-03-1.77662E-02-2.82786E-01
 -1       648-1.39304E-02-1.25393E-02-2.78452E-01
 -1       649-1.36807E-02-1.27889E-02-1.92040E-01
 -1       650-1.41800E-02-1.22897E-02-3.64863E-01
 -1       651-1.93178E-02-3.16428E-04-1.83691E-01
 -1       652-1.93178E-02-5.79604E-05-2.70375E-01
 -1       653-1.81205E-02 4.63274E-03-4.43853E-01
 -1       654-1.78621E-02 5.25655E-03-3.57432E-01
 -1       655-1.75831E-02-6.85383E-03-4.48269E-01
 -1       656-1.75274E-02-6.98807E-03-3.61743E-01
 -1       657-1.78006E-02 4.50024E-03-4.44695E-01
 -1       658-1.72838E-02 5.74782E-03-2.71854E-01
 -1       659-1.91852E-02-3.16428E-04-1.85782E-01
 -1       660-1.91852E-02 2.00512E-04-3.59150E-01
 -1       661-1.75963E-02-7.01658E-03-3.60732E-01
 -1       662-1.76519E-02-6.88233E-03-4.47257E-01
 -1       663-1.75407E-02-7.15083E-03-2.74206E-01
 -1       664-1.36024E-02 1.17061E-02-2.74853E-01
 -1       665-7.57688E-03 1.65782E-02-3.63247E-01
 -1       666-7.32491E-03 1.65577E-02-2.78213E-01
 -1       667 9.99785E-04 1.85613E-02-4.50137E-01
 -1       668 7.80824E-04 1.85613E-02-1.90334E-01
 -1       669 8.53807E-04 1.85613E-02-2.76935E-01
 -1       670 7.76575E-03 1.68875E-02-4.50760E-01
 -1       671 7.89422E-03 1.68343E-02-3.62986E-01
 -1       672 2.71896E-02-1.15385E-02-3.60915E-01
 -1       673 2.69303E-02 1.03287E-02-2.72044E-01
 -1       674 2.68617E-02 1.03870E-02-3.60468E-01
 -1       675-2.65449E-02 9.38630E-03-2.71012E-01
 -1       676 1.78157E-02-8.12927E-03-4.48582E-01
 -1       677 1.93399E-02-6.13388E-04-2.72721E-01
 -1       678 1.93399E-02-7.79224E-05-1.84327E-01
 -1       679 1.83299E-02-7.44391E-03-2.73145E-01
 -1       680 1.84887E-02-7.06052E-03-1.85374E-01
 -1       681 1.45463E-02-1.32658E-02-4.53333E-01
 -1       682 1.45234E-02-1.32888E-02-3.65922E-01
 -1       683 7.94694E-03-1.77417E-02-4.54195E-01
 -1       684 1.45004E-02-1.33117E-02-2.78510E-01
 -1       685 1.44775E-02-1.33347E-02-1.91099E-01
 -1       686 8.12384E-03 1.66620E-02-1.86457E-01
 -1       687 1.79042E-02 6.42979E-03-1.84247E-01
 -1       688 1.90653E-02-1.14883E-03-3.61098E-01
 -1       689 1.90653E-02-1.68425E-03-4.49492E-01
 -1       690-7.51113E-05-1.87532E-02-3.68991E-01
 -1       691 6.05381E-04-1.87532E-02-1.92960E-01
 -1       692 2.65135E-04-1.87532E-02-2.80976E-01
 -1       693-4.15355E-04-1.87532E-02-4.57007E-01
 -1       694 7.69824E-03-1.77982E-02-1.96547E-01
 -1       695-1.44296E-02-1.20401E-02-4.51274E-01
 -1       696-7.02779E-03-1.72966E-02-2.78921E-01
 -1       697-6.86628E-03-1.73635E-02-1.91550E-01
 -1       698-1.40584E-02-1.26673E-02-2.77416E-01
 -1       699-1.38088E-02-1.29169E-02-1.91004E-01
 -1       700-1.75422E-02 5.12404E-03-3.58275E-01
 -1       701-1.70255E-02 6.37160E-03-1.85434E-01
 -1       702-1.91852E-02-5.79602E-05-2.72466E-01
 -1       703-1.91852E-02 4.58998E-04-4.45833E-01
 -1       704-1.74851E-02-7.28507E-03-1.87680E-01
 -1       705-1.33672E-02 1.19413E-02-1.88630E-01
 -1       706-7.78469E-03 1.64921E-02-4.49514E-01
 -1       707-7.11710E-03 1.66437E-02-1.91946E-01
 -1       708 9.26797E-04 1.85613E-02-3.63536E-01
 -1       709 2.16664E-02-1.99047E-02-2.76640E-01
 -1       710 1.16732E-02-2.65699E-02-2.81717E-01
 -1       711 1.17341E-02-2.64981E-02-3.69026E-01
 -1       712-1.43623E-04-2.87071E-02-3.68675E-01
 -1       713-1.06597E-02-2.62029E-02-2.78677E-01
 -1       714-1.08556E-02-2.62189E-02-3.66292E-01
 -1       715-2.88168E-02 3.95023E-04-2.72466E-01
 -1       716-2.88167E-02 9.11983E-04-4.45833E-01
 -1       717-2.89493E-02 1.36553E-04-1.83691E-01
 -1       718-2.89493E-02 3.95023E-04-2.70375E-01
 -1       719-2.88168E-02 6.53496E-04-3.59150E-01
 -1       720-2.88168E-02 1.36553E-04-1.85782E-01
 -1       721-2.12558E-02-1.90480E-02-3.63827E-01
 -1       722-2.65623E-02-1.04933E-02-3.60732E-01
 -1       723-2.89493E-02 6.53497E-04-3.57059E-01
 -1       724-2.89493E-02 9.11985E-04-4.43742E-01
 -1       725-2.64511E-02-1.07617E-02-1.87680E-01
 -1       726-2.65491E-02-1.03305E-02-4.48269E-01
 -1       727-2.64934E-02-1.04647E-02-3.61743E-01
 -1       728-2.65067E-02-1.06275E-02-2.74206E-01
 -1       729-2.66179E-02-1.03590E-02-4.47257E-01
 -1       730-2.64378E-02-1.05990E-02-2.75217E-01
 -1       731-2.63822E-02-1.07332E-02-1.88691E-01
 -1       732-2.13774E-02-1.86704E-02-4.51274E-01
 -1       733-2.11278E-02-1.89200E-02-3.64863E-01
 -1       734-2.07566E-02-1.95473E-02-1.91004E-01
 -1       735-2.10063E-02-1.92977E-02-2.77416E-01
 -1       736-2.15054E-02-1.87984E-02-4.50238E-01
 -1       737-2.08782E-02-1.91697E-02-2.78452E-01
 -1       738-2.06286E-02-1.94193E-02-1.92040E-01
 -1       739-1.09828E-02-2.60691E-02-4.53420E-01
 -1       740-1.08212E-02-2.61360E-02-3.66048E-01
 -1       741-1.05325E-02-2.63527E-02-1.91550E-01
 -1       742-1.06940E-02-2.62858E-02-2.78921E-01
 -1       743-1.10171E-02-2.61519E-02-4.53663E-01
 -1       744-1.04982E-02-2.62698E-02-1.91306E-01
 -1       745-4.83865E-04-2.85327E-02-4.57007E-01
 -1       746-1.43622E-04-2.85327E-02-3.68991E-01
 -1       747 5.36866E-04-2.87072E-02-1.92644E-01
 -1       748 1.96622E-04-2.87072E-02-2.80660E-01
 -1       749-4.83865E-04-2.87071E-02-4.56691E-01
 -1       750 1.96623E-04-2.85327E-02-2.80976E-01
 -1       751 5.36866E-04-2.85327E-02-1.92960E-01
 -1       752 1.15793E-02-2.65623E-02-1.96547E-01
 -1       753 1.16567E-02-2.65302E-02-2.82786E-01
 -1       754 1.18116E-02-2.64660E-02-4.55265E-01
 -1       755 1.18280E-02-2.65057E-02-4.54195E-01
 -1       756 1.17506E-02-2.65378E-02-3.67956E-01
 -1       757 1.15958E-02-2.66020E-02-1.95478E-01
 -1       758 2.16776E-02-1.98700E-02-3.65922E-01
 -1       759 2.16317E-02-1.99159E-02-1.91099E-01
 -1       760 2.16546E-02-1.98929E-02-2.78510E-01
 -1       761 2.17005E-02-1.98470E-02-4.53333E-01
 -1       762 2.17123E-02-1.98588E-02-4.51463E-01
 -1       763 2.16893E-02-1.98817E-02-3.64052E-01
 -1       764 2.16434E-02-1.99276E-02-1.89229E-01
 -1       765 2.75073E-02-1.07717E-02-1.85374E-01
 -1       766 2.68342E-02-1.18404E-02-4.48582E-01
 -1       767 2.69930E-02-1.14570E-02-3.60811E-01
 -1       768 2.73485E-02-1.11551E-02-2.73145E-01
 -1       769 2.70308E-02-1.19219E-02-4.48686E-01
 -1       770 2.71519E-02-1.10736E-02-2.73041E-01
 -1       771 2.73107E-02-1.06902E-02-1.85270E-01
 -1       772 2.88868E-02-6.09870E-04-2.72705E-01
 -1       773 2.91614E-02-1.14532E-03-3.61114E-01
 -1       774 2.91614E-02-7.44029E-05-1.84327E-01
 -1       775 2.91614E-02-6.09870E-04-2.72721E-01
 -1       776 2.91614E-02-1.68074E-03-4.49508E-01
 -1       777 2.88868E-02-1.68074E-03-4.49492E-01
 -1       778 2.88868E-02-1.14532E-03-3.61098E-01
 -1       779 2.88868E-02-7.44026E-05-1.84311E-01
 -1       780 2.68690E-02 1.04766E-02-4.48265E-01
 -1       781 2.69230E-02 1.02391E-02-1.84247E-01
 -1       782 2.68924E-02 1.03130E-02-2.72358E-01
 -1       783 2.68997E-02 1.04027E-02-3.60154E-01
 -1       784 2.69609E-02 1.02548E-02-1.83934E-01
 -1       785 2.68311E-02 1.04609E-02-4.48578E-01
 -1       786 1.21563E-03 2.81836E-02-3.63536E-01
 -1       787 2.06108E-02 1.97632E-02-3.60577E-01
 -1       788 2.04642E-02 1.99098E-02-1.85108E-01
 -1       789 2.04999E-02 1.97989E-02-2.73118E-01
 -1       790 2.06465E-02 1.96522E-02-4.48587E-01
 -1       791 2.05732E-02 1.97256E-02-3.60853E-01
 -1       792 2.04266E-02 1.98722E-02-1.85383E-01
 -1       793 2.05375E-02 1.98365E-02-2.72843E-01
 -1       794 2.06841E-02 1.96898E-02-4.48312E-01
 -1       795 1.17958E-02 2.56972E-02-3.62004E-01
 -1       796 1.20527E-02 2.55908E-02-1.86457E-01
 -1       797 1.19515E-02 2.57099E-02-2.75213E-01
 -1       798 1.16946E-02 2.58163E-02-4.50760E-01
 -1       799 1.18230E-02 2.57631E-02-3.62986E-01
 -1       800 1.20800E-02 2.56567E-02-1.87440E-01
 -1       801 1.19242E-02 2.56440E-02-2.74231E-01
 -1       802 1.16673E-02 2.57504E-02-4.49777E-01
 -1       803 1.06966E-03 2.81836E-02-1.90334E-01
 -1       804 1.14264E-03 2.81462E-02-2.78268E-01
 -1       805 1.28862E-03 2.81461E-02-4.51470E-01
 -1       806 1.21563E-03 2.81462E-02-3.64869E-01
 -1       807 1.06966E-03 2.81462E-02-1.91667E-01
 -1       808 1.14264E-03 2.81836E-02-2.76935E-01
 -1       809 1.28862E-03 2.81836E-02-4.50137E-01
 -1       810-2.70617E-02 8.13870E-03-4.43853E-01
 -1       811-2.07050E-02 1.83935E-02-2.73498E-01
 -1       812-1.12840E-02 2.54176E-02-2.76980E-01
 -1       813-1.16997E-02 2.52454E-02-4.49514E-01
 -1       814-1.10321E-02 2.53971E-02-1.91946E-01
 -1       815-1.12399E-02 2.53110E-02-2.78213E-01
 -1       816-1.14918E-02 2.53315E-02-3.63247E-01
 -1       817-1.10762E-02 2.55037E-02-1.90713E-01
 -1       818-1.14477E-02 2.52249E-02-3.64480E-01
 -1       819-1.16555E-02 2.51388E-02-4.50748E-01
 -1       820-2.03491E-02 1.85081E-02-1.88630E-01
 -1       821-2.05844E-02 1.82728E-02-2.74853E-01
 -1       822-2.11755E-02 1.79229E-02-4.45945E-01
 -1       823-2.09403E-02 1.81582E-02-3.59722E-01
 -1       824-2.04698E-02 1.86287E-02-1.87275E-01
 -1       825-2.08196E-02 1.80375E-02-3.61077E-01
 -1       826-2.10549E-02 1.78023E-02-4.47300E-01
 -1       827-2.59667E-02 9.87757E-03-1.85434E-01
 -1       828-2.62251E-02 9.25380E-03-2.71854E-01
 -1       829-2.68033E-02 8.76251E-03-3.57432E-01
 -1       830-2.62866E-02 1.00101E-02-1.84591E-01
 -1       831-2.64834E-02 8.63001E-03-3.58275E-01
 -1       832-2.67418E-02 8.00620E-03-4.44695E-01
 -1       833-6.76836E-03-1.73555E-02-1.47742E-01
 -1       834-1.04346E-02-2.63447E-02-1.47742E-01
 -1       835 1.92026E-02-1.95196E-03-4.93696E-01
 -1       836 2.90241E-02-1.94845E-03-4.93696E-01
 -1       837 7.68787E-03 1.68812E-02-4.94155E-01
 -1       838 1.16167E-02 2.58100E-02-4.94155E-01
 -1       839-1.10807E-02-2.60771E-02-4.97227E-01
 -1       840-7.41447E-03-1.70879E-02-4.97227E-01
 -1       841-1.93178E-02 1.35894E-04-3.35388E-01
 -1       842-2.89493E-02 5.88878E-04-3.35388E-01
 -1       843-2.88830E-02 1.04123E-03-4.88130E-01
 -1       844-1.92515E-02 5.88251E-04-4.88130E-01
 -1       845 1.78732E-02 6.61188E-03-3.82182E-01
 -1       846 2.68920E-02 1.04211E-02-3.82182E-01
 -1       847 1.37667E-02 1.27835E-02-4.92316E-01
 -1       848 2.07019E-02 1.96344E-02-4.92316E-01
 -1       849 1.34734E-02 1.30767E-02-1.41378E-01
 -1       850 2.04087E-02 1.99276E-02-1.41378E-01
 -1       851 2.69573E-02 1.02099E-02-1.40035E-01
 -1       852 1.79385E-02 6.40066E-03-1.40035E-01
 -1       853-1.92515E-02-4.45662E-04-1.41395E-01
 -1       854-2.88831E-02 7.31821E-06-1.41395E-01
 -1       855 1.35472E-02 1.30406E-02-2.07042E-01
 -1       856 2.04825E-02 1.98915E-02-2.07042E-01
 -1       857-1.33099E-02 1.21193E-02-1.44841E-01
 -1       858-2.02918E-02 1.86861E-02-1.44841E-01
 -1       859-1.91852E-02 1.35895E-04-3.37479E-01
 -1       860-2.88168E-02 5.88878E-04-3.37479E-01
 -1       861-7.86653E-03 1.63958E-02-4.93264E-01
 -1       862-1.17815E-02 2.51491E-02-4.93264E-01
 -1       863 2.05182E-02 1.97806E-02-2.95052E-01
 -1       864 1.35829E-02 1.29297E-02-2.95052E-01
 -1       865 7.70635E-03 1.68350E-02-4.71720E-01
 -1       866 1.16352E-02 2.57637E-02-4.71720E-01
 -1       867-1.35466E-02 1.20032E-02-2.08831E-01
 -1       868-2.05286E-02 1.85699E-02-2.08831E-01
 -1       869 7.75504E-04-1.88404E-02-1.48795E-01
 -1       870 7.06989E-04-2.86199E-02-1.48795E-01
 -1       871-2.66113E-02-1.02776E-02-4.91026E-01
 -1       872-1.76453E-02-6.80097E-03-4.91026E-01
 -1       873-1.36613E-02 1.16472E-02-2.96409E-01
 -1       874-2.06432E-02 1.82140E-02-2.96409E-01
 -1       875-1.42456E-02-1.24801E-02-3.42224E-01
 -1       876-2.11934E-02-1.91104E-02-3.42224E-01
 -1       877-2.59974E-02 1.02557E-02-1.41802E-01
 -1       878-1.70562E-02 6.74974E-03-1.41802E-01
 -1       879-2.70309E-02 7.76055E-03-4.87484E-01
 -1       880-1.80898E-02 4.25459E-03-4.87484E-01
 -1       881 7.44331E-04 1.85425E-02-1.47700E-01
 -1       882 1.03316E-03 2.81649E-02-1.47700E-01
 -1       883 7.62578E-04 1.85613E-02-1.68684E-01
 -1       884 1.05141E-03 2.81836E-02-1.68684E-01
 -1       885 7.62577E-04 1.85238E-02-1.70017E-01
 -1       886 1.05141E-03 2.81462E-02-1.70017E-01
 -1       887 7.44331E-04 1.85519E-02-1.47367E-01
 -1       888 1.03316E-03 2.81742E-02-1.47367E-01
 -1       889 1.06053E-03 2.81462E-02-1.80842E-01
 -1       890 7.71700E-04 1.85238E-02-1.80842E-01
 -1       891 7.99070E-04 1.85613E-02-2.11984E-01
 -1       892 1.08790E-03 2.81836E-02-2.11984E-01
 -1       893 7.44330E-04 1.85332E-02-1.48033E-01
 -1       894 1.03316E-03 2.81555E-02-1.48033E-01
 -1       895 1.08790E-03 2.81462E-02-2.13318E-01
 -1       896 7.99069E-04 1.85238E-02-2.13318E-01
 -1       897-2.89493E-02 7.19357E-05-1.62020E-01
 -1       898-1.93178E-02-3.81045E-04-1.62020E-01
 -1       899 7.92759E-03-1.77498E-02-4.32635E-01
 -1       900 1.18086E-02-2.65138E-02-4.32635E-01
 -1       901 7.73363E-03 1.69008E-02-4.72703E-01
 -1       902 1.16625E-02 2.58296E-02-4.72703E-01
 -1       903 2.04083E-02 1.98905E-02-1.63450E-01
 -1       904 1.34730E-02 1.30396E-02-1.63450E-01
 -1       905 7.96327E-03 1.67285E-02-2.96174E-01
 -1       906 1.18921E-02 2.56573E-02-2.96174E-01
 -1       907 1.36938E-02 1.28940E-02-3.82511E-01
 -1       908 2.06291E-02 1.97448E-02-3.82511E-01
 -1       909 2.73882E-02-1.10592E-02-2.51202E-01
 -1       910 1.83696E-02-7.34806E-03-2.51202E-01
 -1       911 7.79500E-03-1.77582E-02-3.04346E-01
 -1       912 1.16761E-02-2.65222E-02-3.04346E-01
 -1       913 1.92026E-02 1.89815E-04-1.40122E-01
 -1       914 2.90241E-02 1.93335E-04-1.40122E-01
 -1       915 1.36196E-02 1.28930E-02-3.38919E-01
 -1       916 2.05549E-02 1.97439E-02-3.38919E-01
 -1       917-1.33083E-02 1.20001E-02-1.67074E-01
 -1       918-2.02903E-02 1.85669E-02-1.67074E-01
 -1       919 1.90653E-02-4.79523E-04-2.50606E-01
 -1       920 2.88868E-02-4.76005E-04-2.50606E-01
 -1       921 1.78200E-02 6.63314E-03-4.26551E-01
 -1       922 2.68388E-02 1.04424E-02-4.26551E-01
 -1       923 2.17178E-02-1.98414E-02-4.96104E-01
 -1       924 1.45636E-02-1.32603E-02-4.96104E-01
 -1       925-1.75824E-02-7.05015E-03-3.39100E-01
 -1       926-2.65484E-02-1.05268E-02-3.39100E-01
 -1       927-2.63889E-02-1.08146E-02-1.44923E-01
 -1       928-1.74228E-02-7.33793E-03-1.44923E-01
 -1       929-7.62883E-03 1.65566E-02-3.84814E-01
 -1       930-1.15438E-02 2.53100E-02-3.84814E-01
 -1       931 1.21305E-02 2.55971E-02-1.43062E-01
 -1       932 8.20172E-03 1.66684E-02-1.43062E-01
 -1       933 1.03627E-03 1.85425E-02-4.94104E-01
 -1       934 1.32511E-03 2.81649E-02-4.94104E-01
 -1       935-2.64372E-02-1.07953E-02-1.66048E-01
 -1       936-1.74712E-02-7.31863E-03-1.66048E-01
 -1       937 8.72053E-04 1.85238E-02-2.99919E-01
 -1       938 1.16089E-03 2.81462E-02-2.99919E-01
 -1       939 1.35096E-02 1.30030E-02-2.07317E-01
 -1       940 2.04449E-02 1.98539E-02-2.07317E-01
 -1       941 1.78506E-02 6.55920E-03-3.38440E-01
 -1       942 2.68694E-02 1.03685E-02-3.38440E-01
 -1       943-2.71263E-02 7.98275E-03-4.65458E-01
 -1       944-1.81851E-02 4.47679E-03-4.65458E-01
 -1       945 1.78160E-02 6.69644E-03-4.92476E-01
 -1       946 2.68348E-02 1.05057E-02-4.92476E-01
 -1       947-2.15662E-02-1.86097E-02-4.93961E-01
 -1       948-1.46184E-02-1.19793E-02-4.93961E-01
 -1       949-5.85467E-04-1.88404E-02-5.00856E-01
 -1       950-6.53977E-04-2.86199E-02-5.00856E-01
 -1       951-7.11462E-03-1.71636E-02-3.44206E-01
 -1       952-1.07809E-02-2.61528E-02-3.44206E-01
 -1       953 1.79038E-02 6.53794E-03-2.94072E-01
 -1       954 2.69226E-02 1.03472E-02-2.94072E-01
 -1       955 7.97743E-03-1.77059E-02-4.97849E-01
 -1       956 1.18585E-02-2.64698E-02-4.97849E-01
 -1       957 7.73404E-03-1.78299E-02-2.17037E-01
 -1       958 1.16151E-02-2.65939E-02-2.17037E-01
 -1       959-1.42509E-02 1.11782E-02-4.89734E-01
 -1       960-2.12328E-02 1.77450E-02-4.89734E-01
 -1       961-2.62220E-02 1.01660E-02-1.62986E-01
 -1       962-1.72808E-02 6.66005E-03-1.62986E-01
 -1       963 3.50195E-04-1.89276E-02-2.58656E-01
 -1       964 2.81683E-04-2.87072E-02-2.58656E-01
 -1       965 2.07024E-02 1.96715E-02-4.70245E-01
 -1       966 1.37672E-02 1.28206E-02-4.70245E-01
 -1       967-7.79250E-03 1.63640E-02-4.72314E-01
 -1       968-1.17075E-02 2.51173E-02-4.72314E-01
 -1       969-2.63683E-02-1.07668E-02-1.67060E-01
 -1       970-1.74023E-02-7.29011E-03-1.67060E-01
 -1       971 1.20848E-02 2.55775E-02-1.64514E-01
 -1       972 8.15596E-03 1.66487E-02-1.64514E-01
 -1       973 1.21121E-02 2.56434E-02-1.65496E-01
 -1       974 8.18325E-03 1.67146E-02-1.65496E-01
 -1       975 1.21281E-02 2.56367E-02-1.54524E-01
 -1       976 8.19931E-03 1.67080E-02-1.54524E-01
 -1       977 1.20478E-02 2.56700E-02-2.09383E-01
 -1       978 8.11901E-03 1.67412E-02-2.09383E-01
 -1       979 1.21237E-02 2.55807E-02-1.42816E-01
 -1       980 8.19490E-03 1.66519E-02-1.42816E-01
 -1       981 8.09173E-03 1.66753E-02-2.08401E-01
 -1       982 1.20206E-02 2.56041E-02-2.08401E-01
 -1       983-1.76658E-02-6.84878E-03-4.68889E-01
 -1       984-2.66318E-02-1.03254E-02-4.68889E-01
 -1       985-1.93178E-02 5.23628E-04-4.65413E-01
 -1       986-2.89493E-02 9.76610E-04-4.65413E-01
 -1       987-1.91852E-02 5.23625E-04-4.67504E-01
 -1       988-2.88167E-02 9.76609E-04-4.67504E-01
 -1       989-1.92847E-02 5.88253E-04-4.87607E-01
 -1       990-2.89162E-02 1.04124E-03-4.87607E-01
 -1       991-1.92184E-02 5.88249E-04-4.88652E-01
 -1       992-2.88499E-02 1.04123E-03-4.88652E-01
 -1       993-1.93178E-02 3.94375E-04-4.22072E-01
 -1       994-2.89493E-02 8.47359E-04-4.22072E-01
 -1       995 1.78579E-02 6.64885E-03-4.26237E-01
 -1       996 2.68767E-02 1.04581E-02-4.26237E-01
 -1       997 2.68235E-02 1.04794E-02-4.70606E-01
 -1       998 1.78047E-02 6.67011E-03-4.70606E-01
 -1       999 1.78426E-02 6.68581E-03-4.70292E-01
 -1      1000 2.68614E-02 1.04951E-02-4.70292E-01
 -1      1001 1.78065E-02 6.69252E-03-4.92555E-01
 -1      1002 2.68253E-02 1.05018E-02-4.92555E-01
 -1      1003 1.78388E-02 6.69506E-03-4.81306E-01
 -1      1004 2.68575E-02 1.05043E-02-4.81306E-01
 -1      1005 1.78254E-02 6.70037E-03-4.92398E-01
 -1      1006 2.68442E-02 1.05096E-02-4.92398E-01
 -1      1007 1.78162E-02 6.64238E-03-4.37564E-01
 -1      1008 2.68349E-02 1.04516E-02-4.37564E-01
 -1      1009 9.45045E-04 1.85613E-02-3.85187E-01
 -1      1010 1.23388E-03 2.81836E-02-3.85187E-01
 -1      1011-1.37819E-02 1.17679E-02-2.95054E-01
 -1      1012-2.07638E-02 1.83347E-02-2.95054E-01
 -1      1013-7.58469E-03 1.64501E-02-3.86047E-01
 -1      1014-1.14997E-02 2.52034E-02-3.86047E-01
 -1      1015 1.35106E-02 1.30772E-02-1.63174E-01
 -1      1016 2.04458E-02 1.99281E-02-1.63174E-01
 -1      1017-1.74056E-02-7.33080E-03-1.45175E-01
 -1      1018-2.63717E-02-1.08075E-02-1.45175E-01
 -1      1019-2.64441E-02-1.07785E-02-1.76864E-01
 -1      1020-1.74781E-02-7.30185E-03-1.76864E-01
 -1      1021-1.74401E-02-7.34506E-03-1.44670E-01
 -1      1022-2.64061E-02-1.08217E-02-1.44670E-01
 -1      1023-1.74990E-02-7.25151E-03-2.09311E-01
 -1      1024-2.64650E-02-1.07282E-02-2.09311E-01
 -1      1025-2.63614E-02-1.07836E-02-1.56244E-01
 -1      1026-1.73954E-02-7.30689E-03-1.56244E-01
 -1      1027-1.75059E-02-7.23473E-03-2.20127E-01
 -1      1028-2.64719E-02-1.07114E-02-2.20127E-01
 -1      1029 1.36562E-02 1.28564E-02-3.82786E-01
 -1      1030 2.05915E-02 1.97072E-02-3.82786E-01
 -1      1031 2.06007E-02 1.96981E-02-3.93753E-01
 -1      1032 1.36654E-02 1.28472E-02-3.93753E-01
 -1      1033 1.36847E-02 1.29031E-02-3.71544E-01
 -1      1034 2.06199E-02 1.97540E-02-3.71544E-01
 -1      1035 1.37305E-02 1.28573E-02-4.26378E-01
 -1      1036 2.06658E-02 1.97082E-02-4.26378E-01
 -1      1037 1.36929E-02 1.28197E-02-4.26653E-01
 -1      1038 2.06282E-02 1.96706E-02-4.26653E-01
 -1      1039 1.37397E-02 1.28481E-02-4.37345E-01
 -1      1040 2.06749E-02 1.96990E-02-4.37345E-01
 -1      1041 1.37296E-02 1.27830E-02-4.70521E-01
 -1      1042 2.06648E-02 1.96339E-02-4.70521E-01
 -1      1043 2.06932E-02 1.96807E-02-4.59278E-01
 -1      1044 1.37580E-02 1.28298E-02-4.59278E-01
 -1      1045 2.06925E-02 1.96250E-02-4.92385E-01
 -1      1046 1.37573E-02 1.27741E-02-4.92385E-01
 -1      1047 1.36837E-02 1.28289E-02-4.15687E-01
 -1      1048 2.06190E-02 1.96797E-02-4.15687E-01
 -1      1049 2.06740E-02 1.96247E-02-4.81487E-01
 -1      1050 1.37387E-02 1.27739E-02-4.81487E-01
 -1      1051-1.93178E-02 6.65726E-06-2.92046E-01
 -1      1052-2.89493E-02 4.59641E-04-2.92046E-01
 -1      1053-1.79267E-02 5.10060E-03-3.79037E-01
 -1      1054-2.68679E-02 8.60656E-03-3.79037E-01
 -1      1055 1.81730E-02-7.26662E-03-2.51098E-01
 -1      1056 2.71916E-02-1.09778E-02-2.51098E-01
 -1      1057 1.45061E-02-1.33060E-02-3.00363E-01
 -1      1058 2.16604E-02-1.98872E-02-3.00363E-01
 -1      1059 1.93399E-02-4.79523E-04-2.50622E-01
 -1      1060 2.91614E-02-4.76005E-04-2.50622E-01
 -1      1061 1.45291E-02-1.32830E-02-3.87775E-01
 -1      1062 2.16833E-02-1.98642E-02-3.87775E-01
 -1      1063 2.16261E-02-1.99332E-02-1.46458E-01
 -1      1064 1.44719E-02-1.33520E-02-1.46458E-01
 -1      1065-1.76102E-02-6.98302E-03-3.82363E-01
 -1      1066-2.65762E-02-1.04597E-02-3.82363E-01
 -1      1067 9.45044E-04 1.85238E-02-3.86520E-01
 -1      1068 1.23388E-03 2.81462E-02-3.86520E-01
 -1      1069 5.20318E-04-1.89276E-02-2.14648E-01
 -1      1070 4.51805E-04-2.87072E-02-2.14648E-01
 -1      1071-1.75413E-02-6.95451E-03-3.83374E-01
 -1      1072-2.65073E-02-1.04312E-02-3.83374E-01
 -1      1073-1.70901E-02 6.21565E-03-2.07039E-01
 -1      1074-2.60313E-02 9.72163E-03-2.07039E-01
 -1      1075-1.41208E-02-1.26049E-02-2.99018E-01
 -1      1076-2.10687E-02-1.92353E-02-2.99018E-01
 -1      1077 1.18309E-02-2.64580E-02-4.76824E-01
 -1      1078 7.94985E-03-1.76940E-02-4.76824E-01
 -1      1079 7.96630E-03-1.77337E-02-4.75754E-01
 -1      1080 1.18474E-02-2.64977E-02-4.75754E-01
 -1      1081 1.18183E-02-2.65098E-02-4.43415E-01
 -1      1082 7.93727E-03-1.77458E-02-4.43415E-01
 -1      1083 7.97332E-03-1.76959E-02-4.98116E-01
 -1      1084 1.18544E-02-2.64599E-02-4.98116E-01
 -1      1085 7.98155E-03-1.77158E-02-4.97582E-01
 -1      1086 1.18626E-02-2.64798E-02-4.97582E-01
 -1      1087 7.91791E-03-1.77538E-02-4.21855E-01
 -1      1088 1.17990E-02-2.65178E-02-4.21855E-01
 -1      1089 7.88887E-03-1.77658E-02-3.89516E-01
 -1      1090 1.17699E-02-2.65298E-02-3.89516E-01
 -1      1091 7.91114E-03-1.77101E-02-4.33705E-01
 -1      1092 1.17922E-02-2.64741E-02-4.33705E-01
 -1      1093 1.17825E-02-2.64781E-02-4.22925E-01
 -1      1094 7.90146E-03-1.77141E-02-4.22925E-01
 -1      1095 7.87919E-03-1.77698E-02-3.78736E-01
 -1      1096 1.17603E-02-2.65338E-02-3.78736E-01
 -1      1097 7.92082E-03-1.77061E-02-4.44485E-01
 -1      1098 1.18019E-02-2.64700E-02-4.44485E-01
 -1      1099 7.85016E-03-1.77818E-02-3.46396E-01
 -1      1100 1.17312E-02-2.65458E-02-3.46396E-01
 -1      1101 7.87242E-03-1.77261E-02-3.90585E-01
 -1      1102 1.17535E-02-2.64901E-02-3.90585E-01
 -1      1103 7.84048E-03-1.77858E-02-3.35616E-01
 -1      1104 1.17215E-02-2.65499E-02-3.35616E-01
 -1      1105 7.81145E-03-1.77979E-02-3.03277E-01
 -1      1106 1.16925E-02-2.65619E-02-3.03277E-01
 -1      1107 1.16374E-02-2.65382E-02-2.61227E-01
 -1      1108 7.75630E-03-1.77742E-02-2.61227E-01
 -1      1109 1.16471E-02-2.65342E-02-2.72007E-01
 -1      1110 7.76598E-03-1.77702E-02-2.72007E-01
 -1      1111 1.44950E-02-1.33407E-02-2.11082E-01
 -1      1112 2.16492E-02-1.99219E-02-2.11082E-01
 -1      1113-1.36199E-02-1.29777E-02-1.48316E-01
 -1      1114-2.05678E-02-1.96081E-02-1.48316E-01
 -1      1115-1.43672E-02-1.21025E-02-4.29671E-01
 -1      1116-2.13150E-02-1.87328E-02-4.29671E-01
 -1      1117-5.00414E-04-1.89277E-02-4.78694E-01
 -1      1118-5.68922E-04-2.87071E-02-4.78694E-01
 -1      1119 1.80072E-04-1.87532E-02-3.02980E-01
 -1      1120 1.11560E-04-2.85327E-02-3.02980E-01
 -1      1121-3.30297E-04-1.87532E-02-4.35003E-01
 -1      1122-3.98807E-04-2.85327E-02-4.35003E-01
 -1      1123 2.68531E-02-1.20728E-02-4.92519E-01
 -1      1124 1.78346E-02-8.36168E-03-4.92519E-01
 -1      1125-5.00411E-04-1.87532E-02-4.79011E-01
 -1      1126-5.68922E-04-2.85327E-02-4.79011E-01
 -1      1127 8.72054E-04 1.85613E-02-2.98586E-01
 -1      1128 1.16089E-03 2.81836E-02-2.98586E-01
 -1      1129-1.34260E-02 1.18825E-02-2.10186E-01
 -1      1130-2.04079E-02 1.84493E-02-2.10186E-01
 -1      1131-2.63512E-02 9.85413E-03-2.06196E-01
 -1      1132-1.74099E-02 6.34816E-03-2.06196E-01
 -1      1133-1.77975E-02 5.41249E-03-3.35827E-01
 -1      1134-2.67387E-02 8.91846E-03-3.35827E-01
 -1      1135-6.82590E-03-1.73802E-02-1.69707E-01
 -1      1136-1.04921E-02-2.63694E-02-1.69707E-01
 -1      1137-6.79159E-03-1.72974E-02-1.69463E-01
 -1      1138-1.04578E-02-2.62866E-02-1.69463E-01
 -1      1139-6.75979E-03-1.73348E-02-1.47681E-01
 -1      1140-1.04260E-02-2.63240E-02-1.47681E-01
 -1      1141-6.90665E-03-1.73468E-02-2.13393E-01
 -1      1142-1.05729E-02-2.63359E-02-2.13393E-01
 -1      1143-1.05386E-02-2.62531E-02-2.13149E-01
 -1      1144-6.87235E-03-1.72639E-02-2.13149E-01
 -1      1145-6.85216E-03-1.72723E-02-2.02227E-01
 -1      1146-1.05184E-02-2.62615E-02-2.02227E-01
 -1      1147-1.05588E-02-2.62448E-02-2.24070E-01
 -1      1148-6.89253E-03-1.72556E-02-2.24070E-01
 -1      1149-1.06193E-02-2.62197E-02-2.56834E-01
 -1      1150-6.95310E-03-1.72305E-02-2.56834E-01
 -1      1151-6.98741E-03-1.73133E-02-2.57078E-01
 -1      1152-1.06537E-02-2.63025E-02-2.57078E-01
 -1      1153-6.96722E-03-1.73217E-02-2.46157E-01
 -1      1154-1.06335E-02-2.63109E-02-2.46157E-01
 -1      1155 1.84698E-02-6.82810E-03-1.41437E-01
 -1      1156 2.74884E-02-1.05393E-02-1.41437E-01
 -1      1157 2.91613E-02-1.81459E-03-4.71606E-01
 -1      1158 1.93399E-02-1.81811E-03-4.71606E-01
 -1      1159 1.44947E-02-1.33174E-02-2.56658E-01
 -1      1160 2.16489E-02-1.98986E-02-2.56658E-01
 -1      1161-1.39960E-02-1.27297E-02-2.55813E-01
 -1      1162-2.09439E-02-1.93601E-02-2.55813E-01
 -1      1163 1.44717E-02-1.33404E-02-1.69246E-01
 -1      1164 2.16259E-02-1.99216E-02-1.69246E-01
 -1      1165 1.44835E-02-1.33522E-02-1.67376E-01
 -1      1166 2.16377E-02-1.99334E-02-1.67376E-01
 -1      1167 1.44832E-02-1.33289E-02-2.12952E-01
 -1      1168 2.16374E-02-1.99101E-02-2.12952E-01
 -1      1169 1.44748E-02-1.33550E-02-1.45990E-01
 -1      1170 2.16290E-02-1.99362E-02-1.45990E-01
 -1      1171 1.44689E-02-1.33433E-02-1.58319E-01
 -1      1172 2.16231E-02-1.99245E-02-1.58319E-01
 -1      1173 1.44689E-02-1.33491E-02-1.46925E-01
 -1      1174 2.16231E-02-1.99303E-02-1.46925E-01
 -1      1175 2.16345E-02-1.99130E-02-2.02025E-01
 -1      1176 1.44803E-02-1.33318E-02-2.02025E-01
 -1      1177 1.83318E-02-6.88322E-03-1.63327E-01
 -1      1178 2.73504E-02-1.05944E-02-1.63327E-01
 -1      1179 5.20319E-04-1.87532E-02-2.14964E-01
 -1      1180 4.51806E-04-2.85327E-02-2.14964E-01
 -1      1181-1.60174E-04-1.87532E-02-3.90995E-01
 -1      1182-2.28685E-04-2.85327E-02-3.90995E-01
 -1      1183-1.93178E-02-2.51811E-04-2.05362E-01
 -1      1184-2.89493E-02 2.01171E-04-2.05362E-01
 -1      1185 1.78965E-02 6.44828E-03-2.06275E-01
 -1      1186 2.69154E-02 1.02575E-02-2.06275E-01
 -1      1187-1.77360E-02 4.65619E-03-4.23090E-01
 -1      1188-2.66772E-02 8.16215E-03-4.23090E-01
 -1      1189-1.75135E-02-7.02163E-03-3.40111E-01
 -1      1190-2.64795E-02-1.04983E-02-3.40111E-01
 -1      1191-7.42101E-03 1.66427E-02-2.98547E-01
 -1      1192-1.13360E-02 2.53961E-02-2.98547E-01
 -1      1193-7.16905E-03 1.66222E-02-2.13513E-01
 -1      1194-1.10840E-02 2.53756E-02-2.13513E-01
 -1      1195 1.45520E-02-1.32601E-02-4.75186E-01
 -1      1196 2.17062E-02-1.98413E-02-4.75186E-01
 -1      1197 1.45638E-02-1.32719E-02-4.73316E-01
 -1      1198 2.17180E-02-1.98530E-02-4.73316E-01
 -1      1199 1.45549E-02-1.32572E-02-4.86113E-01
 -1      1200 2.17091E-02-1.98384E-02-4.86113E-01
 -1      1201 1.45523E-02-1.32833E-02-4.29611E-01
 -1      1202 2.17065E-02-1.98645E-02-4.29611E-01
 -1      1203-1.38965E-02 1.14120E-02-3.82633E-01
 -1      1204-2.08785E-02 1.79787E-02-3.82633E-01
 -1      1205 1.01803E-03 1.85613E-02-4.71787E-01
 -1      1206 1.30686E-03 2.81836E-02-4.71787E-01
 -1      1207 2.91614E-02 5.94656E-05-1.62229E-01
 -1      1208 1.93399E-02 5.59456E-05-1.62229E-01
 -1      1209 2.91614E-02-2.08271E-04-2.06426E-01
 -1      1210 1.93399E-02-2.11790E-04-2.06426E-01
 -1      1211 1.90653E-02-2.11790E-04-2.06409E-01
 -1      1212 2.88868E-02-2.08270E-04-2.06409E-01
 -1      1213 1.90653E-02 5.59462E-05-1.62213E-01
 -1      1214 2.88868E-02 5.94660E-05-1.62213E-01
 -1      1215 1.93399E-02-1.09884E-05-1.73278E-01
 -1      1216 2.91614E-02-7.46871E-06-1.73278E-01
 -1      1217 2.88868E-02-1.41337E-04-1.95360E-01
 -1      1218 1.90653E-02-1.44856E-04-1.95360E-01
 -1      1219 2.88868E-02-7.46837E-06-1.73262E-01
 -1      1220 1.90653E-02-1.09879E-05-1.73262E-01
 -1      1221 2.88868E-02 1.26401E-04-1.51163E-01
 -1      1222 1.90653E-02 1.22881E-04-1.51163E-01
 -1      1223 1.80520E-02-8.11487E-03-4.26743E-01
 -1      1224 2.70705E-02-1.18260E-02-4.26743E-01
 -1      1225 2.71121E-02-1.11695E-02-2.94983E-01
 -1      1226 1.80936E-02-7.45832E-03-2.94983E-01
 -1      1227 2.16607E-02-1.99104E-02-2.54787E-01
 -1      1228 1.45064E-02-1.33292E-02-2.54787E-01
 -1      1229 7.99056E-03 1.67944E-02-2.97156E-01
 -1      1230 1.19194E-02 2.57232E-02-2.97156E-01
 -1      1231 1.17267E-02 2.58030E-02-4.28816E-01
 -1      1232 7.79787E-03 1.68742E-02-4.28816E-01
 -1      1233 1.90653E-02-1.01498E-03-3.39000E-01
 -1      1234 2.88868E-02-1.01146E-03-3.39000E-01
 -1      1235 1.93399E-02-1.55040E-03-4.27409E-01
 -1      1236 2.91614E-02-1.54689E-03-4.27409E-01
 -1      1237 7.66776E-03-1.78341E-02-1.52893E-01
 -1      1238 1.15488E-02-2.65981E-02-1.52893E-01
 -1      1239 6.90443E-04-1.87532E-02-1.70957E-01
 -1      1240 6.21928E-04-2.85327E-02-1.70957E-01
 -1      1241 6.90442E-04-1.89276E-02-1.70640E-01
 -1      1242 6.21927E-04-2.87072E-02-1.70640E-01
 -1      1243 7.32973E-04-1.89276E-02-1.59638E-01
 -1      1244 6.64458E-04-2.87072E-02-1.59638E-01
 -1      1245 4.94336E-04-2.87072E-02-2.03646E-01
 -1      1246 5.62849E-04-1.89276E-02-2.03646E-01
 -1      1247 5.62850E-04-1.87532E-02-2.03962E-01
 -1      1248 4.94336E-04-2.85327E-02-2.03962E-01
 -1      1249 9.94874E-06-1.89277E-02-3.46671E-01
 -1      1250-5.85619E-05-2.87071E-02-3.46671E-01
 -1      1251-5.42937E-04-1.87532E-02-4.90013E-01
 -1      1252-6.11448E-04-2.85327E-02-4.90013E-01
 -1      1253-5.26393E-04-2.87071E-02-4.67693E-01
 -1      1254-4.57885E-04-1.89277E-02-4.67693E-01
 -1      1255-4.41336E-04-2.85327E-02-4.46005E-01
 -1      1256-3.72826E-04-1.87532E-02-4.46005E-01
 -1      1257-2.87767E-04-1.87532E-02-4.24001E-01
 -1      1258-3.56277E-04-2.85327E-02-4.24001E-01
 -1      1259-1.38680E-02-1.26017E-02-2.56849E-01
 -1      1260-2.08158E-02-1.92321E-02-2.56849E-01
 -1      1261-1.39928E-02-1.24769E-02-3.00054E-01
 -1      1262-2.09406E-02-1.91073E-02-3.00054E-01
 -1      1263-1.72193E-02 5.90377E-03-2.50249E-01
 -1      1264-2.61605E-02 9.40974E-03-2.50249E-01
 -1      1265-1.69609E-02 6.52755E-03-1.63829E-01
 -1      1266-2.59021E-02 1.00335E-02-1.63829E-01
 -1      1267-7.73274E-03 1.65136E-02-4.27948E-01
 -1      1268-1.16477E-02 2.52669E-02-4.27948E-01
 -1      1269-1.60176E-04-1.89277E-02-3.90679E-01
 -1      1270-2.28685E-04-2.87071E-02-3.90679E-01
 -1      1271-1.93178E-02-1.22577E-04-2.48704E-01
 -1      1272-2.89493E-02 3.30405E-04-2.48704E-01
 -1      1273-1.91852E-02-1.22578E-04-2.50795E-01
 -1      1274-2.88168E-02 3.30405E-04-2.50795E-01
 -1      1275-1.93178E-02 2.65133E-04-3.78730E-01
 -1      1276-2.89493E-02 7.18117E-04-3.78730E-01
 -1      1277-1.91852E-02 2.65132E-04-3.80820E-01
 -1      1278-2.88168E-02 7.18116E-04-3.80820E-01
 -1      1279-1.44952E-02-1.22305E-02-4.28635E-01
 -1      1280-2.14430E-02-1.88608E-02-4.28635E-01
 -1      1281-2.05662E-02-1.94817E-02-1.70437E-01
 -1      1282-1.36183E-02-1.28513E-02-1.70437E-01
 -1      1283-1.37464E-02-1.29793E-02-1.69401E-01
 -1      1284-2.06942E-02-1.96097E-02-1.69401E-01
 -1      1285-1.10575E-02-2.61352E-02-4.75506E-01
 -1      1286-7.39124E-03-1.71461E-02-4.75506E-01
 -1      1287-1.10232E-02-2.60524E-02-4.75262E-01
 -1      1288-7.35693E-03-1.70632E-02-4.75262E-01
 -1      1289-1.10434E-02-2.60440E-02-4.86184E-01
 -1      1290-7.37712E-03-1.70549E-02-4.86184E-01
 -1      1291-7.37105E-03-1.71544E-02-4.64585E-01
 -1      1292-1.10373E-02-2.61436E-02-4.64585E-01
 -1      1293-1.09767E-02-2.61687E-02-4.31821E-01
 -1      1294-7.31047E-03-1.71795E-02-4.31821E-01
 -1      1295 7.69533E-03-1.78459E-02-1.73918E-01
 -1      1296 1.15764E-02-2.66100E-02-1.73918E-01
 -1      1297 7.67889E-03-1.78062E-02-1.74987E-01
 -1      1298 1.15600E-02-2.65703E-02-1.74987E-01
 -1      1299 7.67187E-03-1.78440E-02-1.52625E-01
 -1      1300 1.15530E-02-2.66081E-02-1.52625E-01
 -1      1301 7.71759E-03-1.77902E-02-2.18107E-01
 -1      1302 1.15987E-02-2.65543E-02-2.18107E-01
 -1      1303 7.66921E-03-1.78103E-02-1.64207E-01
 -1      1304 1.15503E-02-2.65743E-02-1.64207E-01
 -1      1305 7.66365E-03-1.78242E-02-1.53160E-01
 -1      1306 1.15447E-02-2.65882E-02-1.53160E-01
 -1      1307 7.83371E-03-1.77421E-02-3.47466E-01
 -1      1308 1.17148E-02-2.65061E-02-3.47466E-01
 -1      1309 1.45409E-02-1.32948E-02-3.85905E-01
 -1      1310 2.16951E-02-1.98760E-02-3.85905E-01
 -1      1311 2.16718E-02-1.98757E-02-3.44069E-01
 -1      1312 1.45176E-02-1.32945E-02-3.44069E-01
 -1      1313 1.80142E-02-7.65002E-03-3.38868E-01
 -1      1314 2.70327E-02-1.13612E-02-3.38868E-01
 -1      1315 1.79348E-02-7.84172E-03-3.82754E-01
 -1      1316 2.69533E-02-1.15529E-02-3.82754E-01
 -1      1317 1.90653E-02-1.81811E-03-4.71590E-01
 -1      1318 2.88868E-02-1.81459E-03-4.71590E-01
 -1      1319 2.91614E-02-1.74767E-03-4.60557E-01
 -1      1320 1.93399E-02-1.75118E-03-4.60557E-01
 -1      1321 1.90653E-02-1.55040E-03-4.27393E-01
 -1      1322 2.88868E-02-1.54688E-03-4.27393E-01
 -1      1323 1.91339E-02-1.95196E-03-4.93692E-01
 -1      1324 2.89554E-02-1.94844E-03-4.93692E-01
 -1      1325 1.92712E-02-1.95196E-03-4.93700E-01
 -1      1326 2.90927E-02-1.94845E-03-4.93700E-01
 -1      1327 2.88868E-02-1.61381E-03-4.38442E-01
 -1      1328 1.90653E-02-1.61733E-03-4.38442E-01
 -1      1329 2.88868E-02-1.88152E-03-4.82639E-01
 -1      1330 1.90653E-02-1.88503E-03-4.82639E-01
 -1      1331 9.08549E-04 1.85613E-02-3.41886E-01
 -1      1332 1.19738E-03 2.81836E-02-3.41886E-01
 -1      1333 1.36205E-02 1.29673E-02-2.94776E-01
 -1      1334 2.05558E-02 1.98181E-02-2.94776E-01
 -1      1335 8.02750E-03 1.67019E-02-2.52287E-01
 -1      1336 1.19563E-02 2.56307E-02-2.52287E-01
 -1      1337 8.35561E-04 1.85238E-02-2.56618E-01
 -1      1338 1.12440E-03 2.81462E-02-2.56618E-01
 -1      1339-1.40172E-02 1.15326E-02-3.81278E-01
 -1      1340-2.09991E-02 1.80994E-02-3.81278E-01
 -1      1341-7.31710E-03 1.66857E-02-2.55413E-01
 -1      1342-1.12321E-02 2.54391E-02-2.55413E-01
 -1      1343-2.08815E-02 1.82170E-02-3.38166E-01
 -1      1344-1.38995E-02 1.16503E-02-3.38166E-01
 -1      1345-2.04109E-02 1.86876E-02-1.65719E-01
 -1      1346-1.34290E-02 1.21208E-02-1.65719E-01
 -1      1347-1.41318E-02 1.11767E-02-4.68856E-01
 -1      1348-2.11137E-02 1.77435E-02-4.68856E-01
 -1      1349-1.42524E-02 1.12974E-02-4.67501E-01
 -1      1350-2.12344E-02 1.78641E-02-4.67501E-01
 -1      1351-1.42818E-02 1.12680E-02-4.78279E-01
 -1      1352-2.12638E-02 1.78347E-02-4.78279E-01
 -1      1353-1.41348E-02 1.14150E-02-4.24389E-01
 -1      1354-2.11167E-02 1.79817E-02-4.24389E-01
 -1      1355-1.42208E-02 1.11481E-02-4.90073E-01
 -1      1356-2.12027E-02 1.77148E-02-4.90073E-01
 -1      1357-1.42811E-02 1.12084E-02-4.89395E-01
 -1      1358-2.12630E-02 1.77751E-02-4.89395E-01
 -1      1359-2.09961E-02 1.78611E-02-4.25744E-01
 -1      1360-1.40142E-02 1.12943E-02-4.25744E-01
 -1      1361-2.68064E-02 7.85025E-03-4.66300E-01
 -1      1362-1.78652E-02 4.34429E-03-4.66300E-01
 -1      1363-2.69510E-02 7.72742E-03-4.87695E-01
 -1      1364-1.80098E-02 4.22146E-03-4.87695E-01
 -1      1365-1.78329E-02 4.42226E-03-4.55498E-01
 -1      1366-2.67741E-02 7.92822E-03-4.55498E-01
 -1      1367-1.80559E-02 4.78870E-03-4.22248E-01
 -1      1368-2.69971E-02 8.29466E-03-4.22248E-01
 -1      1369-2.67095E-02 8.08418E-03-4.33893E-01
 -1      1370-1.77683E-02 4.57821E-03-4.33893E-01
 -1      1371 2.67945E-02-1.19363E-02-4.70524E-01
 -1      1372 1.77760E-02-8.22512E-03-4.70524E-01
 -1      1373 1.01803E-03 1.85238E-02-4.73120E-01
 -1      1374 1.30686E-03 2.81461E-02-4.73120E-01
 -1      1375-1.35879E-02-1.29457E-02-1.48575E-01
 -1      1376-2.05358E-02-1.95761E-02-1.48575E-01
 -1      1377-2.07254E-02-1.95785E-02-1.80202E-01
 -1      1378-1.37776E-02-1.29481E-02-1.80202E-01
 -1      1379-1.37432E-02-1.27265E-02-2.13643E-01
 -1      1380-2.06910E-02-1.93569E-02-2.13643E-01
 -1      1381-2.05350E-02-1.95129E-02-1.59636E-01
 -1      1382-1.35871E-02-1.28825E-02-1.59636E-01
 -1      1383-2.06598E-02-1.93881E-02-2.02841E-01
 -1      1384-1.37119E-02-1.27577E-02-2.02841E-01
 -1      1385-1.38712E-02-1.28545E-02-2.12607E-01
 -1      1386-2.08190E-02-1.94849E-02-2.12607E-01
 -1      1387-7.48078E-03 1.64931E-02-3.42914E-01
 -1      1388-1.13957E-02 2.52465E-02-3.42914E-01
 -1      1389 9.94824E-06-1.87532E-02-3.46988E-01
 -1      1390-5.85625E-05-2.85327E-02-3.46988E-01
 -1      1391 1.90653E-02-1.28269E-03-3.83197E-01
 -1      1392 2.88868E-02-1.27917E-03-3.83197E-01
 -1      1393 2.75470E-02-1.06758E-02-1.63432E-01
 -1      1394 1.85284E-02-6.96467E-03-1.63432E-01
 -1      1395 1.45179E-02-1.33177E-02-2.98493E-01
 -1      1396 2.16721E-02-1.98989E-02-2.98493E-01
 -1      1397 1.93399E-02-1.01498E-03-3.39016E-01
 -1      1398 2.91614E-02-1.01146E-03-3.39016E-01
 -1      1399-2.09718E-02-1.90761E-02-3.10856E-01
 -1      1400-1.40240E-02-1.24457E-02-3.10856E-01
 -1      1401-1.40896E-02-1.26361E-02-2.88217E-01
 -1      1402-2.10375E-02-1.92665E-02-2.88217E-01
 -1      1403-2.10654E-02-1.89824E-02-3.43260E-01
 -1      1404-1.41176E-02-1.23521E-02-3.43260E-01
 -1      1405-2.09094E-02-1.91385E-02-2.89253E-01
 -1      1406-1.39616E-02-1.25081E-02-2.89253E-01
 -1      1407-2.10966E-02-1.89512E-02-3.54062E-01
 -1      1408-1.41488E-02-1.23209E-02-3.54062E-01
 -1      1409-2.88168E-02 7.19355E-05-1.64111E-01
 -1      1410-1.91852E-02-3.81045E-04-1.64111E-01
 -1      1411-1.93178E-02-3.48736E-04-1.72856E-01
 -1      1412-2.89493E-02 1.04245E-04-1.72856E-01
 -1      1413-2.88168E-02 2.01171E-04-2.07453E-01
 -1      1414-1.91852E-02-2.51811E-04-2.07453E-01
 -1      1415-2.89162E-02 7.31838E-06-1.40872E-01
 -1      1416-1.92847E-02-4.45662E-04-1.40872E-01
 -1      1417-2.88499E-02 7.31809E-06-1.41918E-01
 -1      1418-1.92184E-02-4.45662E-04-1.41918E-01
 -1      1419-1.93178E-02-4.13353E-04-1.51185E-01
 -1      1420-2.89493E-02 3.96270E-05-1.51185E-01
 -1      1421-1.91852E-02-2.84120E-04-1.96618E-01
 -1      1422-2.88168E-02 1.68862E-04-1.96618E-01
 -1      1423-2.88168E-02 3.96266E-05-1.53276E-01
 -1      1424-1.91852E-02-4.13354E-04-1.53276E-01
 -1      1425-1.91852E-02-3.48737E-04-1.74947E-01
 -1      1426-2.88168E-02 1.04244E-04-1.74947E-01
 -1      1427-2.88168E-02 2.33479E-04-2.18289E-01
 -1      1428-1.91852E-02-2.19503E-04-2.18289E-01
 -1      1429 8.35561E-04 1.85613E-02-2.55285E-01
 -1      1430 1.12439E-03 2.81836E-02-2.55285E-01
 -1      1431 1.29774E-03 2.81461E-02-4.62295E-01
 -1      1432 1.00890E-03 1.85238E-02-4.62295E-01
 -1      1433 1.32511E-03 2.81742E-02-4.93771E-01
 -1      1434 1.03627E-03 1.85519E-02-4.93771E-01
 -1      1435 1.29774E-03 2.81836E-02-4.60962E-01
 -1      1436 1.00891E-03 1.85613E-02-4.60962E-01
 -1      1437 9.81538E-04 1.85238E-02-4.29820E-01
 -1      1438 1.27037E-03 2.81461E-02-4.29820E-01
 -1      1439 1.03627E-03 1.85332E-02-4.94437E-01
 -1      1440 1.32511E-03 2.81555E-02-4.94437E-01
 -1      1441 1.27950E-03 2.81461E-02-4.40645E-01
 -1      1442 9.90661E-04 1.85238E-02-4.40645E-01
 -1      1443 9.81540E-04 1.85613E-02-4.28487E-01
 -1      1444 1.27037E-03 2.81836E-02-4.28487E-01
 -1      1445 9.72415E-04 1.85238E-02-4.18995E-01
 -1      1446 1.26125E-03 2.81462E-02-4.18995E-01
 -1      1447-1.43704E-02-1.23553E-02-3.85430E-01
 -1      1448-2.13182E-02-1.89856E-02-3.85430E-01
 -1      1449 1.36572E-02 1.29306E-02-3.38644E-01
 -1      1450 2.05925E-02 1.97815E-02-3.38644E-01
 -1      1451-1.75691E-02-6.88738E-03-4.26637E-01
 -1      1452-2.65351E-02-1.03640E-02-4.26637E-01
 -1      1453-1.46200E-02-1.21057E-02-4.71841E-01
 -1      1454-2.15678E-02-1.87360E-02-4.71841E-01
 -1      1455-1.44920E-02-1.19777E-02-4.72877E-01
 -1      1456-2.14398E-02-1.86081E-02-4.72877E-01
 -1      1457-1.45864E-02-1.19473E-02-4.94220E-01
 -1      1458-2.15342E-02-1.85777E-02-4.94220E-01
 -1      1459-1.46512E-02-1.20745E-02-4.82642E-01
 -1      1460-2.15990E-02-1.87048E-02-4.82642E-01
 -1      1461-2.13462E-02-1.87016E-02-4.40473E-01
 -1      1462-1.43984E-02-1.20713E-02-4.40473E-01
 -1      1463-1.45264E-02-1.21993E-02-4.39436E-01
 -1      1464-2.14742E-02-1.88296E-02-4.39437E-01
 -1      1465-1.43360E-02-1.21337E-02-4.18870E-01
 -1      1466-2.12838E-02-1.87640E-02-4.18870E-01
 -1      1467 1.45406E-02-1.32716E-02-4.31481E-01
 -1      1468 2.16948E-02-1.98528E-02-4.31481E-01
 -1      1469 2.72710E-02-1.07861E-02-2.07213E-01
 -1      1470 1.82524E-02-7.07492E-03-2.07213E-01
 -1      1471 1.84206E-02-6.80773E-03-1.41411E-01
 -1      1472 2.74392E-02-1.05189E-02-1.41411E-01
 -1      1473 1.84490E-02-7.15637E-03-2.07317E-01
 -1      1474 2.74676E-02-1.08675E-02-2.07317E-01
 -1      1475 2.73702E-02-1.05465E-02-1.52356E-01
 -1      1476 1.83516E-02-6.83530E-03-1.52356E-01
 -1      1477 1.79119E-02 6.41130E-03-1.62220E-01
 -1      1478 2.69307E-02 1.02206E-02-1.62220E-01
 -1      1479 1.79498E-02 6.42701E-03-1.61906E-01
 -1      1480 2.69686E-02 1.02363E-02-1.61906E-01
 -1      1481 1.79290E-02 6.39674E-03-1.40114E-01
 -1      1482 2.69478E-02 1.02060E-02-1.40114E-01
 -1      1483 1.79480E-02 6.40459E-03-1.39957E-01
 -1      1484 2.69668E-02 1.02139E-02-1.39957E-01
 -1      1485 2.69268E-02 1.02298E-02-1.73233E-01
 -1      1486 1.79080E-02 6.42054E-03-1.73233E-01
 -1      1487 2.69192E-02 1.02483E-02-1.95261E-01
 -1      1488 1.79004E-02 6.43903E-03-1.95261E-01
 -1      1489 2.69533E-02 1.02733E-02-2.05961E-01
 -1      1490 1.79345E-02 6.46399E-03-2.05961E-01
 -1      1491-1.17516E-02 2.52239E-02-4.71081E-01
 -1      1492-7.83665E-03 1.64706E-02-4.71081E-01
 -1      1493 1.78554E-02-8.03342E-03-4.26639E-01
 -1      1494 2.68739E-02-1.17446E-02-4.26639E-01
 -1      1495-2.05256E-02 1.83316E-02-2.53297E-01
 -1      1496-1.35436E-02 1.17649E-02-2.53297E-01
 -1      1497 1.93399E-02-7.47252E-04-2.94819E-01
 -1      1498 2.91614E-02-7.43734E-04-2.94819E-01
 -1      1499 1.90653E-02-7.47251E-04-2.94803E-01
 -1      1500 2.88868E-02-7.43733E-04-2.94803E-01
 -1      1501-1.75970E-02-6.82027E-03-4.69900E-01
 -1      1502-2.65630E-02-1.02969E-02-4.69900E-01
 -1      1503 1.93399E-02-1.28269E-03-3.83213E-01
 -1      1504 2.91614E-02-1.27917E-03-3.83213E-01
 -1      1505 2.68847E-02 1.03315E-02-2.94385E-01
 -1      1506 1.78659E-02 6.52223E-03-2.94385E-01
 -1      1507-1.36643E-02 1.18855E-02-2.51943E-01
 -1      1508-2.06462E-02 1.84523E-02-2.51943E-01
 -1      1509 1.34640E-02 1.30673E-02-1.41447E-01
 -1      1510 2.03993E-02 1.99182E-02-1.41447E-01
 -1      1511 2.69911E-02-1.20177E-02-4.70628E-01
 -1      1512 1.79726E-02-8.30656E-03-4.70628E-01
 -1      1513-1.91852E-02 3.94373E-04-4.24162E-01
 -1      1514-2.88168E-02 8.47358E-04-4.24162E-01
 -1      1515-7.19539E-03-1.71301E-02-3.87891E-01
 -1      1516-1.08616E-02-2.61193E-02-3.87891E-01
 -1      1517-1.91852E-02 6.65806E-06-2.94137E-01
 -1      1518-2.88168E-02 4.59641E-04-2.94137E-01
 -1      1519-1.17256E-02 2.52347E-02-4.60298E-01
 -1      1520-7.81067E-03 1.64813E-02-4.60298E-01
 -1      1521-1.16036E-02 2.51604E-02-4.29181E-01
 -1      1522-7.68859E-03 1.64070E-02-4.29181E-01
 -1      1523-7.85549E-03 1.63691E-02-4.93573E-01
 -1      1524-1.17705E-02 2.51224E-02-4.93573E-01
 -1      1525-7.87757E-03 1.64224E-02-4.92956E-01
 -1      1526-1.17925E-02 2.51757E-02-4.92956E-01
 -1      1527-1.16737E-02 2.52562E-02-4.38731E-01
 -1      1528-7.75872E-03 1.65028E-02-4.38731E-01
 -1      1529-1.17334E-02 2.51066E-02-4.83098E-01
 -1      1530-7.81848E-03 1.63532E-02-4.83098E-01
 -1      1531-7.70676E-03 1.65244E-02-4.17164E-01
 -1      1532-1.16217E-02 2.52777E-02-4.17164E-01
 -1      1533-1.08152E-02-2.62356E-02-3.44450E-01
 -1      1534-7.14893E-03-1.72464E-02-3.44449E-01
 -1      1535 1.79191E-02 6.50096E-03-2.50016E-01
 -1      1536 2.69380E-02 1.03102E-02-2.50016E-01
 -1      1537 1.78353E-02 6.59617E-03-3.82496E-01
 -1      1538 2.68541E-02 1.04054E-02-3.82496E-01
 -1      1539 9.08549E-04 1.85238E-02-3.43219E-01
 -1      1540 1.19738E-03 2.81462E-02-3.43219E-01
 -1      1541 1.35463E-02 1.29663E-02-2.51184E-01
 -1      1542 2.04816E-02 1.98172E-02-2.51184E-01
 -1      1543-1.71362E-02 6.78287E-03-1.41591E-01
 -1      1544-2.60774E-02 1.02888E-02-1.41591E-01
 -1      1545-2.59990E-02 9.79960E-03-1.96236E-01
 -1      1546-1.70578E-02 6.29363E-03-1.96236E-01
 -1      1547-2.61897E-02 1.02440E-02-1.52183E-01
 -1      1548-1.72485E-02 6.73802E-03-1.52183E-01
 -1      1549-1.69286E-02 6.60552E-03-1.53026E-01
 -1      1550-2.58698E-02 1.01115E-02-1.53026E-01
 -1      1551-1.69762E-02 6.71662E-03-1.42013E-01
 -1      1552-2.59175E-02 1.02226E-02-1.42013E-01
 -1      1553-1.71224E-02 6.13768E-03-2.17842E-01
 -1      1554-2.60636E-02 9.64366E-03-2.17842E-01
 -1      1555-2.64804E-02 9.54224E-03-2.49407E-01
 -1      1556-1.75391E-02 6.03627E-03-2.49407E-01
 -1      1557 1.19836E-02 2.56966E-02-2.53270E-01
 -1      1558 8.05479E-03 1.67678E-02-2.53270E-01
 -1      1559-1.42424E-02-1.22273E-02-3.86466E-01
 -1      1560-2.11902E-02-1.88576E-02-3.86466E-01
 -1      1561-1.37789E-02 1.15296E-02-3.39521E-01
 -1      1562-2.07608E-02 1.80964E-02-3.39521E-01
 -1      1563-1.11879E-02 2.53325E-02-2.56646E-01
 -1      1564-7.27296E-03 1.65792E-02-2.56646E-01
 -1      1565-1.73484E-02 5.59188E-03-2.93460E-01
 -1      1566-2.62897E-02 9.09785E-03-2.93460E-01
 -1      1567-2.64188E-02 8.78596E-03-3.36670E-01
 -1      1568-1.74776E-02 5.27999E-03-3.36670E-01
 -1      1569-3.30299E-04-1.89277E-02-4.34687E-01
 -1      1570-3.98808E-04-2.87071E-02-4.34687E-01
 -1      1571-2.65480E-02 8.47406E-03-3.79880E-01
 -1      1572-1.76068E-02 4.96809E-03-3.79880E-01
 -1      1573 1.35839E-02 1.30039E-02-2.50909E-01
 -1      1574 2.05192E-02 1.98548E-02-2.50909E-01
 -1      1575 1.45294E-02-1.33063E-02-3.42199E-01
 -1      1576 2.16836E-02-1.98875E-02-3.42199E-01
 -1      1577-2.63961E-02-1.06997E-02-2.10323E-01
 -1      1578-1.74301E-02-7.22300E-03-2.10323E-01
 -1      1579-1.74857E-02-7.08875E-03-2.96849E-01
 -1      1580-2.64517E-02-1.05654E-02-2.96849E-01
 -1      1581-1.14399E-02 2.53530E-02-3.41680E-01
 -1      1582-7.52492E-03 1.65997E-02-3.41680E-01
 -1      1583-2.65206E-02-1.05939E-02-2.95837E-01
 -1      1584-1.75546E-02-7.11727E-03-2.95837E-01
 -1      1585-1.75268E-02-7.18439E-03-2.52574E-01
 -1      1586-2.64928E-02-1.06611E-02-2.52574E-01
 -1      1587-2.66040E-02-1.03926E-02-4.25626E-01
 -1      1588-1.76380E-02-6.91590E-03-4.25626E-01
 -1      1589-1.76625E-02-6.80809E-03-4.90773E-01
 -1      1590-2.66285E-02-1.02848E-02-4.90773E-01
 -1      1591-2.65421E-02-1.03473E-02-4.37453E-01
 -1      1592-1.75761E-02-6.87060E-03-4.37453E-01
 -1      1593-2.66387E-02-1.03087E-02-4.79704E-01
 -1      1594-1.76727E-02-6.83200E-03-4.79704E-01
 -1      1595 7.92633E-03 1.68210E-02-3.41043E-01
 -1      1596 1.18552E-02 2.57498E-02-3.41043E-01
 -1      1597 1.80071E-04-1.89277E-02-3.02664E-01
 -1      1598 1.11560E-04-2.87072E-02-3.02664E-01
 -1      1599 3.50196E-04-1.87532E-02-2.58972E-01
 -1      1600 2.81683E-04-2.85327E-02-2.58972E-01
 -1      1601 7.86210E-03 1.68476E-02-3.84930E-01
 -1      1602 1.17909E-02 2.57764E-02-3.84930E-01
 -1      1603 1.18279E-02 2.56839E-02-3.40060E-01
 -1      1604 7.89904E-03 1.67552E-02-3.40060E-01
 -1      1605 1.17636E-02 2.57105E-02-3.83947E-01
 -1      1606 7.83481E-03 1.67818E-02-3.83947E-01
 -1      1607-1.12918E-02 2.52895E-02-2.99780E-01
 -1      1608-7.37687E-03 1.65361E-02-2.99780E-01
 -1      1609 7.77058E-03 1.68084E-02-4.27834E-01
 -1      1610 1.16994E-02 2.57371E-02-4.27834E-01
 -1      1611-1.08959E-02-2.62021E-02-3.88135E-01
 -1      1612-7.22970E-03-1.72130E-02-3.88135E-01
 -1      1613 1.82902E-02-7.53976E-03-2.95088E-01
 -1      1614 2.73088E-02-1.12509E-02-2.95088E-01
 -1      1615 2.69713E-02-1.20656E-02-4.81600E-01
 -1      1616 1.79527E-02-8.35448E-03-4.81600E-01
 -1      1617 2.69023E-02-1.20932E-02-4.92545E-01
 -1      1618 1.78837E-02-8.38204E-03-4.92545E-01
 -1      1619 2.68144E-02-1.18884E-02-4.59553E-01
 -1      1620 1.77958E-02-8.17720E-03-4.59553E-01
 -1      1621 2.68541E-02-1.17925E-02-4.37610E-01
 -1      1622 1.78355E-02-8.08135E-03-4.37610E-01
 -1      1623 2.69073E-02 1.03842E-02-3.38127E-01
 -1      1624 1.78885E-02 6.57491E-03-3.38127E-01
 -1      1625-7.06817E-03-1.72799E-02-3.00764E-01
 -1      1626-1.07344E-02-2.62690E-02-3.00764E-01
 -1      1627 2.69000E-02 1.02945E-02-2.50330E-01
 -1      1628 1.78812E-02 6.48525E-03-2.50330E-01
 -1      1629-7.27616E-03-1.70967E-02-4.31577E-01
 -1      1630-1.09424E-02-2.60858E-02-4.31577E-01
 -1      1631-7.10929E-03 1.67718E-02-1.69146E-01
 -1      1632-1.10243E-02 2.55252E-02-1.69146E-01
 -1      1633-7.21320E-03 1.67288E-02-2.12280E-01
 -1      1634-1.11282E-02 2.54822E-02-2.12280E-01
 -1      1635 1.16538E-02-2.65779E-02-2.60157E-01
 -1      1636 7.77274E-03-1.78139E-02-2.60157E-01
 -1      1637-2.64239E-02-1.06325E-02-2.53586E-01
 -1      1638-1.74579E-02-7.15587E-03-2.53586E-01
 -1      1639-7.06514E-03 1.66653E-02-1.70379E-01
 -1      1640-1.09801E-02 2.54186E-02-1.70379E-01
 -1      1641 2.72294E-02-1.14426E-02-3.38973E-01
 -1      1642 1.82108E-02-7.73146E-03-3.38973E-01
 -1      1643-2.66095E-02 9.23035E-03-2.92617E-01
 -1      1644-1.76683E-02 5.72438E-03-2.92617E-01
 -1      1645-1.07001E-02-2.61862E-02-3.00520E-01
 -1      1646-7.03386E-03-1.71970E-02-3.00520E-01
 -1      1647 2.71499E-02-1.16343E-02-3.82858E-01
 -1      1648 1.81314E-02-7.92316E-03-3.82858E-01
 -1      1649-1.09502E-02 2.54934E-02-1.48196E-01
 -1      1650-7.03526E-03 1.67401E-02-1.48196E-01
 -1      1651-7.04630E-03 1.67667E-02-1.47887E-01
 -1      1652-1.09613E-02 2.55201E-02-1.47887E-01
 -1      1653-7.08331E-03 1.67826E-02-1.58362E-01
 -1      1654-1.09983E-02 2.55360E-02-1.58362E-01
 -1      1655-7.09112E-03 1.66545E-02-1.81162E-01
 -1      1656-1.10061E-02 2.54079E-02-1.81162E-01
 -1      1657-1.10581E-02 2.53864E-02-2.02729E-01
 -1      1658-7.14307E-03 1.66330E-02-2.02729E-01
 -1      1659-1.11542E-02 2.54714E-02-2.23063E-01
 -1      1660-7.23917E-03 1.67180E-02-2.23063E-01
 -1      1661-2.20586E-02 9.11603E-03-4.64322E-01
 -1      1662 1.57792E-02-1.64596E-02-9.74005E-02
 -1      1663-1.82016E-03 1.35197E-02-5.27181E-02
 -1      1664 1.28214E-03-2.10294E-02-1.02478E-01
 -1      1665 5.35162E-03-1.40458E-02-5.04022E-02
 -1      1666-8.95595E-03 6.84982E-03-4.68427E-02
 -1      1667 2.54501E-02-7.98589E-03-1.50517E-01
 -1      1668-1.82427E-02 1.13592E-02-9.61913E-02
 -1      1669 1.31597E-03 1.15867E-02-4.80863E-02
 -1      1670-2.74246E-02 1.51231E-03-1.92226E-01
 -1      1671 1.07781E-02-1.37922E-02-3.93381E-02
 -1      1672-8.87216E-03 1.99073E-02-1.05425E-01
 -1      1673 3.79619E-03 9.36703E-03-5.17722E-02
 -1      1674 1.50795E-02 1.64496E-02-9.95765E-02
 -1      1675 5.55096E-03-8.56928E-03-5.11152E-02
 -1      1676-2.10671E-02-1.91728E-02-2.40484E-01
 -1      1677 8.61678E-03-2.02176E-02-8.72463E-02
 -1      1678-1.09285E-02-8.46813E-03-5.49540E-02
 -1      1679 1.21902E-02-4.29659E-03-5.71993E-02
 -1      1680 8.57394E-03-8.11787E-03-2.22141E-02
 -1      1681-1.41848E-02-1.31018E-02-8.75793E-02
 -1      1682 9.20505E-03-5.87600E-03-5.31717E-02
 -1      1683 1.16084E-02-7.10029E-03-4.53518E-02
 -1      1684-2.47834E-03 2.31254E-03-1.29186E-02
 -1      1685-2.13835E-04-3.65577E-04-5.61805E-01
 -1      1686 9.18713E-03 1.30059E-02-5.55873E-02
 -1      1687 9.09286E-03 7.34195E-03-4.68982E-02
 -1      1688 1.00632E-02 2.68460E-03-4.05746E-02
 -1      1689 7.36010E-03-3.84271E-04-4.49265E-02
 -1      1690-2.74417E-03-9.30189E-03-4.64732E-02
 -1      1691-2.10234E-02-4.47448E-03-7.92170E-02
 -1      1692-6.97119E-06-1.19247E-02-4.50605E-02
 -1      1693 6.79315E-03 9.30821E-03-5.91824E-02
 -1      1694-1.04011E-02 6.26008E-03-6.32395E-02
 -1      1695-6.94227E-03-6.78976E-03-4.77069E-02
 -1      1696-3.81892E-04-1.22179E-02-4.57981E-02
 -1      1697 9.74197E-03 5.78922E-03-6.09184E-02
 -1      1698-7.29855E-03-1.30044E-02-6.81801E-02
 -1      1699-7.89407E-03 1.53731E-02-3.06042E-02
 -1      1700-1.39398E-02 1.52718E-03-4.34079E-02
 -1      1701-9.71397E-03-3.69726E-03-4.64087E-02
 -1      1702 2.06234E-02 3.79071E-03-1.04361E-01
 -1      1703-1.18976E-02 3.84901E-03-4.67004E-02
 -1      1704 1.07090E-02-8.85824E-03-3.35282E-02
 -1      1705-3.77352E-03-1.66163E-02-8.02183E-02
 -1      1706 1.19686E-02 1.80572E-03-5.74403E-02
 -1      1707-4.32858E-03 1.16671E-02-4.75228E-02
 -1      1708-1.69307E-03 1.39914E-02-4.93942E-02
 -1      1709-1.58856E-03-1.30548E-02-4.11176E-02
 -1      1710-2.37164E-03 1.62265E-02-7.76274E-02
 -1      1711 6.26841E-03 2.72464E-02-2.02020E-01
 -1      1712 4.44147E-03 1.75602E-02-6.57702E-02
 -1      1713-1.72117E-03 9.98261E-03-2.50519E-02
 -1      1714 7.71469E-03 8.02175E-03-3.40452E-02
 -1      1715 1.22734E-02 2.81783E-03-3.13468E-02
 -1      1716 1.24931E-02-2.39673E-02-4.43301E-01
 -1      1717-1.08725E-02 7.89980E-03-7.99606E-02
 -1      1718-9.82479E-03 1.42164E-02-6.33407E-02
 -1      1719-1.30767E-02 7.55867E-03-3.37837E-02
 -1      1720 5.61641E-03 1.27054E-02-3.36993E-02
 -1      1721-9.92874E-03-1.89676E-02-9.29557E-02
 -1      1722 9.51436E-03 1.06618E-02-2.59284E-02
 -1      1723 1.95943E-03-3.58043E-03-1.42043E-02
 -1      1724-2.80133E-03 1.66138E-02-1.09159E-01
 -1      1725-4.57021E-03 5.39185E-03-2.77569E-02
 -1      1726 3.24638E-03 1.06085E-02-3.01204E-02
 -1      1727-1.42156E-02-2.88270E-03-4.52014E-02
 -1      1728-6.34927E-03-4.18875E-03-2.17515E-02
 -1      1729 9.36122E-03-1.55533E-02-1.18759E-01
 -1      1730-1.89025E-02 2.06669E-02-2.58563E-01
 -1      1731 1.47474E-02 8.57282E-03-1.28496E-01
 -1      1732-1.10969E-02 1.61061E-03-2.91482E-02
 -1      1733-1.05115E-02-3.05135E-03-3.26636E-02
 -1      1734 4.19682E-03-1.54505E-02-4.89079E-02
 -1      1735-7.21762E-03-2.53414E-04-2.12619E-02
 -1      1736 1.44281E-02-1.60135E-02-5.83843E-02
 -1      1737 3.31941E-03 6.81174E-03-2.29381E-02
 -1      1738-6.21888E-03-2.78057E-02-3.05984E-01
 -1      1739-6.15086E-03-5.71590E-03-2.48452E-02
 -1      1740 1.30155E-02 1.93869E-02-9.09499E-02
 -1      1741-3.75582E-03-2.26987E-02-1.24613E-01
 -1      1742 2.23856E-03 1.06335E-02-2.45113E-02
 -1      1743-6.12278E-03-8.59472E-03-3.94371E-02
 -1      1744-4.01399E-03 1.73455E-02-1.72662E-01
 -1      1745 5.31738E-03-3.21242E-03-2.04415E-02
 -1      1746-1.87134E-03-1.54216E-02-1.07718E-01
 -1      1747-6.84947E-03 4.38263E-03-2.03629E-02
 -1      1748-8.96935E-03-1.58613E-02-8.64923E-02
 -1      1749 2.70774E-02 1.95242E-03-3.80494E-01
 -1      1750-1.55328E-02-1.01244E-02-6.88379E-02
 -1      1751 2.49363E-02-3.59509E-03-1.48947E-01
 -1      1752 1.20305E-02 7.47660E-03-4.05175E-02
 -1      1753-6.87503E-03-8.68191E-03-2.63253E-02
 -1      1754 1.21924E-02 2.29667E-02-1.50297E-01
 -1      1755 1.93558E-02-1.40855E-02-1.16512E-01
 -1      1756 2.38259E-02-1.62389E-02-3.03039E-01
 -1      1757-1.39857E-02 9.76942E-03-1.54504E-01
 -1      1758-1.45362E-02-2.24716E-02-1.84316E-01
 -1      1759-1.47924E-02 2.52255E-03-7.16632E-02
 -1      1760-1.20267E-02-8.88893E-03-8.53328E-02
 -1      1761 1.23052E-02-2.33837E-03-6.10831E-02
 -1      1762-1.63498E-02 1.23438E-03-6.04424E-02
 -1      1763-7.48359E-03 1.66482E-02-6.76585E-02
 -1      1764-7.34998E-03 2.53666E-03-2.23143E-02
 -1      1765 1.76234E-02-6.79798E-03-8.19693E-02
 -1      1766 1.63992E-02-2.34595E-02-2.24579E-01
 -1      1767 3.39557E-03-1.30138E-02-3.32202E-02
 -1      1768 3.33200E-03-1.33601E-02-3.19836E-02
 -1      1769-2.17797E-04-6.32917E-03-2.06225E-02
 -1      1770-1.26495E-02 1.08330E-02-1.03282E-01
 -1      1771-2.64205E-04 1.20094E-02-2.98610E-02
 -1      1772 3.47955E-03 3.14407E-03-1.77733E-02
 -1      1773 1.66013E-02-2.69118E-04-7.66346E-02
 -1      1774-1.04084E-03-2.79541E-02-2.14784E-01
 -1      1775-1.10507E-02-5.38849E-03-2.84439E-02
 -1      1776-5.03445E-03 1.54430E-02-9.32131E-02
 -1      1777-1.90488E-02 3.40678E-03-1.52315E-01
 -1      1778 4.54984E-03 1.82525E-02-1.58622E-01
 -1      1779 6.43976E-03-1.54308E-02-7.09473E-02
 -1      1780 7.37895E-03 4.41907E-03-2.30906E-02
 -1      1781 4.70882E-03 1.28862E-02-8.61885E-02
 -1      1782 8.94907E-03 1.46807E-02-9.30056E-02
 -1      1783 3.52021E-03-1.82132E-02-7.11797E-02
 -1      1784-6.26363E-03-1.15881E-02-2.46119E-02
 -1      1785 5.01128E-03 7.79575E-04-2.16281E-02
 -1      1786-6.87317E-03-5.20126E-03-3.00813E-02
 -1      1787 4.09653E-03 8.28280E-03-2.07352E-02
 -1      1788-6.20774E-03 3.56747E-03-2.04781E-02
 -1      1789-1.46048E-02 6.72794E-03-8.35748E-02
 -1      1790-1.00874E-02-2.95328E-03-2.21088E-02
 -1      1791-7.30922E-03-8.33569E-04-2.23215E-02
 -1      1792-2.76585E-02-1.02709E-02-2.33627E-01
 -1      1793 4.38107E-03-2.47164E-03-1.56797E-02
 -1      1794 1.70412E-02-2.38642E-02-3.38667E-01
 -1      1795-2.30914E-03-1.71649E-02-8.54336E-02
 -1      1796-1.75514E-02 1.74340E-02-1.36458E-01
 -1      1797-1.09902E-02 8.17605E-03-4.46605E-02
 -1      1798-1.31530E-02 7.68600E-03-1.03911E-01
 -1      1799-1.33126E-02-1.25665E-03-3.13196E-02
 -1      1800 1.26461E-02-7.57518E-03-3.11285E-02
 -1      1801 2.06660E-02-1.74114E-02-1.98069E-01
 -1      1802 9.77033E-03 1.49201E-02-6.04528E-02
 -1      1803-2.43912E-04 1.56870E-02-8.80258E-02
 -1      1804-1.00793E-02 1.49229E-02-2.03149E-01
 -1      1805-1.10251E-02-1.23091E-02-9.67148E-02
 -1      1806 1.13404E-02 1.57613E-02-1.55411E-01
 -1      1807-2.91794E-03-1.94910E-02-2.03562E-01
 -1      1808-9.80801E-03-2.55441E-02-1.81630E-01
 -1      1809-1.61504E-02 8.19098E-03-2.85795E-01
 -1      1810-9.91194E-03-1.31037E-02-1.07753E-01
 -1      1811-2.58174E-02 1.07875E-02-2.85803E-01
 -1      1812-1.52733E-02-2.43310E-02-3.02352E-01
 -1      1813-1.74093E-02-1.93489E-02-1.63445E-01
 -1      1814-3.90096E-03 5.92696E-03-2.38432E-02
 -1      1815 2.89333E-03-6.71732E-03-2.15824E-02
 -1      1816 1.34080E-02-1.97438E-02-1.17531E-01
 -1      1817 2.39623E-02 1.21166E-02-1.63235E-01
 -1      1818 1.81518E-02-2.11780E-02-1.65797E-01
 -1      1819 1.27990E-02-2.44784E-02-1.63501E-01
 -1      1820 7.52291E-03-5.74988E-03-3.15120E-02
 -1      1821-3.28296E-03-4.93591E-03-1.47632E-02
 -1      1822-9.73059E-04 6.71542E-03-2.31836E-02
 -1      1823 9.75300E-03 6.67467E-03-7.96690E-02
 -1      1824 7.53279E-03 3.86911E-03-3.10033E-02
 -1      1825-1.67334E-02-2.26298E-02-2.39378E-01
 -1      1826 5.41701E-03-2.09061E-02-1.37428E-01
 -1      1827-7.89694E-03 1.24020E-02-8.73984E-02
 -1      1828 5.91812E-03-1.68434E-02-1.01700E-01
 -1      1829 7.13661E-03-1.15209E-02-2.98003E-02
 -1      1830-1.59319E-02-1.04587E-02-1.33107E-01
 -1      1831 8.30036E-03-1.68355E-03-2.55895E-02
 -1      1832-6.81935E-03 2.14805E-03-1.45521E-02
 -1      1833 1.00466E-02 8.99025E-03-9.05704E-02
 -1      1834 1.47247E-02-5.06691E-03-2.64122E-02
 -1      1835 1.61892E-02-1.11229E-02-1.23616E-01
 -1      1836 1.77884E-02-1.53387E-02-1.31324E-01
 -1      1837 4.98366E-03-3.01354E-03-1.86966E-02
 -1      1838-1.63424E-02 6.64812E-03-8.59369E-02
 -1      1839-6.07216E-03-1.34152E-02-5.60259E-02
 -1      1840 2.68658E-02 4.21552E-03-2.42861E-01
 -1      1841 3.79418E-03-1.22198E-02-2.67163E-02
 -1      1842-7.49419E-04 2.53827E-03-1.59573E-02
 -1      1843-1.17703E-02-1.98988E-02-1.02266E-01
 -1      1844 2.71800E-04-7.77839E-03-2.23006E-02
 -1      1845-1.43667E-03 5.38071E-03-1.77095E-02
 -1      1846 1.66312E-02 2.15760E-02-1.93337E-01
 -1      1847 1.29564E-02-6.47961E-03-8.11184E-02
 -1      1848-4.83173E-03 5.93608E-03-2.25525E-02
 -1      1849-4.59984E-03 2.08222E-03-1.76506E-02
 -1      1850 6.47366E-03 7.58653E-03-1.77962E-02
 -1      1851 1.89859E-02-3.62275E-03-1.28179E-01
 -1      1852-5.89852E-03 3.39508E-03-1.96325E-02
 -1      1853 2.04950E-02-2.09034E-02-2.65121E-01
 -1      1854 4.34742E-04-6.47913E-03-1.73258E-02
 -1      1855-4.29186E-03-6.08573E-03-1.41082E-02
 -1      1856-1.63495E-02-1.07108E-02-2.02381E-01
 -1      1857-6.37182E-03-1.70022E-03-1.66176E-02
 -1      1858-6.89327E-03 9.83599E-03-2.25591E-02
 -1      1859-7.14082E-04-1.99252E-02-8.96170E-02
 -1      1860 2.23943E-03 1.42366E-02-5.89441E-02
 -1      1861-1.42981E-02 1.17526E-04-7.58748E-02
 -1      1862 7.12869E-03-1.14280E-02-3.36204E-02
 -1      1863 2.37664E-02 1.47616E-02-3.17148E-01
 -1      1864 1.34519E-02 2.58152E-02-2.61100E-01
 -1      1865-6.31172E-03-4.06833E-04-1.30112E-02
 -1      1866 5.36911E-03 4.10787E-03-1.75664E-02
 -1      1867-3.75904E-03-3.82107E-03-1.90596E-02
 -1      1868 4.39453E-03 4.13712E-03-1.27669E-02
 -1      1869 2.69299E-02-6.16866E-03-2.78640E-01
 -1      1870 8.36665E-04-1.64687E-02-5.79746E-02
 -1      1871 1.40303E-02-1.01713E-02-7.60664E-02
 -1      1872-9.39831E-03 1.40447E-02-1.36941E-01
 -1      1873-1.40965E-02-1.10258E-02-8.31815E-02
 -1      1874-2.19978E-03-8.51448E-03-2.23454E-02
 -1      1875 2.26507E-03 3.53383E-03-1.33204E-02
 -1      1876 1.01975E-02-1.43552E-02-5.82196E-02
 -1      1877-2.43717E-03-3.46861E-03-1.15223E-02
 -1      1878-1.06167E-02 1.68128E-03-4.94645E-02
 -1      1879-2.02861E-02-1.55745E-02-1.57281E-01
 -1      1880 7.48205E-03 1.85576E-03-1.32907E-02
 -1      1881-2.18860E-02 4.98554E-03-1.23961E-01
 -1      1882 1.68794E-02-5.87263E-03-9.62055E-02
 -1      1883 1.30711E-02 7.29492E-03-5.16751E-02
 -1      1884-8.03584E-03-1.05332E-02-5.42678E-02
 -1      1885 1.49084E-02-1.85078E-02-9.45640E-02
 -1      1886 1.58156E-02 4.04488E-03-7.58559E-02
 -1      1887 1.21750E-02-1.06064E-02-7.73923E-02
 -1      1888 2.55665E-02-1.04752E-02-3.89061E-01
 -1      1889 7.35215E-04 2.63283E-02-1.38496E-01
 -1      1890 2.56706E-02-1.11996E-02-2.37331E-01
 -1      1891-1.44849E-02-8.21960E-03-8.52026E-02
 -1      1892 4.78796E-03-4.33162E-03-1.52596E-02
 -1      1893-1.24013E-02-2.24911E-02-1.42439E-01
 -1      1894-1.95457E-02-1.55245E-02-1.30164E-01
 -1      1895-2.45464E-02 1.08381E-02-1.82626E-01
 -1      1896-1.75528E-02 1.63711E-03-7.65881E-02
 -1      1897 1.87374E-02 3.29468E-03-1.21862E-01
 -1      1898 5.56767E-03 2.40435E-03-1.67486E-02
 -1      1899-1.08478E-02-1.38635E-02-4.97432E-01
 -1      1900 1.22996E-02 5.88315E-03-7.73582E-02
 -1      1901-1.82794E-03 1.86373E-02-5.89184E-02
 -1      1902 2.34958E-02-1.29677E-02-1.71243E-01
 -1      1903-1.53473E-02 8.84491E-03-7.26023E-02
 -1      1904-6.29586E-03-2.19892E-03-1.66880E-02
 -1      1905 4.85803E-03-3.17679E-03-1.49208E-02
 -1      1906-1.21265E-02-1.16826E-02-5.44236E-02
 -1      1907 2.04003E-02-5.65166E-03-1.17096E-01
 -1      1908 5.94461E-03-4.16312E-03-2.00875E-02
 -1      1909 5.00982E-03-2.82453E-02-3.31102E-01
 -1      1910-1.38828E-02 2.01883E-02-1.68329E-01
 -1      1911-2.25288E-03 6.99390E-03-1.58958E-02
 -1      1912-6.42404E-03-1.78093E-02-9.77588E-02
 -1      1913 4.69899E-03 9.22467E-04-1.62114E-02
 -1      1914-3.14126E-03-4.73024E-03-1.64796E-02
 -1      1915-2.31797E-02-1.07761E-02-1.26013E-01
 -1      1916 5.34037E-03-9.16179E-04-1.71620E-02
 -1      1917 2.15251E-02 1.70442E-02-1.85113E-01
 -1      1918 5.56911E-03-6.36270E-04-1.55779E-02
 -1      1919 7.83168E-03 2.40159E-03-1.71207E-02
 -1      1920-2.34843E-02-1.34947E-04-1.00826E-01
 -1      1921 1.78550E-02 1.19126E-02-9.93664E-02
 -1      1922 1.69805E-02 2.12132E-03-7.58294E-02
 -1      1923 1.25259E-02-2.62688E-03-3.57818E-02
 -1      1924-1.78112E-02 1.93837E-02-1.92097E-01
 -1      1925 2.13222E-03-3.91087E-03-1.28829E-02
 -1      1926-2.51216E-02-1.39484E-02-1.97286E-01
 -1      1927-3.64174E-03 2.88232E-02-3.34825E-01
 -1      1928 1.88726E-02 2.15882E-02-2.83156E-01
 -1      1929 3.22955E-03-2.61552E-02-1.63782E-01
 -1      1930 4.36520E-03-1.44032E-04-1.63935E-02
 -1      1931 5.06387E-03-2.06428E-02-1.04642E-01
 -1      1932 1.48263E-02 8.54717E-03-4.80681E-02
 -1      1933 3.42420E-03-1.67756E-03-1.21821E-02
 -1      1934-2.61194E-02-7.40790E-03-1.53438E-01
 -1      1935-1.16008E-02 1.21291E-02-5.13540E-02
 -1      1936 1.15381E-02-1.72508E-02-1.85812E-01
 -1      1937-5.64060E-03-1.93595E-03-1.62681E-02
 -1      1938 2.39888E-02-1.54819E-02-2.18621E-01
 -1      1939-1.20502E-02 3.81378E-03-4.86846E-02
 -1      1940 2.96796E-03 9.94719E-03-4.27144E-02
 -1      1941 1.92544E-02-2.56192E-03-8.79119E-02
 -1      1942-1.06428E-02-2.61382E-02-4.02412E-01
 -1      1943-2.20076E-02 8.25306E-03-1.32990E-01
 -1      1944-2.64573E-02-4.99841E-03-1.66065E-01
 -1      1945 2.46576E-03-9.61351E-03-1.82041E-02
 -1      1946 1.05577E-02 2.03044E-02-4.67236E-01
 -1      1947 1.67563E-02-7.59075E-03-7.61374E-02
 -1      1948 2.57376E-02-1.16036E-02-3.12894E-01
 -1      1949-6.62592E-03 1.74008E-02-5.98857E-02
 -1      1950-2.93072E-03 6.86561E-03-1.94115E-02
 -1      1951 1.35281E-02 2.41819E-02-2.03207E-01
 -1      1952 2.34599E-02 5.63917E-03-1.56370E-01
 -1      1953 2.54804E-02 3.16843E-03-1.73700E-01
 -1      1954-1.61329E-02-5.99976E-03-8.05952E-02
 -1      1955 1.97687E-02 7.54298E-03-1.01405E-01
 -1      1956-1.80972E-03 7.85660E-03-1.50992E-02
 -1      1957-1.94777E-02-3.83824E-03-1.30247E-01
 -1      1958-1.70425E-02 4.92362E-03-8.83302E-02
 -1      1959-2.41388E-02-1.59148E-02-3.76685E-01
 -1      1960 2.62263E-02-7.94119E-03-2.15444E-01
 -1      1961 7.07965E-03 1.88993E-02-8.15143E-02
 -1      1962-1.26268E-02 7.49842E-03-4.42901E-02
 -1      1963-1.64508E-02 1.25260E-02-9.64863E-02
 -1      1964-1.45570E-02-6.12388E-03-8.76623E-02
 -1      1965-1.44012E-02-3.37871E-03-8.47780E-02
 -1      1966 2.75149E-02-1.10151E-03-2.95340E-01
 -1      1967 1.43238E-03 2.00718E-02-8.31148E-02
 -1      1968 2.17408E-02 1.72899E-02-2.54164E-01
 -1      1969 2.58199E-02 9.74411E-03-2.17305E-01
 -1      1970 3.17152E-03-1.58990E-02-6.61082E-02
 -1      1971 1.86965E-02-2.17399E-02-2.19303E-01
 -1      1972 1.54041E-03-1.78534E-02-8.57901E-02
 -1      1973 1.15255E-02-2.62991E-02-2.85547E-01
 -1      1974 4.60247E-03-2.75830E-02-2.47342E-01
 -1      1975 4.70212E-03 1.76025E-03-1.32008E-02
 -1      1976-2.06684E-03-2.59953E-02-1.50731E-01
 -1      1977 1.61128E-03-7.70355E-03-1.73975E-02
 -1      1978-1.05629E-02 2.16453E-02-4.67241E-01
 -1      1979 3.46521E-03 2.35081E-02-8.34287E-02
 -1      1980 1.21724E-02 5.37240E-03-4.79364E-02
 -1      1981 5.94135E-03 2.46243E-02-1.35448E-01
 -1      1982 1.12655E-02 2.60198E-02-2.04274E-01
 -1      1983-1.95231E-02-3.57765E-03-2.44284E-01
 -1      1984 1.11890E-02 1.37523E-02-1.01086E-01
 -1      1985-5.86545E-03-2.66085E-02-1.96655E-01
 -1      1986-1.30274E-03-2.87052E-02-2.92706E-01
 -1      1987 1.16210E-02-2.61258E-02-3.70087E-01
 -1      1988-3.78854E-03 1.82807E-02-2.35017E-01
 -1      1989 1.76439E-03 4.96596E-03-1.71833E-02
 -1      1990-1.08925E-02-1.48945E-02-2.05488E-01
 -1      1991-6.41215E-03-3.45596E-03-1.47103E-02
 -1      1992 2.69863E-02-4.69637E-03-3.49512E-01
 -1      1993-4.40243E-03 1.57711E-03-5.56393E-01
 -1      1994-2.88715E-02-1.61111E-03-3.45065E-01
 -1      1995 2.73827E-02-8.02139E-04-2.26882E-01
 -1      1996-4.68413E-03-2.78781E-02-2.56367E-01
 -1      1997 2.04184E-02 3.42587E-03-9.35289E-02
 -1      1998 6.93948E-03 5.33477E-03-1.68071E-02
 -1      1999 1.66268E-02 1.03864E-02-1.97052E-01
 -1      2000 1.60444E-02 1.01532E-03-6.47369E-02
 -1      2001 4.59705E-03 2.68592E-02-1.47631E-01
 -1      2002-1.46476E-02 3.86766E-03-8.65439E-02
 -1      2003 5.21453E-03 1.80401E-02-2.46792E-01
 -1      2004 2.69420E-02-4.00573E-03-2.59269E-01
 -1      2005-1.52805E-02 9.18769E-03-2.16971E-01
 -1      2006 1.83084E-02 2.08445E-02-3.87322E-01
 -1      2007 4.73878E-03 3.71778E-03-1.65431E-02
 -1      2008 1.08511E-02 9.35803E-03-4.84479E-02
 -1      2009 2.04342E-02-9.55746E-03-1.00013E-01
 -1      2010 1.56451E-03 2.86166E-02-2.43677E-01
 -1      2011 2.38843E-02 1.21355E-02-4.07592E-01
 -1      2012-7.94581E-03-1.67999E-02-5.98629E-02
 -1      2013 1.14120E-02 1.56094E-02-2.43181E-01
 -1      2014 2.28181E-02-1.68007E-02-2.52770E-01
 -1      2015 2.10428E-02-2.02628E-02-3.19287E-01
 -1      2016 2.68251E-02 8.88660E-03-3.04718E-01
 -1      2017-3.71514E-03 2.44364E-02-1.41047E-01
 -1      2018 1.90564E-02 1.81708E-02-1.59688E-01
 -1      2019 3.38974E-03 2.75348E-02-1.87678E-01
 -1      2020 7.49371E-04 5.50252E-03-1.31882E-02
 -1      2021-1.09279E-03-6.51935E-03-1.64510E-02
 -1      2022 1.95335E-02 1.58244E-02-1.23232E-01
 -1      2023-8.14275E-03-1.64971E-04-2.12776E-02
 -1      2024-2.83357E-02-3.26190E-03-2.58610E-01
 -1      2025-1.56656E-02 2.16144E-02-3.61772E-01
 -1      2026 3.31817E-04-6.87828E-03-1.83405E-02
 -1      2027-2.14057E-02 1.10539E-02-1.30752E-01
 -1      2028-2.53364E-02 7.22025E-03-1.83053E-01
 -1      2029-7.90882E-03-4.36839E-03-2.18260E-02
 -1      2030-5.42998E-03-2.01783E-03-1.24045E-02
 -1      2031-1.95153E-02 3.22599E-03-2.16185E-01
 -1      2032-1.49338E-02 1.67414E-02-1.17205E-01
 -1      2033-2.61599E-02-1.11961E-02-1.78248E-01
 -1      2034-1.94184E-02-2.14836E-02-2.91115E-01
 -1      2035-1.49079E-02-2.47490E-02-2.43253E-01
 -1      2036 2.72254E-02-3.04813E-03-2.05078E-01
 -1      2037 4.60290E-03 1.72063E-03-1.37632E-02
 -1      2038 4.48425E-03-2.04316E-02-1.46245E-01
 -1      2039 1.18285E-02-2.58755E-02-2.24591E-01
 -1      2040-1.73736E-02-7.50183E-03-6.44927E-02
 -1      2041 1.89704E-02 1.60668E-02-4.51856E-01
 -1      2042-4.76430E-03 2.75881E-02-2.39597E-01
 -1      2043-2.04763E-02-1.81348E-02-1.88183E-01
 -1      2044-6.11262E-03 2.92195E-03-1.76905E-02
 -1      2045 8.71332E-03 2.72509E-02-2.58382E-01
 -1      2046-1.69599E-02-2.29819E-02-3.68471E-01
 -1      2047-2.70901E-02 7.20352E-03-3.73915E-01
 -1      2048-2.87384E-02 3.94013E-03-2.76936E-01
 -1      2049 1.56216E-02-8.63910E-03-7.06660E-02
 -1      2050 1.80118E-03 1.62684E-02-9.49363E-02
 -1      2051-6.36911E-03 3.73599E-03-1.77131E-02
 -1      2052-2.20071E-02 1.52650E-02-1.67095E-01
 -1      2053 2.93222E-03 2.84968E-02-3.31110E-01
 -1      2054-2.21785E-02-1.68567E-02-2.12737E-01
 -1      2055 2.58743E-03-9.16507E-03-5.45999E-01
 -1      2056-2.68102E-02-1.01286E-02-3.32313E-01
 -1      2057 7.11861E-04 1.24716E-02-5.29084E-01
 -1      2058 1.74090E-02-1.05475E-02-1.91660E-01
 -1      2059 2.68136E-02-3.87148E-04-1.73484E-01
 -1      2060 1.66530E-04-2.80938E-02-4.13584E-01
 -1      2061-1.14545E-02-2.62302E-02-3.37828E-01
 -1      2062-2.29270E-02 1.35278E-02-1.78821E-01
 -1      2063-1.07090E-02 1.38184E-02-2.58271E-01
 -1      2064 2.12499E-02-1.62496E-02-1.65833E-01
 -1      2065 2.29931E-02 1.49779E-02-3.72414E-01
 -1      2066-9.63607E-03 2.46471E-02-1.87384E-01
 -1      2067-1.25935E-02-1.59194E-03-4.89488E-02
 -1      2068-1.88103E-02 1.21800E-03-5.90297E-02
 -1      2069 1.05368E-02 2.59560E-02-3.81001E-01
 -1      2070 7.96528E-03-1.38022E-03-1.88755E-02
 -1      2071-7.09142E-04 7.25727E-03-1.89853E-02
 -1      2072 2.44535E-02-5.55003E-03-1.66132E-01
 -1      2073 3.13906E-03 2.73265E-02-4.23864E-01
 -1      2074 1.87671E-02 2.61092E-03-1.89384E-01
 -1      2075 2.39991E-02 1.37314E-02-2.24516E-01
 -1      2076 1.94709E-02 2.07529E-02-2.33195E-01
 -1      2077-1.98548E-02-1.18397E-02-8.76171E-02
 -1      2078 4.23189E-03-1.95085E-02-2.53676E-01
 -1      2079 2.61528E-02 7.72209E-03-3.62194E-01
 -1      2080 1.12573E-02-1.07982E-02-7.04472E-02
 -1      2081-6.40990E-03-2.23481E-02-4.75157E-01
 -1      2082-2.72113E-02-6.62301E-03-2.10274E-01
 -1      2083-5.63951E-03 7.86307E-04-1.80343E-02
 -1      2084-1.05335E-02 8.31901E-03-5.23038E-01
 -1      2085-6.60571E-03 1.29092E-02-7.37322E-02
 -1      2086 5.90944E-03 2.82180E-02-2.70334E-01
 -1      2087-1.91789E-02 2.69597E-03-2.83204E-01
 -1      2088-5.04280E-03-4.64664E-03-1.46293E-02
 -1      2089-4.31296E-03-1.81956E-02-2.61062E-01
 -1      2090-2.60866E-03-1.86001E-02-1.57283E-01
 -1      2091-6.09306E-03-2.82372E-02-3.71176E-01
 -1      2092-6.64759E-03 2.34696E-02-1.42014E-01
 -1      2093 3.45589E-03 1.48145E-02-1.01196E-01
 -1      2094 2.14796E-02 1.41979E-02-1.53590E-01
 -1      2095 1.87266E-02-4.72607E-03-2.86754E-01
 -1      2096-1.66650E-02-9.78724E-03-2.57802E-01
 -1      2097 9.04398E-03-2.55794E-02-1.87109E-01
 -1      2098 2.29772E-02-1.64388E-02-3.75659E-01
 -1      2099 1.68793E-02-2.39722E-02-2.82205E-01
 -1      2100-3.78478E-03 5.06200E-03-1.53817E-02
 -1      2101-4.05637E-03 5.03113E-04-1.27994E-02
 -1      2102 1.87879E-02-3.19778E-03-1.97188E-01
 -1      2103 5.54268E-03 9.65963E-03-2.43302E-02
 -1      2104 7.96664E-04-4.26456E-03-1.36755E-02
 -1      2105 6.82616E-03-1.19239E-03-1.92035E-02
 -1      2106-3.39284E-04-2.85758E-02-3.52708E-01
 -1      2107 2.15210E-02-5.62253E-04-1.14314E-01
 -1      2108 8.58661E-03-3.48326E-03-1.84686E-02
 -1      2109-1.27186E-02-1.31538E-03-5.23588E-01
 -1      2110-6.78898E-03-8.54539E-03-5.47637E-01
 -1      2111-2.20093E-02 1.66661E-02-2.58375E-01
 -1      2112-1.26025E-02-2.62591E-02-2.84385E-01
 -1      2113 5.47665E-03 8.92379E-04-1.60024E-02
 -1      2114 6.77681E-03-1.52818E-02-6.55853E-02
 -1      2115-2.62471E-02 9.16800E-03-2.33420E-01
 -1      2116 4.01604E-03 2.77341E-03-1.59455E-02
 -1      2117 2.10880E-03 5.93465E-03-1.85166E-02
 -1      2118-2.25345E-02 1.35016E-03-1.25333E-01
 -1      2119 7.43619E-03-2.74797E-02-2.41538E-01
 -1      2120-3.39828E-03-5.39634E-03-1.47932E-02
 -1      2121-3.70859E-03 2.66934E-02-4.01363E-01
 -1      2122-1.50192E-02-2.00271E-02-1.37414E-01
 -1      2123 2.13495E-03-5.79637E-03-1.20210E-02
 -1      2124-1.10371E-02 2.10453E-02-1.47207E-01
 -1      2125 3.84014E-03 5.21547E-03-1.34403E-02
 -1      2126 1.23363E-02 2.40602E-02-4.20495E-01
 -1      2127-1.25228E-02 2.35367E-02-4.14479E-01
 -1      2128 1.91112E-02-1.36350E-02-4.73647E-01
 -1      2129 2.59854E-03-3.04846E-03-1.28630E-02
 -1      2130 2.48500E-03 8.15230E-03-5.44221E-01
 -1      2131 1.67421E-02-2.30694E-02-3.95449E-01
 -1      2132-1.90670E-02 1.58704E-02-4.54301E-01
 -1      2133-2.28840E-02-7.35566E-03-9.50819E-02
 -1      2134-2.39404E-02-1.67973E-02-3.01854E-01
 -1      2135-2.74145E-02 1.11819E-03-4.24117E-01
 -1      2136-2.05595E-02 1.76849E-02-1.88560E-01
 -1      2137 4.12022E-03-2.01130E-02-7.94103E-02
 -1      2138-2.81724E-02-7.28944E-03-3.94894E-01
 -1      2139 4.98806E-03-2.26227E-02-4.74890E-01
 -1      2140-1.62143E-02-1.04441E-03-9.03430E-02
 -1      2141-2.80185E-02-8.28028E-03-2.86125E-01
 -1      2142 1.87904E-02 9.38552E-03-9.75961E-02
 -1      2143-9.16002E-03 5.65383E-03-1.63918E-02
 -1      2144 1.17949E-04 2.91226E-02-3.01377E-01
 -1      2145-8.79389E-03-2.66879E-02-2.39749E-01
 -1      2146 1.00652E-02 1.82923E-03-5.30763E-01
 -1      2147-2.25729E-02-3.00144E-04-4.84269E-01
 -1      2148 8.92901E-04-2.55919E-02-1.48097E-01
 -1      2149 8.83093E-03-4.76804E-03-5.46686E-01
 -1      2150-2.57455E-02-7.25004E-03-4.54688E-01
 -1      2151-8.93032E-03 2.57383E-03-5.35015E-01
 -1      2152-1.88898E-02-3.96137E-03-1.86058E-01
 -1      2153-1.81514E-02-2.05977E-02-4.31693E-01
 -1      2154-2.10179E-02-1.39848E-02-4.66243E-01
 -1      2155-6.06447E-03-1.38446E-02-4.77083E-02
 -1      2156-1.09626E-02-1.63728E-02-2.61390E-01
 -1      2157-9.03832E-03-1.50712E-02-1.40460E-01
 -1      2158-8.81827E-03 4.06495E-03-5.35821E-01
 -1      2159 8.76927E-03-2.14565E-03-5.35409E-01
 -1      2160 1.94724E-02-1.97574E-02-4.35740E-01
 -1      2161-2.42653E-02 1.33249E-02-4.00794E-01
 -1      2162-2.10178E-02 1.82169E-02-3.35608E-01
 -1      2163 2.60846E-02-3.42258E-03-4.14419E-01
 -1      2164 1.66425E-02 4.34685E-03-5.10687E-02
 -1      2165 1.54300E-02 1.14662E-02-2.55104E-01
 -1      2166 7.21779E-03-1.40445E-02-7.09957E-02
 -1      2167-2.77299E-02 5.72308E-03-2.14532E-01
 -1      2168 1.85507E-02-8.51901E-03-6.04529E-02
 -1      2169-1.66755E-03 2.83988E-02-3.79603E-01
 -1      2170-8.18449E-03 2.66577E-02-3.47299E-01
 -1      2171-2.15267E-03 2.29769E-02-1.05749E-01
 -1      2172-7.08261E-03 4.98198E-04-1.32473E-02
 -1      2173 1.41051E-02 1.10992E-02-7.89291E-02
 -1      2174 2.48175E-02 1.20186E-02-3.55386E-01
 -1      2175-1.43445E-03 2.69309E-02-1.94256E-01
 -1      2176 1.44442E-02-9.73619E-03-5.86621E-02
 -1      2177-2.86762E-02 5.07653E-03-3.33549E-01
 -1      2178-2.86977E-02 3.34350E-04-2.47784E-01
 -1      2179-8.12226E-03 2.66605E-02-2.93983E-01
 -1      2180-8.56695E-03-6.48907E-03-5.38389E-01
 -1      2181 7.29366E-03-8.17010E-03-5.30216E-01
 -1      2182 4.15423E-03 4.64330E-03-5.50223E-01
 -1      2183 1.68502E-02-1.12287E-02-2.50655E-01
 -1      2184-1.38601E-02 2.35669E-02-2.42587E-01
 -1      2185 2.17683E-02 1.84368E-02-3.28943E-01
 -1      2186 1.41885E-02 2.53891E-02-3.30856E-01
 -1      2187 9.73372E-03 2.75872E-02-3.20826E-01
 -1      2188 1.93655E-02 3.03061E-03-2.50273E-01
 -1      2189-7.80841E-04 2.15222E-02-4.81733E-01
 -1      2190 2.47700E-02 1.27903E-02-2.78240E-01
 -1      2191-1.90129E-02-1.06803E-02-1.12092E-01
 -1      2192 2.55788E-02 4.79273E-03-4.18609E-01
 -1      2193-2.40227E-02 1.23447E-02-2.37883E-01
 -1      2194 1.64539E-02-4.01481E-03-4.96970E-01
 -1      2195-1.07454E-02-2.33857E-02-4.57915E-01
 -1      2196-2.48848E-02 1.32584E-02-3.35954E-01
 -1      2197-4.79946E-03-2.68918E-02-4.22388E-01
 -1      2198-4.88776E-03 7.33534E-04-1.28413E-02
 -1      2199 2.36362E-02-6.65796E-03-4.49081E-01
 -1      2200 1.75032E-03-1.30562E-02-5.24612E-01
 -1      2201 5.99715E-04-1.04370E-02-3.01225E-02
 -1      2202-1.73248E-02 2.13771E-02-3.14329E-01
 -1      2203-9.55417E-03 2.55929E-02-2.42934E-01
 -1      2204 1.22402E-02-7.25541E-03-5.14629E-01
 -1      2205-1.04252E-02 1.90038E-02-1.11799E-01
 -1      2206 4.88277E-03 8.38656E-04-5.50375E-01
 -1      2207 1.30358E-02-1.68536E-02-4.89925E-01
 -1      2208-1.28339E-02 2.38005E-02-2.92256E-01
 -1      2209-2.03064E-02 1.72696E-02-3.95465E-01
 -1      2210-2.61766E-02-1.30120E-02-2.75956E-01
 -1      2211-2.63464E-02-1.20965E-02-3.83491E-01
 -1      2212 3.80073E-03-3.31633E-03-1.01064E-02
 -1      2213 1.15011E-02 1.03108E-02-5.09544E-01
 -1      2214-4.73926E-03-1.10823E-02-1.71567E-02
 -1      2215 1.58227E-02 2.34541E-02-2.49565E-01
 -1      2216 1.43401E-02 2.14616E-02-1.43744E-01
 -1      2217-4.22513E-03 9.47389E-03-5.28022E-01
 -1      2218-2.72287E-02 7.37640E-03-3.19097E-01
 -1      2219-1.15359E-02-2.03867E-03-5.28966E-01
 -1      2220 2.12413E-02 8.67861E-03-4.65871E-01
 -1      2221 2.50982E-02-1.91920E-05-4.51396E-01
 -1      2222 1.06582E-02-2.31321E-03-5.34226E-01
 -1      2223 8.10488E-03-1.05222E-02-5.27790E-01
 -1      2224 2.61902E-03 5.61122E-03-1.20181E-02
 -1      2225 8.35561E-04 1.85425E-02-2.55952E-01
 -1      2226 1.12439E-03 2.81649E-02-2.55952E-01
 -1      2227 1.45350E-02-1.32889E-02-3.86840E-01
 -1      2228 2.16892E-02-1.98701E-02-3.86840E-01
 -1      2229 2.90241E-02-7.43734E-04-2.94811E-01
 -1      2230 1.92026E-02-7.47252E-04-2.94811E-01
 -1      2231 1.92026E-02-1.01498E-03-3.39008E-01
 -1      2232 2.90241E-02-1.01146E-03-3.39008E-01
 -1      2233 2.69037E-02 1.03394E-02-2.94228E-01
 -1      2234 1.78849E-02 6.53008E-03-2.94228E-01
 -1      2235-1.36039E-02 1.18252E-02-2.52620E-01
 -1      2236-2.05859E-02 1.83920E-02-2.52620E-01
 -1      2237 1.18004E-02-2.64939E-02-4.33170E-01
 -1      2238 7.91936E-03-1.77299E-02-4.33170E-01
 -1      2239 2.90241E-02-1.54688E-03-4.27401E-01
 -1      2240 1.92026E-02-1.55040E-03-4.27401E-01
 -1      2241 2.90241E-02-1.27917E-03-3.83205E-01
 -1      2242 1.92026E-02-1.28269E-03-3.83205E-01
 -1      2243 9.94838E-06-1.88404E-02-3.46830E-01
 -1      2244-5.85623E-05-2.86199E-02-3.46830E-01
 -1      2245 1.45120E-02-1.33119E-02-2.99428E-01
 -1      2246 2.16662E-02-1.98931E-02-2.99428E-01
 -1      2247-2.06112E-02 1.88277E-02-2.83904E-01
 -1      2248-2.88830E-02 7.18116E-04-3.79775E-01
 -1      2249-1.92515E-02 2.65132E-04-3.79775E-01
 -1      2250-1.92515E-02 6.65784E-06-2.93091E-01
 -1      2251-2.88830E-02 4.59641E-04-2.93091E-01
 -1      2252-1.07980E-02-2.61942E-02-3.44328E-01
 -1      2253-7.13178E-03-1.72050E-02-3.44328E-01
 -1      2254-1.15217E-02 2.52567E-02-3.85431E-01
 -1      2255-7.60676E-03 1.65033E-02-3.85431E-01
 -1      2256 1.37117E-02 1.28385E-02-4.26516E-01
 -1      2257 2.06470E-02 1.96894E-02-4.26516E-01
 -1      2258-1.92515E-02 1.35894E-04-3.36433E-01
 -1      2259-2.88830E-02 5.88878E-04-3.36433E-01
 -1      2260 1.16069E-02-2.65741E-02-2.17572E-01
 -1      2261 7.72581E-03-1.78101E-02-2.17572E-01
 -1      2262 2.69343E-02 1.02654E-02-2.06118E-01
 -1      2263 1.79155E-02 6.45613E-03-2.06118E-01
 -1      2264 1.78542E-02 6.60402E-03-3.82339E-01
 -1      2265 2.68730E-02 1.04133E-02-3.82339E-01
 -1      2266 1.17617E-02-2.65100E-02-3.90050E-01
 -1      2267 7.88065E-03-1.77459E-02-3.90050E-01
 -1      2268-1.34863E-02 1.19428E-02-2.09508E-01
 -1      2269-2.04682E-02 1.85096E-02-2.09508E-01
 -1      2270-2.88847E-02 6.53496E-04-3.58078E-01
 -1      2271-1.92499E-02 2.00512E-04-3.58130E-01
 -1      2272-1.35436E-02 1.18825E-02-2.31081E-01
 -1      2273-2.05286E-02 1.84523E-02-2.31047E-01
 -1      2274 1.35284E-02 1.30218E-02-2.07179E-01
 -1      2275 2.04637E-02 1.98727E-02-2.07179E-01
 -1      2276 1.01773E-02-5.62914E-03-5.20840E-01
 -1      2277-1.40064E-02 3.29782E-03-5.10442E-01
 -1      2278 4.51806E-04-2.86199E-02-2.14806E-01
 -1      2279 5.20319E-04-1.88404E-02-2.14806E-01
 -1      2280-2.63204E-02 9.47599E-03-2.49828E-01
 -1      2281-1.73792E-02 5.97002E-03-2.49828E-01
 -1      2282 1.16843E-02-2.65420E-02-3.03811E-01
 -1      2283 7.80323E-03-1.77780E-02-3.03811E-01
 -1      2284 1.19700E-02 2.56636E-02-2.52778E-01
 -1      2285 8.04114E-03 1.67349E-02-2.52778E-01
 -1      2286-1.44312E-02-1.21665E-02-4.29153E-01
 -1      2287-2.13790E-02-1.87968E-02-4.29153E-01
 -1      2288-1.38072E-02-1.27905E-02-2.13125E-01
 -1      2289-2.07550E-02-1.94209E-02-2.13125E-01
 -1      2290 2.90275E-02-8.77598E-04-3.16910E-01
 -1      2291 1.91992E-02-8.81115E-04-3.16909E-01
 -1      2292-1.38392E-02 1.15899E-02-3.38843E-01
 -1      2293-2.08211E-02 1.81567E-02-3.38843E-01
 -1      2294-2.65788E-02 8.85221E-03-3.36248E-01
 -1      2295-1.76376E-02 5.34624E-03-3.36248E-01
 -1      2296-2.07035E-02 1.82743E-02-2.95732E-01
 -1      2297-1.37216E-02 1.17076E-02-2.95732E-01
 -1      2298 2.04449E-02 1.98915E-02-1.84676E-01
 -1      2299 1.35096E-02 1.30406E-02-1.84676E-01
 -1      2300 1.17230E-02-2.65260E-02-3.46931E-01
 -1      2301 7.84193E-03-1.77620E-02-3.46931E-01
 -1      2302-2.28685E-04-2.86199E-02-3.90837E-01
 -1      2303-1.60175E-04-1.88404E-02-3.90837E-01
 -1      2304 1.36384E-02 1.29118E-02-3.38781E-01
 -1      2305 2.05737E-02 1.97627E-02-3.38781E-01
 -1      2306-2.01917E-02-2.05512E-02-3.38488E-01
 -1      2307-2.67080E-02 8.54031E-03-3.79459E-01
 -1      2308-1.77668E-02 5.03434E-03-3.79459E-01
 -1      2309-2.11294E-02-1.90464E-02-3.42742E-01
 -1      2310-1.41816E-02-1.24161E-02-3.42742E-01
 -1      2311 2.05925E-02 1.97439E-02-3.61285E-01
 -1      2312 1.36572E-02 1.28930E-02-3.61285E-01
 -1      2313 2.90241E-02-2.08271E-04-2.06418E-01
 -1      2314 1.92026E-02-2.11790E-04-2.06418E-01
 -1      2315 1.23388E-03 2.81649E-02-3.85853E-01
 -1      2316 9.45045E-04 1.85425E-02-3.85853E-01
 -1      2317-2.04079E-02 1.85700E-02-1.87392E-01
 -1      2318-1.34260E-02 1.20032E-02-1.87392E-01
 -1      2319 1.36017E-02 1.29485E-02-2.94914E-01
 -1      2320 2.05370E-02 1.97994E-02-2.94914E-01
 -1      2321 1.45235E-02-1.33004E-02-3.43134E-01
 -1      2322 2.16777E-02-1.98816E-02-3.43134E-01
 -1      2323-2.64306E-02-1.07139E-02-2.09817E-01
 -1      2324-1.74645E-02-7.23725E-03-2.09817E-01
 -1      2325-1.14178E-02 2.52997E-02-3.42297E-01
 -1      2326-7.50285E-03 1.65464E-02-3.42297E-01
 -1      2327-2.64862E-02-1.05797E-02-2.96343E-01
 -1      2328-1.75202E-02-7.10301E-03-2.96343E-01
 -1      2329 2.05558E-02 1.97815E-02-3.16844E-01
 -1      2330 1.36196E-02 1.29297E-02-3.16851E-01
 -1      2331-2.85752E-02 4.96497E-04-2.98813E-01
 -1      2332-1.11101E-02-8.86951E-03-5.18761E-01
 -1      2333 3.50196E-04-1.88404E-02-2.58814E-01
 -1      2334 2.81684E-04-2.86199E-02-2.58814E-01
 -1      2335 1.18415E-02 2.57168E-02-3.40552E-01
 -1      2336 7.91269E-03 1.67881E-02-3.40552E-01
 -1      2337 1.08790E-03 2.81649E-02-2.12651E-01
 -1      2338 7.99070E-04 1.85425E-02-2.12651E-01
 -1      2339 2.05004E-02 1.98360E-02-2.51047E-01
 -1      2340 1.35651E-02 1.29851E-02-2.51047E-01
 -1      2341-2.65696E-02-1.03783E-02-4.26131E-01
 -1      2342-1.76036E-02-6.90164E-03-4.26131E-01
 -1      2343 1.27037E-03 2.81649E-02-4.29153E-01
 -1      2344 9.81539E-04 1.85425E-02-4.29153E-01
 -1      2345-1.13139E-02 2.53428E-02-2.99163E-01
 -1      2346-7.39894E-03 1.65894E-02-2.99163E-01
 -1      2347 2.90241E-02-4.76005E-04-2.50614E-01
 -1      2348 1.92026E-02-4.79523E-04-2.50614E-01
 -1      2349-2.65418E-02-1.04454E-02-3.82869E-01
 -1      2350-1.75758E-02-6.96876E-03-3.82869E-01
 -1      2351-1.14703E-02 2.52795E-02-3.63849E-01
 -1      2352-7.55426E-03 1.65236E-02-3.63879E-01
 -1      2353 2.16836E-02-1.98760E-02-3.64964E-01
 -1      2354 1.45291E-02-1.32945E-02-3.65010E-01
 -1      2355-1.43826E-02 3.30127E-03-5.19000E-01
 -1      2356-1.39569E-02 1.14723E-02-3.81955E-01
 -1      2357 2.02181E-02-2.09009E-02-3.70941E-01
 -1      2358-2.09388E-02 1.80391E-02-3.81955E-01
 -1      2359 1.05621E-03 2.81649E-02-1.75044E-01
 -1      2360 7.80350E-04 1.85425E-02-1.90438E-01
 -1      2361 7.62340E-04 1.85432E-02-1.69045E-01
 -1      2362 1.04469E-03 2.81719E-02-1.61122E-01
 -1      2363 1.07206E-03 2.81677E-02-1.93748E-01
 -1      2364 7.70989E-04 1.85336E-02-1.79649E-01
 -1      2365 1.04469E-03 2.81579E-02-1.61622E-01
 -1      2366 1.06568E-03 2.81575E-02-1.86550E-01
 -1      2367 7.55630E-04 1.85523E-02-1.60758E-01
 -1      2368 1.05597E-03 2.81550E-02-1.75116E-01
 -1      2369 7.89947E-04 1.85519E-02-2.01493E-01
 -1      2370 7.80341E-04 1.85332E-02-1.90762E-01
 -1      2371 7.55990E-04 1.85334E-02-1.61859E-01
 -1      2372 1.08139E-03 2.81742E-02-2.04585E-01
 -1      2373 1.07863E-03 2.81557E-02-2.01972E-01
 -1      2374 7.92043E-04 1.85332E-02-2.04646E-01
 -1      2375 1.19057E-02 2.56902E-02-2.96665E-01
 -1      2376 7.97692E-03 1.67615E-02-2.96665E-01
 -1      2377 7.78422E-03 1.68413E-02-4.28325E-01
 -1      2378 1.17130E-02 2.57700E-02-4.28325E-01
 -1      2379-1.08788E-02-2.61607E-02-3.88013E-01
 -1      2380-7.21255E-03-1.71716E-02-3.88013E-01
 -1      2381 1.81919E-02-7.49904E-03-2.95035E-01
 -1      2382 2.72105E-02-1.12102E-02-2.95035E-01
 -1      2383-3.98808E-04-2.86199E-02-4.34845E-01
 -1      2384-3.30298E-04-1.88404E-02-4.34845E-01
 -1      2385 1.16649E-02 2.57900E-02-4.61240E-01
 -1      2386 7.73605E-03 1.68613E-02-4.61240E-01
 -1      2387 2.68884E-02 1.03763E-02-3.38284E-01
 -1      2388 1.78696E-02 6.56705E-03-3.38284E-01
 -1      2389-1.16256E-02 2.52137E-02-4.28564E-01
 -1      2390-7.71067E-03 1.64603E-02-4.28564E-01
 -1      2391 1.82713E-02-7.30734E-03-2.51150E-01
 -1      2392 2.72899E-02-1.10185E-02-2.51150E-01
 -1      2393-1.75480E-02-7.03589E-03-3.39606E-01
 -1      2394-2.65140E-02-1.05126E-02-3.39606E-01
 -1      2395-5.46396E-03-1.56285E-02-5.10641E-01
 -1      2396-1.40745E-02 1.13547E-02-4.25067E-01
 -1      2397-2.10564E-02 1.79214E-02-4.25067E-01
 -1      2398 7.41284E-03 8.21466E-03-5.24050E-01
 -1      2399-1.12100E-02 2.53858E-02-2.56030E-01
 -1      2400-7.29503E-03 1.66325E-02-2.56030E-01
 -1      2401-1.06365E-02-2.62611E-02-2.56956E-01
 -1      2402-6.97026E-03-1.72719E-02-2.56956E-01
 -1      2403 1.45006E-02-1.33233E-02-2.55722E-01
 -1      2404 2.16548E-02-1.99045E-02-2.55722E-01
 -1      2405 2.69190E-02 1.03024E-02-2.50173E-01
 -1      2406 1.79002E-02 6.49311E-03-2.50173E-01
 -1      2407 2.04825E-02 1.98548E-02-2.29110E-01
 -1      2408 1.35472E-02 1.30039E-02-2.29110E-01
 -1      2409 1.34349E-02 1.65576E-02-4.77290E-01
 -1      2410-2.58700E-02-8.76991E-04-1.50526E-01
 -1      2411 1.92060E-02-1.41655E-03-4.05303E-01
 -1      2412 2.90207E-02-1.41303E-03-4.05303E-01
 -1      2413 8.96646E-03 2.92650E-03-5.28765E-01
 -1      2414 2.68577E-02 1.04503E-02-4.26394E-01
 -1      2415 1.78389E-02 6.64099E-03-4.26394E-01
 -1      2416 1.79083E-02 6.47481E-03-2.28142E-01
 -1      2417 2.69262E-02 1.02837E-02-2.28149E-01
 -1      2418-1.09596E-02-2.61273E-02-4.31699E-01
 -1      2419-7.29331E-03-1.71381E-02-4.31699E-01
 -1      2420 1.80071E-04-1.88404E-02-3.02822E-01
 -1      2421 1.11560E-04-2.86199E-02-3.02822E-01
 -1      2422-1.43623E-04-2.86177E-02-3.68837E-01
 -1      2423-7.51128E-05-1.88426E-02-3.68829E-01
 -1      2424-2.88830E-02 8.47359E-04-4.23117E-01
 -1      2425-1.92515E-02 3.94375E-04-4.23117E-01
 -1      2426-2.09991E-02 1.79817E-02-4.03494E-01
 -1      2427-1.40142E-02 1.14120E-02-4.03528E-01
 -1      2428 9.08549E-04 1.85425E-02-3.42553E-01
 -1      2429 1.19738E-03 2.81649E-02-3.42553E-01
 -1      2430-1.11061E-02 2.54289E-02-2.12896E-01
 -1      2431-7.19112E-03 1.66755E-02-2.12896E-01
 -1      2432-1.36613E-02 1.17649E-02-2.74193E-01
 -1      2433-2.06432E-02 1.83317E-02-2.74193E-01
 -1      2434 1.45465E-02-1.32774E-02-4.30546E-01
 -1      2435 2.17006E-02-1.98586E-02-4.30546E-01
 -1      2436 8.72053E-04 1.85425E-02-2.99252E-01
 -1      2437 1.16089E-03 2.81649E-02-2.99252E-01
 -1      2438 1.20342E-02 2.56370E-02-2.08892E-01
 -1      2439 8.10537E-03 1.67083E-02-2.08892E-01
 -1      2440 7.84846E-03 1.68147E-02-3.84438E-01
 -1      2441 1.17773E-02 2.57434E-02-3.84438E-01
 -1      2442 1.78921E-02 6.51140E-03-2.72205E-01
 -1      2443 2.69118E-02 1.03211E-02-2.72197E-01
 -1      2444 1.16456E-02-2.65581E-02-2.60692E-01
 -1      2445 7.76452E-03-1.77940E-02-2.60692E-01
 -1      2446 2.16721E-02-1.98875E-02-3.21258E-01
 -1      2447 1.45176E-02-1.33060E-02-3.21304E-01
 -1      2448 2.05182E-02 1.98172E-02-2.72984E-01
 -1      2449 1.35839E-02 1.29672E-02-2.72977E-01
 -1      2450 1.44891E-02-1.33348E-02-2.12017E-01
 -1      2451 2.16433E-02-1.99160E-02-2.12017E-01
 -1      2452 1.78777E-02 6.54876E-03-3.16252E-01
 -1      2453 2.68956E-02 1.03576E-02-3.16260E-01
 -1      2454 7.77967E-03 1.29203E-02-9.86636E-02
 -1      2455 8.07359E-03 1.67224E-02-2.30847E-01
 -1      2456 1.20017E-02 2.56495E-02-2.30823E-01
 -1      2457 1.17913E-03 2.81644E-02-3.20919E-01
 -1      2458 8.90300E-04 1.85430E-02-3.20886E-01
 -1      2459-7.45144E-03 1.65692E-02-3.20715E-01
 -1      2460-1.13653E-02 2.53200E-02-3.20745E-01
 -1      2461-7.25250E-03-1.71538E-02-4.09853E-01
 -1      2462-1.09196E-02-2.61450E-02-4.09859E-01
 -1      2463-1.39320E-02-1.26657E-02-2.56331E-01
 -1      2464-2.08798E-02-1.92961E-02-2.56331E-01
 -1      2465-2.68372E-02 8.22841E-03-4.22669E-01
 -1      2466-1.78960E-02 4.72244E-03-4.22669E-01
 -1      2467-1.72500E-02 6.28191E-03-2.06618E-01
 -1      2468-2.61912E-02 9.78788E-03-2.06618E-01
 -1      2469 1.44947E-02-1.33289E-02-2.33893E-01
 -1      2470 2.16492E-02-1.99104E-02-2.33846E-01
 -1      2471 6.47374E-03 1.59395E-02-5.04052E-01
 -1      2472-1.73107E-02 6.12433E-03-2.28233E-01
 -1      2473-2.62598E-02 9.63357E-03-2.28212E-01
 -1      2474-2.64584E-02-1.06468E-02-2.53080E-01
 -1      2475-1.74924E-02-7.17013E-03-2.53080E-01
 -1      2476 8.16116E-03 1.66852E-02-1.70776E-01
 -1      2477 1.20671E-02 2.56234E-02-1.86379E-01
 -1      2478 1.20993E-02 2.56115E-02-1.64738E-01
 -1      2479 8.13531E-03 1.67017E-02-1.89907E-01
 -1      2480 1.20771E-02 2.56009E-02-1.74887E-01
 -1      2481 8.17632E-03 1.66644E-02-1.56735E-01
 -1      2482 8.18655E-03 1.66891E-02-1.57103E-01
 -1      2483 1.21136E-02 2.56243E-02-1.59775E-01
 -1      2484 8.13910E-03 1.66791E-02-1.81978E-01
 -1      2485 1.20571E-02 2.56469E-02-1.98166E-01
 -1      2486 8.15414E-03 1.66676E-02-1.70360E-01
 -1      2487 1.20603E-02 2.56069E-02-1.86122E-01
 -1      2488 8.12366E-03 1.67200E-02-2.01300E-01
 -1      2489 1.21034E-02 2.55896E-02-1.56845E-01
 -1      2490 8.11499E-03 1.66853E-02-1.97494E-01
 -1      2491 1.20397E-02 2.56154E-02-2.00195E-01
 -1      2492 1.43933E-02 1.32177E-03-5.03975E-01
 -1      2493 1.91992E-02-6.13388E-04-2.72713E-01
 -1      2494 2.90275E-02-6.09870E-04-2.72713E-01
 -1      2495-2.88830E-02 9.59614E-04-4.60760E-01
 -1      2496-1.92515E-02 5.21948E-04-4.65896E-01
 -1      2497-2.89079E-02 1.00043E-03-4.74053E-01
 -1      2498-1.92491E-02 4.58160E-04-4.44545E-01
 -1      2499-2.88620E-02 1.00042E-03-4.74777E-01
 -1      2500-1.92841E-02 5.47126E-04-4.73826E-01
 -1      2501-2.88930E-02 9.03486E-04-4.41782E-01
 -1      2502-1.92350E-02 5.55099E-04-4.77274E-01
 -1      2503-2.88569E-02 9.26053E-04-4.49918E-01
 -1      2504-1.92176E-02 4.91312E-04-4.56158E-01
 -1      2505-1.92847E-02 4.26688E-04-4.33430E-01
 -1      2506-2.88478E-02 9.60071E-04-4.61468E-01
 -1      2507-2.89162E-02 8.70441E-04-4.30334E-01
 -1      2508-1.10528E-02 2.54510E-02-1.90769E-01
 -1      2509-7.13782E-03 1.66976E-02-1.90769E-01
 -1      2510 2.68812E-02 1.03950E-02-3.60307E-01
 -1      2511 1.78624E-02 6.58573E-03-3.60307E-01
 -1      2512-1.77061E-02 5.19193E-03-3.57843E-01
 -1      2513-2.66473E-02 8.69790E-03-3.57843E-01
 -1      2514 2.68444E-02 1.04824E-02-4.64656E-01
 -1      2515 1.78311E-02 6.65996E-03-4.48993E-01
 -1      2516 2.68539E-02 1.04675E-02-4.45502E-01
 -1      2517 1.78446E-02 6.65416E-03-4.37329E-01
 -1      2518 1.78242E-02 6.67849E-03-4.70729E-01
 -1      2519 2.68325E-02 1.04911E-02-4.78625E-01
 -1      2520 2.68467E-02 1.04970E-02-4.78507E-01
 -1      2521 2.68645E-02 1.04608E-02-4.34183E-01
 -1      2522 1.78181E-02 6.66570E-03-4.60369E-01
 -1      2523 1.78117E-02 6.68082E-03-4.78477E-01
 -1      2524 2.68409E-02 1.04697E-02-4.53279E-01
 -1      2525 1.78316E-02 6.68668E-03-4.75874E-01
 -1      2526 2.68343E-02 1.04783E-02-4.64895E-01
 -1      2527 1.78216E-02 6.65604E-03-4.49082E-01
 -1      2528 2.68454E-02 1.04566E-02-4.38073E-01
 -1      2529 1.78303E-02 6.64851E-03-4.37733E-01
 -1      2530 1.14264E-03 2.81644E-02-2.77618E-01
 -1      2531 8.53806E-04 1.85430E-02-2.77585E-01
 -1      2532-1.92515E-02-1.22578E-04-2.49750E-01
 -1      2533-2.88830E-02 3.30405E-04-2.49750E-01
 -1      2534 9.63293E-04 1.85421E-02-4.07520E-01
 -1      2535 1.25213E-03 2.81653E-02-4.07487E-01
 -1      2536-2.64097E-02-1.07643E-02-1.77370E-01
 -1      2537-1.74371E-02-7.30350E-03-1.67116E-01
 -1      2538-1.74496E-02-7.26985E-03-1.88485E-01
 -1      2539-1.74613E-02-7.29489E-03-1.77111E-01
 -1      2540-2.63903E-02-1.07857E-02-1.61279E-01
 -1      2541-1.74261E-02-7.28029E-03-1.77629E-01
 -1      2542-2.64292E-02-1.07428E-02-1.93461E-01
 -1      2543-1.74450E-02-7.28728E-03-1.77817E-01
 -1      2544-2.64052E-02-1.07406E-02-1.89535E-01
 -1      2545-2.64143E-02-1.07879E-02-1.65205E-01
 -1      2546-2.63890E-02-1.07650E-02-1.72499E-01
 -1      2547-1.74148E-02-7.30958E-03-1.58937E-01
 -1      2548-1.74327E-02-7.26362E-03-1.88317E-01
 -1      2549-2.64261E-02-1.07734E-02-1.75829E-01
 -1      2550-1.74537E-02-7.31194E-03-1.66009E-01
 -1      2551-1.74748E-02-7.26116E-03-1.98748E-01
 -1      2552-2.64445E-02-1.07291E-02-2.04388E-01
 -1      2553-1.74819E-02-7.24394E-03-2.09845E-01
 -1      2554-2.64538E-02-1.07066E-02-2.18863E-01
 -1      2555-1.74776E-02-7.20334E-03-2.31461E-01
 -1      2556-1.74876E-02-7.22281E-03-2.22798E-01
 -1      2557-2.64419E-02-1.06756E-02-2.33522E-01
 -1      2558 2.06195E-02 1.97169E-02-3.93615E-01
 -1      2559 1.36929E-02 1.28573E-02-4.04012E-01
 -1      2560 1.36746E-02 1.28564E-02-3.93686E-01
 -1      2561 1.36938E-02 1.28756E-02-3.93545E-01
 -1      2562 2.06381E-02 1.97081E-02-4.10029E-01
 -1      2563 1.36724E-02 1.28778E-02-3.79502E-01
 -1      2564 1.36832E-02 1.28670E-02-3.92433E-01
 -1      2565 2.06110E-02 1.97354E-02-3.77413E-01
 -1      2566 2.06333E-02 1.97220E-02-3.98744E-01
 -1      2567 2.06055E-02 1.97121E-02-3.88201E-01
 -1      2568 1.36654E-02 1.28663E-02-3.82276E-01
 -1      2569 2.05915E-02 1.97256E-02-3.71752E-01
 -1      2570 2.06229E-02 1.97000E-02-4.05817E-01
 -1      2571 1.36538E-02 1.28773E-02-3.68691E-01
 -1      2572 2.06042E-02 1.97247E-02-3.79820E-01
 -1      2573 1.36727E-02 1.28933E-02-3.70336E-01
 -1      2574 1.36842E-02 1.28472E-02-4.04947E-01
 -1      2575 1.37119E-02 1.28571E-02-4.15480E-01
 -1      2576 2.06061E-02 1.97493E-02-3.66129E-01
 -1      2577 2.06520E-02 1.97032E-02-4.21199E-01
 -1      2578 1.37213E-02 1.28477E-02-4.26732E-01
 -1      2579 2.06655E-02 1.96896E-02-4.37414E-01
 -1      2580 1.37305E-02 1.28197E-02-4.49019E-01
 -1      2581 2.06751E-02 1.96626E-02-4.59411E-01
 -1      2582 2.06560E-02 1.96707E-02-4.43157E-01
 -1      2583 1.37256E-02 1.28336E-02-4.37735E-01
 -1      2584 1.37493E-02 1.28023E-02-4.70663E-01
 -1      2585 1.37119E-02 1.28199E-02-4.37835E-01
 -1      2586 1.37488E-02 1.28206E-02-4.59346E-01
 -1      2587 2.06695E-02 1.96758E-02-4.48085E-01
 -1      2588 2.06832E-02 1.96435E-02-4.75745E-01
 -1      2589 2.06421E-02 1.96755E-02-4.31989E-01
 -1      2590 2.06888E-02 1.96670E-02-4.64828E-01
 -1      2591 1.37401E-02 1.28112E-02-4.59829E-01
 -1      2592 1.37023E-02 1.28291E-02-4.26592E-01
 -1      2593 1.37481E-02 1.27838E-02-4.81121E-01
 -1      2594 2.06305E-02 1.96862E-02-4.18650E-01
 -1      2595 2.06850E-02 1.96555E-02-4.69550E-01
 -1      2596 1.36980E-02 1.28428E-02-4.15739E-01
 -1      2597 2.72477E-02-1.11133E-02-2.73091E-01
 -1      2598 1.82340E-02-7.40420E-03-2.73094E-01
 -1      2599-4.42228E-03 1.18353E-02-5.13019E-01
 -1      2600 2.71310E-02-1.14019E-02-3.38921E-01
 -1      2601 1.81125E-02-7.69074E-03-3.38921E-01
 -1      2602-1.58071E-02-2.17782E-02-1.93029E-01
 -1      2603 2.90241E-02 2.42602E-05-1.68032E-01
 -1      2604 1.92026E-02 2.07405E-05-1.68032E-01
 -1      2605 2.16951E-02-1.98645E-02-4.08670E-01
 -1      2606 1.45406E-02-1.32830E-02-4.08716E-01
 -1      2607 1.18091E-02 2.57293E-02-3.62483E-01
 -1      2608 7.88091E-03 1.68022E-02-3.62507E-01
 -1      2609-2.88814E-02 3.95023E-04-2.71446E-01
 -1      2610-1.92532E-02-5.79607E-05-2.71395E-01
 -1      2611-2.65270E-02-1.04786E-02-3.61250E-01
 -1      2612-1.75627E-02-7.00268E-03-3.61225E-01
 -1      2613 1.83507E-02-7.11564E-03-2.07265E-01
 -1      2614 2.73693E-02-1.08268E-02-2.07265E-01
 -1      2615-2.07348E-02-1.92203E-02-3.75220E-01
 -1      2616-1.20103E-02 1.53947E-02-4.90893E-01
 -1      2617-2.88831E-02 2.01171E-04-2.06408E-01
 -1      2618-1.92515E-02-2.51811E-04-2.06408E-01
 -1      2619-1.16802E-02-8.78393E-03-5.14488E-01
 -1      2620-1.43064E-02-1.22913E-02-3.85948E-01
 -1      2621-2.12542E-02-1.89216E-02-3.85948E-01
 -1      2622-2.09439E-02-1.92320E-02-2.78495E-01
 -1      2623-1.39960E-02-1.26017E-02-2.78495E-01
 -1      2624 2.46901E-02 9.42057E-03-1.70635E-01
 -1      2625-2.64496E-02 9.16410E-03-2.93038E-01
 -1      2626-1.75084E-02 5.65813E-03-2.93038E-01
 -1      2627 1.18340E-02-2.64800E-02-4.70619E-01
 -1      2628 7.93922E-03-1.77217E-02-4.55289E-01
 -1      2629 1.18185E-02-2.64899E-02-4.51815E-01
 -1      2630 7.93330E-03-1.77355E-02-4.43969E-01
 -1      2631 1.18094E-02-2.65018E-02-4.38292E-01
 -1      2632 7.92348E-03-1.77398E-02-4.32909E-01
 -1      2633 7.95802E-03-1.77130E-02-4.76589E-01
 -1      2634 1.18432E-02-2.64675E-02-4.84435E-01
 -1      2635 1.17949E-02-2.65078E-02-4.22123E-01
 -1      2636 7.95307E-03-1.77270E-02-4.66095E-01
 -1      2637 1.18493E-02-2.64824E-02-4.84034E-01
 -1      2638 1.18313E-02-2.64929E-02-4.62682E-01
 -1      2639 7.89980E-03-1.77374E-02-4.11623E-01
 -1      2640 7.91161E-03-1.77389E-02-4.22109E-01
 -1      2641 7.96114E-03-1.77004E-02-4.84779E-01
 -1      2642 1.17783E-02-2.65093E-02-4.05937E-01
 -1      2643 7.96973E-03-1.77149E-02-4.86847E-01
 -1      2644 1.17841E-02-2.64940E-02-4.17733E-01
 -1      2645 7.89444E-03-1.77519E-02-4.00563E-01
 -1      2646 7.90547E-03-1.77238E-02-4.22664E-01
 -1      2647 1.17703E-02-2.65180E-02-3.94802E-01
 -1      2648 1.17922E-02-2.64857E-02-4.28857E-01
 -1      2649 7.88451E-03-1.77560E-02-3.89503E-01
 -1      2650 7.91550E-03-1.77199E-02-4.33714E-01
 -1      2651 1.17561E-02-2.65239E-02-3.79003E-01
 -1      2652 1.18069E-02-2.64803E-02-4.44908E-01
 -1      2653 7.86109E-03-1.77535E-02-3.68504E-01
 -1      2654 7.87231E-03-1.77592E-02-3.76674E-01
 -1      2655 1.18197E-02-2.64766E-02-4.58533E-01
 -1      2656 7.92734E-03-1.77211E-02-4.44357E-01
 -1      2657 1.17396E-02-2.65254E-02-3.62817E-01
 -1      2658 7.93374E-03-1.77124E-02-4.54016E-01
 -1      2659 7.85572E-03-1.77679E-02-3.57443E-01
 -1      2660 1.17316E-02-2.65341E-02-3.51683E-01
 -1      2661 1.17453E-02-2.65100E-02-3.74614E-01
 -1      2662 7.94604E-03-1.77069E-02-4.67861E-01
 -1      2663 7.84579E-03-1.77720E-02-3.46384E-01
 -1      2664 1.17184E-02-2.65395E-02-3.36996E-01
 -1      2665 1.18322E-02-2.64690E-02-4.73444E-01
 -1      2666 7.82868E-03-1.77728E-02-3.29923E-01
 -1      2667 7.83744E-03-1.77767E-02-3.36553E-01
 -1      2668 7.86675E-03-1.77398E-02-3.79545E-01
 -1      2669 1.17008E-02-2.65324E-02-3.23297E-01
 -1      2670 1.17068E-02-2.65429E-02-3.24672E-01
 -1      2671 7.81407E-03-1.77662E-02-3.18950E-01
 -1      2672 1.17535E-02-2.65017E-02-3.85737E-01
 -1      2673 1.16877E-02-2.65290E-02-3.12471E-01
 -1      2674 7.80267E-03-1.77666E-02-3.08039E-01
 -1      2675 7.81679E-03-1.77796E-02-3.15932E-01
 -1      2676 1.16953E-02-2.65491E-02-3.11239E-01
 -1      2677 7.87678E-03-1.77359E-02-3.90594E-01
 -1      2678 7.80904E-03-1.77872E-02-3.05441E-01
 -1      2679 1.16847E-02-2.65535E-02-2.99448E-01
 -1      2680 7.79380E-03-1.77904E-02-2.89770E-01
 -1      2681 1.17692E-02-2.64968E-02-4.02565E-01
 -1      2682 1.16644E-02-2.65494E-02-2.82015E-01
 -1      2683 7.77805E-03-1.77833E-02-2.77907E-01
 -1      2684 7.88825E-03-1.77373E-02-4.00831E-01
 -1      2685 1.16733E-02-2.65577E-02-2.86939E-01
 -1      2686 1.16517E-02-2.65465E-02-2.71245E-01
 -1      2687 7.76525E-03-1.77821E-02-2.66349E-01
 -1      2688-2.13182E-02-1.88608E-02-4.07538E-01
 -1      2689-1.43672E-02-1.22273E-02-4.07563E-01
 -1      2690-1.69435E-02-9.34587E-03-1.65901E-01
 -1      2691 1.21563E-03 2.81653E-02-3.64186E-01
 -1      2692 9.26796E-04 1.85421E-02-3.64219E-01
 -1      2693-1.07173E-02-2.62276E-02-3.00642E-01
 -1      2694-7.05102E-03-1.72385E-02-3.00642E-01
 -1      2695-7.17174E-03-1.71873E-02-3.66167E-01
 -1      2696-1.08388E-02-2.61785E-02-3.66173E-01
 -1      2697-1.06773E-02-2.62454E-02-2.78802E-01
 -1      2698-7.01021E-03-1.72542E-02-2.78796E-01
 -1      2699-1.05557E-02-2.62945E-02-2.13271E-01
 -1      2700-6.88950E-03-1.73054E-02-2.13271E-01
 -1      2701-2.45238E-04-1.88383E-02-4.12845E-01
 -1      2702-3.13748E-04-2.86220E-02-4.12837E-01
 -1      2703 2.16604E-02-1.98986E-02-2.77598E-01
 -1      2704 1.45064E-02-1.33177E-02-2.77552E-01
 -1      2705 2.69722E-02-1.17853E-02-4.26691E-01
 -1      2706 1.79537E-02-8.07414E-03-4.26691E-01
 -1      2707 2.70516E-02-1.15936E-02-3.82806E-01
 -1      2708 1.80331E-02-7.88244E-03-3.82806E-01
 -1      2709 1.67712E-02 5.79659E-03-9.31202E-02
 -1      2710 1.96622E-04-2.86178E-02-2.80822E-01
 -1      2711 2.65134E-04-1.88426E-02-2.80814E-01
 -1      2712 1.17448E-02 2.57559E-02-4.06370E-01
 -1      2713 7.81668E-03 1.68288E-02-4.06394E-01
 -1      2714-1.20694E-02 2.46394E-02-3.28751E-01
 -1      2715-1.11586E-02 2.54087E-02-2.34448E-01
 -1      2716-7.24253E-03 1.66527E-02-2.34478E-01
 -1      2717 2.54129E-02 1.15149E-02-1.95308E-01
 -1      2718-1.04856E-02-2.63236E-02-1.75329E-01
 -1      2719-6.84807E-03-1.73225E-02-1.90860E-01
 -1      2720-6.80758E-03-1.73375E-02-1.69297E-01
 -1      2721-1.04537E-02-2.63186E-02-1.61490E-01
 -1      2722-1.04656E-02-2.63473E-02-1.61574E-01
 -1      2723-1.05232E-02-2.63153E-02-1.94318E-01
 -1      2724-6.79746E-03-1.73671E-02-1.59017E-01
 -1      2725-6.83552E-03-1.73508E-02-1.79713E-01
 -1      2726-1.05087E-02-2.63387E-02-1.83157E-01
 -1      2727-1.04998E-02-2.62986E-02-1.86625E-01
 -1      2728-6.78439E-03-1.73235E-02-1.61204E-01
 -1      2729-6.87789E-03-1.73344E-02-2.02410E-01
 -1      2730-6.82015E-03-1.73092E-02-1.80444E-01
 -1      2731-1.05499E-02-2.63212E-02-2.05530E-01
 -1      2732-6.84110E-03-1.73012E-02-1.91662E-01
 -1      2733-1.04762E-02-2.63017E-02-1.75110E-01
 -1      2734-1.05268E-02-2.62827E-02-2.02106E-01
 -1      2735-6.87083E-03-1.72888E-02-2.07749E-01
 -1      2736-1.05473E-02-2.62738E-02-2.13305E-01
 -1      2737-6.89711E-03-1.72779E-02-2.21968E-01
 -1      2738-1.05826E-02-2.62716E-02-2.30053E-01
 -1      2739-6.93506E-03-1.72916E-02-2.36959E-01
 -1      2740-6.92109E-03-1.72708E-02-2.34412E-01
 -1      2741-1.05644E-02-2.62637E-02-2.23107E-01
 -1      2742-1.06133E-02-2.62855E-02-2.41611E-01
 -1      2743-1.06078E-02-2.62570E-02-2.44420E-01
 -1      2744-6.94572E-03-1.72693E-02-2.46093E-01
 -1      2745-6.96079E-03-1.72963E-02-2.47972E-01
 -1      2746-1.06359E-02-2.62882E-02-2.51563E-01
 -1      2747 2.73271E-02-1.09216E-02-2.29206E-01
 -1      2748 1.83134E-02-7.21250E-03-2.29209E-01
 -1      2749-1.74398E-02 5.81244E-03-2.71443E-01
 -1      2750-2.63890E-02 9.32168E-03-2.71423E-01
 -1      2751 1.80752E-02-7.78760E-03-3.60865E-01
 -1      2752 2.70889E-02-1.14967E-02-3.60862E-01
 -1      2753 1.20314E-02-1.60347E-02-2.44622E-01
 -1      2754-2.88814E-02 2.65788E-04-2.28104E-01
 -1      2755-1.92532E-02-1.87194E-04-2.28053E-01
 -1      2756 2.16333E-02-1.99260E-02-1.74058E-01
 -1      2757 1.44832E-02-1.33407E-02-1.89596E-01
 -1      2758 1.44773E-02-1.33461E-02-1.68062E-01
 -1      2759 2.16275E-02-1.99274E-02-1.60608E-01
 -1      2760 2.16374E-02-1.99201E-02-1.93177E-01
 -1      2761 2.16316E-02-1.99315E-02-1.59961E-01
 -1      2762 1.44831E-02-1.33464E-02-1.77940E-01
 -1      2763 2.16386E-02-1.99253E-02-1.85038E-01
 -1      2764 1.44833E-02-1.33347E-02-2.01558E-01
 -1      2765 1.44784E-02-1.33512E-02-1.59968E-01
 -1      2766 2.16364E-02-1.99291E-02-1.73407E-01
 -1      2767 1.44731E-02-1.33446E-02-1.63335E-01
 -1      2768 1.44861E-02-1.33436E-02-1.89118E-01
 -1      2769 2.16428E-02-1.99216E-02-2.00089E-01
 -1      2770 1.44898E-02-1.33400E-02-2.03133E-01
 -1      2771 2.16389E-02-1.99145E-02-2.07021E-01
 -1      2772-2.08190E-02-1.93601E-02-2.34715E-01
 -1      2773-1.38680E-02-1.27265E-02-2.34741E-01
 -1      2774-1.42404E-02-1.24600E-02-1.01233E-01
 -1      2775 3.66745E-04-2.86178E-02-2.36814E-01
 -1      2776 4.35257E-04-1.88426E-02-2.36806E-01
 -1      2777-1.75769E-02 5.50382E-03-3.14633E-01
 -1      2778-2.65102E-02 9.00652E-03-3.14654E-01
 -1      2779-1.92532E-02 3.29751E-04-4.01420E-01
 -1      2780-2.88814E-02 7.82736E-04-4.01472E-01
 -1      2781-2.11934E-02-1.89856E-02-3.64332E-01
 -1      2782-1.42456E-02-1.23553E-02-3.64332E-01
 -1      2783 2.17262E-02-1.46328E-02-4.23822E-01
 -1      2784-1.75905E-02-6.93555E-03-4.04488E-01
 -1      2785-2.65548E-02-1.04115E-02-4.04512E-01
 -1      2786 2.17106E-02-1.98487E-02-4.68504E-01
 -1      2787 1.45523E-02-1.32716E-02-4.52966E-01
 -1      2788 1.45578E-02-1.32657E-02-4.74570E-01
 -1      2789 2.17120E-02-1.98429E-02-4.82655E-01
 -1      2790 2.17065E-02-1.98545E-02-4.49385E-01
 -1      2791 2.17161E-02-1.98469E-02-4.82007E-01
 -1      2792 1.45581E-02-1.32714E-02-4.63732E-01
 -1      2793 1.45636E-02-1.32661E-02-4.84428E-01
 -1      2794 1.45563E-02-1.32615E-02-4.80202E-01
 -1      2795 2.17053E-02-1.98493E-02-4.57524E-01
 -1      2796 2.17116E-02-1.98537E-02-4.60259E-01
 -1      2797 1.45523E-02-1.32775E-02-4.41004E-01
 -1      2798 1.45528E-02-1.32651E-02-4.66592E-01
 -1      2799 2.17083E-02-1.98450E-02-4.71564E-01
 -1      2800 2.17056E-02-1.98595E-02-4.37883E-01
 -1      2801 1.45498E-02-1.32682E-02-4.55190E-01
 -1      2802-1.83822E-02 1.23675E-02-4.86063E-01
 -1      2803-8.50901E-03-2.14687E-02-1.33203E-01
 -1      2804 1.79909E-02-7.97729E-03-4.04747E-01
 -1      2805 2.70144E-02-1.16905E-02-4.04750E-01
 -1      2806 1.92231E-02-9.55250E-05-1.87226E-01
 -1      2807 2.90035E-02-9.20055E-05-1.87224E-01
 -1      2808 2.90927E-02-1.41337E-04-1.95372E-01
 -1      2809 2.90798E-02-5.94028E-05-1.81846E-01
 -1      2810 1.91339E-02-1.44856E-04-1.95364E-01
 -1      2811-2.85641E-02-2.27135E-03-2.11161E-01
 -1      2812 1.92712E-02-1.63976E-04-1.98529E-01
 -1      2813 1.91469E-02-6.29223E-05-1.81840E-01
 -1      2814 1.92635E-02-2.84342E-05-1.76153E-01
 -1      2815 2.89631E-02-1.59104E-04-1.98298E-01
 -1      2816 2.90931E-02 9.81365E-06-1.70421E-01
 -1      2817 2.89631E-02-2.49145E-05-1.76146E-01
 -1      2818 1.92702E-02 4.22338E-05-1.64488E-01
 -1      2819 1.91336E-02 6.29411E-06-1.70413E-01
 -1      2820 2.90768E-02 1.04034E-04-1.54867E-01
 -1      2821 2.89564E-02 4.57538E-05-1.64480E-01
 -1      2822 1.91499E-02 1.00514E-04-1.54861E-01
 -1      2823 1.92303E-02 1.13235E-04-1.52765E-01
 -1      2824 2.89964E-02 1.16755E-04-1.52762E-01
 -1      2825 1.92060E-02-3.45656E-04-2.28516E-01
 -1      2826 2.90207E-02-3.42137E-04-2.28516E-01
 -1      2827 1.87479E-02 9.92002E-04-9.07013E-02
 -1      2828 7.94514E-03 1.67756E-02-3.18621E-01
 -1      2829 1.18733E-02 2.57027E-02-3.18596E-01
 -1      2830 5.99558E-04-2.86199E-02-1.76585E-01
 -1      2831 6.07589E-04-1.88404E-02-1.92231E-01
 -1      2832 6.91547E-04-1.88436E-02-1.70507E-01
 -1      2833 6.53273E-04-2.86526E-02-1.62631E-01
 -1      2834 6.53273E-04-2.85872E-02-1.62749E-01
 -1      2835 5.25681E-04-2.86330E-02-1.95672E-01
 -1      2836 6.51228E-04-1.87989E-02-1.81018E-01
 -1      2837 7.31828E-04-1.87979E-02-1.60170E-01
 -1      2838 7.11708E-04-1.88859E-02-1.65215E-01
 -1      2839 5.55384E-04-2.85855E-02-1.88074E-01
 -1      2840 5.62850E-04-1.88840E-02-2.03725E-01
 -1      2841 6.00160E-04-2.85736E-02-1.76513E-01
 -1      2842 6.07630E-04-1.87968E-02-1.92300E-01
 -1      2843 4.73071E-04-2.86635E-02-2.09226E-01
 -1      2844 4.96640E-04-2.85818E-02-2.03277E-01
 -1      2845 5.63954E-04-1.88185E-02-2.03558E-01
 -1      2846-5.26394E-04-2.86199E-02-4.67851E-01
 -1      2847-4.17565E-04-1.88404E-02-4.57420E-01
 -1      2848-5.01517E-04-1.88372E-02-4.79144E-01
 -1      2849-4.61201E-04-1.88819E-02-4.68633E-01
 -1      2850-4.57884E-04-1.87957E-02-4.67932E-01
 -1      2851-4.62601E-04-2.85970E-02-4.51389E-01
 -1      2852-5.90186E-04-2.85970E-02-4.84395E-01
 -1      2853-4.59500E-04-1.88377E-02-4.68273E-01
 -1      2854-5.06234E-04-2.85757E-02-4.62715E-01
 -1      2855-5.21675E-04-1.87949E-02-4.84436E-01
 -1      2856-5.73521E-04-2.86509E-02-4.79986E-01
 -1      2857-4.79267E-04-2.86509E-02-4.55603E-01
 -1      2858-3.72827E-04-1.87968E-02-4.45926E-01
 -1      2859-4.17605E-04-1.88841E-02-4.57351E-01
 -1      2860-5.06812E-04-1.88825E-02-4.80432E-01
 -1      2861-5.31458E-04-2.86635E-02-4.69082E-01
 -1      2862-4.19161E-04-2.85763E-02-4.40189E-01
 -1      2863-3.29193E-04-1.87968E-02-4.34638E-01
 -1      2864-3.55173E-04-2.85774E-02-4.23634E-01
 -1      2865-2.88266E-04-1.88197E-02-4.24010E-01
 -1      2866-3.42387E-03 2.57136E-02-4.43062E-01
 -1      2867 1.09129E-02 2.65253E-02-2.40943E-01
 -1      2868-2.33881E-02-1.56146E-02-4.22578E-01
 -1      2869-7.65926E-03 1.64831E-02-4.06982E-01
 -1      2870-1.15731E-02 2.52339E-02-4.07013E-01
 -1      2871-7.09182E-03-1.72228E-02-3.22488E-01
 -1      2872-1.07572E-02-2.62099E-02-3.22482E-01
 -1      2873-2.88847E-02 5.24260E-04-3.14737E-01
 -1      2874-1.92499E-02 7.12759E-05-3.14788E-01
 -1      2875-1.66187E-02-5.71071E-03-1.09003E-01
 -1      2876 2.64984E-05-2.86221E-02-3.24822E-01
 -1      2877 9.50094E-05-1.88383E-02-3.24830E-01
 -1      2878-7.36346E-03-1.71090E-02-4.69640E-01
 -1      2879-1.10010E-02-2.61101E-02-4.54109E-01
 -1      2880-1.10402E-02-2.60920E-02-4.75663E-01
 -1      2881-7.39540E-03-1.71140E-02-4.83479E-01
 -1      2882-1.10299E-02-2.61212E-02-4.65372E-01
 -1      2883-1.10683E-02-2.61058E-02-4.86071E-01
 -1      2884-7.38253E-03-1.70829E-02-4.83388E-01
 -1      2885-1.10415E-02-2.60680E-02-4.80781E-01
 -1      2886-7.33096E-03-1.71298E-02-4.50688E-01
 -1      2887-7.33572E-03-1.71014E-02-4.58249E-01
 -1      2888-1.10165E-02-2.60787E-02-4.67185E-01
 -1      2889-7.35286E-03-1.71391E-02-4.59067E-01
 -1      2890-1.09956E-02-2.60879E-02-4.55801E-01
 -1      2891-7.35961E-03-1.70862E-02-4.72167E-01
 -1      2892-1.09883E-02-2.61396E-02-4.42681E-01
 -1      2893-7.37438E-03-1.71298E-02-4.70776E-01
 -1      2894-1.10096E-02-2.61308E-02-4.54180E-01
 -1      2895-7.31632E-03-1.71528E-02-4.39561E-01
 -1      2896 1.15733E-02-2.65880E-02-1.80122E-01
 -1      2897 7.70596E-03-1.78183E-02-1.95452E-01
 -1      2898 1.15889E-02-2.65781E-02-1.98927E-01
 -1      2899 7.68656E-03-1.78255E-02-1.74192E-01
 -1      2900 1.15641E-02-2.66005E-02-1.66307E-01
 -1      2901 1.15866E-02-2.65917E-02-1.91108E-01
 -1      2902 1.15580E-02-2.65856E-02-1.66708E-01
 -1      2903 7.69995E-03-1.78318E-02-1.84137E-01
 -1      2904 1.15775E-02-2.65986E-02-1.79686E-01
 -1      2905 7.71006E-03-1.78282E-02-1.95175E-01
 -1      2906 1.16003E-02-2.65870E-02-2.05974E-01
 -1      2907 7.71203E-03-1.78041E-02-2.07060E-01
 -1      2908 7.68412E-03-1.78386E-02-1.66410E-01
 -1      2909 7.71795E-03-1.78192E-02-2.06378E-01
 -1      2910 7.67799E-03-1.78177E-02-1.69341E-01
 -1      2911 1.15959E-02-2.65670E-02-2.10139E-01
 -1      2912 5.32435E-03 2.81966E-02-2.18132E-01
 -1      2913 2.90241E-02-1.74767E-03-4.60549E-01
 -1      2914 1.92026E-02-1.68773E-03-4.50074E-01
 -1      2915 1.92077E-02-1.81985E-03-4.71885E-01
 -1      2916 1.92729E-02-1.75118E-03-4.60553E-01
 -1      2917 2.89881E-02-1.64728E-03-4.43973E-01
 -1      2918 1.91323E-02-1.75118E-03-4.60545E-01
 -1      2919 2.89546E-02-1.71594E-03-4.55307E-01
 -1      2920 2.90729E-02-1.67350E-03-4.48308E-01
 -1      2921 1.92068E-02-1.75372E-03-4.60969E-01
 -1      2922 1.92711E-02-1.68245E-03-4.49205E-01
 -1      2923 2.89880E-02-1.84806E-03-4.77120E-01
 -1      2924 2.90823E-02-1.87088E-03-4.80895E-01
 -1      2925 2.90927E-02-1.73970E-03-4.59237E-01
 -1      2926 1.91339E-02-1.61733E-03-4.38446E-01
 -1      2927 2.90466E-02-1.81240E-03-4.71238E-01
 -1      2928 1.92369E-02-1.88713E-03-4.82994E-01
 -1      2929 1.91359E-02-1.86643E-03-4.79571E-01
 -1      2930 2.89554E-02-1.57891E-03-4.32685E-01
 -1      2931 1.91339E-02-1.54866E-03-4.27110E-01
 -1      2932 2.89554E-02-1.48934E-03-4.17898E-01
 -1      2933 1.91356E-02-1.46389E-03-4.13115E-01
 -1      2934-1.98765E-02-7.67914E-03-4.94648E-01
 -1      2935-1.37819E-02 1.16502E-02-3.17271E-01
 -1      2936-2.07608E-02 1.82140E-02-3.17304E-01
 -1      2937-1.23468E-05-1.72706E-02-1.06021E-01
 -1      2938-2.11586E-02 1.78193E-02-4.62509E-01
 -1      2939-1.41348E-02 1.12943E-02-4.47182E-01
 -1      2940-1.41951E-02 1.12385E-02-4.68433E-01
 -1      2941-2.11165E-02 1.78794E-02-4.43687E-01
 -1      2942-1.41363E-02 1.12354E-02-4.58563E-01
 -1      2943-2.11731E-02 1.77595E-02-4.76376E-01
 -1      2944-2.12183E-02 1.78047E-02-4.75868E-01
 -1      2945-2.11042E-02 1.78260E-02-4.51582E-01
 -1      2946-1.41341E-02 1.13554E-02-4.35506E-01
 -1      2947-2.11076E-02 1.79306E-02-4.32427E-01
 -1      2948-2.11269E-02 1.77868E-02-4.63022E-01
 -1      2949-1.42383E-02 1.12538E-02-4.73214E-01
 -1      2950-1.41047E-02 1.12641E-02-4.47532E-01
 -1      2951-1.41841E-02 1.11865E-02-4.76289E-01
 -1      2952-2.10566E-02 1.78618E-02-4.36359E-01
 -1      2953-1.40670E-02 1.13019E-02-4.33707E-01
 -1      2954-2.08785E-02 1.80964E-02-3.60416E-01
 -1      2955-1.38995E-02 1.15326E-02-3.60383E-01
 -1      2956-1.79929E-02 4.48851E-03-4.55077E-01
 -1      2957-2.69647E-02 7.92055E-03-4.65318E-01
 -1      2958-2.68950E-02 8.07202E-03-4.44009E-01
 -1      2959-1.80833E-02 4.38893E-03-4.71170E-01
 -1      2960-2.70077E-02 8.03208E-03-4.54034E-01
 -1      2961-1.80891E-02 4.48509E-03-4.59984E-01
 -1      2962-1.79718E-02 4.37856E-03-4.67197E-01
 -1      2963-2.70447E-02 7.95377E-03-4.65097E-01
 -1      2964-2.68522E-02 7.96055E-03-4.55292E-01
 -1      2965-2.68874E-02 7.88131E-03-4.66381E-01
 -1      2966-1.80440E-02 4.57183E-03-4.47537E-01
 -1      2967-1.79025E-02 4.58810E-03-4.38983E-01
 -1      2968-2.69319E-02 7.99723E-03-4.54647E-01
 -1      2969-2.69740E-02 8.11613E-03-4.42446E-01
 -1      2970-2.70379E-02 7.85715E-03-4.76296E-01
 -1      2971-1.79167E-02 4.44610E-03-4.56574E-01
 -1      2972-1.79824E-02 4.65928E-03-4.34233E-01
 -1      2973-2.68968E-02 8.16159E-03-4.33421E-01
 -1      2974-2.67986E-02 8.13391E-03-4.32130E-01
 -1      2975-1.78305E-02 4.64964E-03-4.28285E-01
 -1      2976 1.84881E-02 3.29110E-03-3.20003E-01
 -1      2977-2.92335E-02-7.32613E-03-3.31777E-01
 -1      2978-7.34644E-03 1.66096E-02-2.77612E-01
 -1      2979-1.12625E-02 2.53656E-02-2.77581E-01
 -1      2980-2.06614E-02-1.95145E-02-1.80720E-01
 -1      2981-1.36840E-02-1.29137E-02-1.70480E-01
 -1      2982-1.37432E-02-1.28497E-02-1.91822E-01
 -1      2983-1.37463E-02-1.29169E-02-1.80455E-01
 -1      2984-1.37167E-02-1.28846E-02-1.81167E-01
 -1      2985-2.05978E-02-1.95445E-02-1.64654E-01
 -1      2986-2.06496E-02-1.95718E-02-1.68567E-01
 -1      2987-2.06914E-02-1.94509E-02-1.97059E-01
 -1      2988-1.37135E-02-1.29481E-02-1.69369E-01
 -1      2989-2.06897E-02-1.95502E-02-1.79175E-01
 -1      2990-1.36282E-02-1.29066E-02-1.62318E-01
 -1      2991-1.37455E-02-1.27881E-02-2.03133E-01
 -1      2992-2.07211E-02-1.95011E-02-1.93182E-01
 -1      2993-2.07081E-02-1.94038E-02-2.08215E-01
 -1      2994-1.37776E-02-1.28818E-02-1.91954E-01
 -1      2995-9.50562E-03-1.62247E-02-3.07471E-01
 -1      2996 4.63022E-03-1.76103E-02-3.29490E-01
 -1      2997-1.28034E-02 2.28798E-02-1.97628E-01
 -1      2998 1.21560E-02-1.29022E-03-5.17419E-01
 -1      2999 2.15846E-02 8.95996E-03-1.25741E-01
 -1      3000 1.28220E-02-1.60173E-02-2.04719E-01
 -1      3001-1.33070E-02-2.46520E-02-1.97286E-01
 -1      3002 2.54583E-02 6.85653E-03-1.91288E-01
 -1      3003 2.71811E-02-6.90407E-03-3.22107E-01
 -1      3004 1.31163E-02 6.35195E-03-5.06610E-01
 -1      3005 5.07233E-03 2.36512E-02-4.59961E-01
 -1      3006-2.88902E-02-2.82943E-03-3.87486E-01
 -1      3007-1.52996E-02-6.24147E-03-1.16564E-01
 -1      3008-1.04591E-03-2.72721E-02-1.77756E-01
 -1      3009 1.10615E-03 2.81653E-02-2.34285E-01
 -1      3010 8.17316E-04 1.85421E-02-2.34318E-01
 -1      3011-1.40880E-02-1.25097E-02-3.10338E-01
 -1      3012-2.10654E-02-1.91105E-02-3.20578E-01
 -1      3013-2.10015E-02-1.91681E-02-2.99562E-01
 -1      3014-2.10686E-02-1.91728E-02-3.10073E-01
 -1      3015-1.41180E-02-1.24461E-02-3.26676E-01
 -1      3016-1.40592E-02-1.25729E-02-2.94277E-01
 -1      3017-2.10063E-02-1.92304E-02-2.89342E-01
 -1      3018-1.41069E-02-1.25564E-02-3.05244E-01
 -1      3019-1.40056E-02-1.25390E-02-2.91217E-01
 -1      3020-2.10109E-02-1.91143E-02-3.10688E-01
 -1      3021-2.10367E-02-1.91465E-02-3.09343E-01
 -1      3022-1.40424E-02-1.26201E-02-2.83072E-01
 -1      3023-1.40381E-02-1.24999E-02-3.03635E-01
 -1      3024-1.41390E-02-1.25163E-02-3.17782E-01
 -1      3025-2.10999E-02-1.91400E-02-3.21172E-01
 -1      3026-2.09760E-02-1.92640E-02-2.78256E-01
 -1      3027-1.39993E-02-1.26610E-02-2.68536E-01
 -1      3028-2.09733E-02-1.91355E-02-3.00581E-01
 -1      3029-1.40709E-02-1.24614E-02-3.16003E-01
 -1      3030-2.10662E-02-1.90456E-02-3.32200E-01
 -1      3031-2.09359E-02-1.93040E-02-2.64398E-01
 -1      3032-1.41347E-02-1.23990E-02-3.37832E-01
 -1      3033-2.09434E-02-1.91791E-02-2.87786E-01
 -1      3034-2.10983E-02-1.90136E-02-3.43282E-01
 -1      3035-1.41764E-02-1.23573E-02-3.52288E-01
 -1      3036-2.11458E-02-1.89996E-02-3.53807E-01
 -1      3037-1.42118E-02-1.23838E-02-3.53568E-01
 -1      3038-2.11833E-02-1.90390E-02-3.53159E-01
 -1      3039-1.42585E-02-1.24048E-02-3.57736E-01
 -1      3040-2.75733E-02-3.72680E-03-4.21364E-01
 -1      3041-1.92515E-02-3.48737E-04-1.73901E-01
 -1      3042-2.88831E-02 1.34875E-04-1.84174E-01
 -1      3043-2.88855E-02 7.10966E-05-1.62746E-01
 -1      3044-2.89170E-02 1.04244E-04-1.73366E-01
 -1      3045-2.88851E-02 1.03017E-04-1.73458E-01
 -1      3046-1.92341E-02-3.00274E-04-1.90429E-01
 -1      3047-1.92689E-02-3.97199E-04-1.57374E-01
 -1      3048-1.92751E-02-3.12935E-04-1.85537E-01
 -1      3049-1.92847E-02-3.44889E-04-1.74669E-01
 -1      3050-1.92280E-02-3.84539E-04-1.62266E-01
 -1      3051-2.89162E-02 1.68862E-04-1.95050E-01
 -1      3052-2.88499E-02 1.68862E-04-1.96095E-01
 -1      3053-2.88513E-02 8.66100E-05-1.68488E-01
 -1      3054-2.89177E-02 4.73313E-05-1.54267E-01
 -1      3055-2.89153E-02 1.36538E-04-1.84222E-01
 -1      3056-1.92847E-02-2.74141E-04-1.98396E-01
 -1      3057-1.92184E-02-2.67273E-04-2.01745E-01
 -1      3058-1.92184E-02-3.52584E-04-1.73134E-01
 -1      3059-2.88554E-02 4.60822E-05-1.54832E-01
 -1      3060-2.88499E-02 2.02010E-04-2.07212E-01
 -1      3061-1.92350E-02-4.16946E-04-1.51287E-01
 -1      3062-1.92192E-02-2.18664E-04-2.18034E-01
 -1      3063-2.88673E-02 2.33101E-04-2.17365E-01
 -1      3064-9.46933E-03 2.47626E-02-4.31293E-01
 -1      3065 1.29774E-03 2.81649E-02-4.61629E-01
 -1      3066 1.00026E-03 1.85425E-02-4.51366E-01
 -1      3067 1.00891E-03 1.85330E-02-4.61970E-01
 -1      3068 1.02006E-03 1.85450E-02-4.74775E-01
 -1      3069 1.00916E-03 1.85519E-02-4.61593E-01
 -1      3070 1.28406E-03 2.81600E-02-4.45566E-01
 -1      3071 1.31142E-03 2.81599E-02-4.78041E-01
 -1      3072 1.29318E-03 2.81553E-02-4.56556E-01
 -1      3073 1.30785E-03 2.81715E-02-4.73387E-01
 -1      3074 1.00975E-03 1.85424E-02-4.62631E-01
 -1      3075 1.28763E-03 2.81715E-02-4.49396E-01
 -1      3076 1.02728E-03 1.85379E-02-4.83596E-01
 -1      3077 1.30295E-03 2.81551E-02-4.68154E-01
 -1      3078 9.90661E-04 1.85332E-02-4.40312E-01
 -1      3079 1.29883E-03 2.81742E-02-4.62585E-01
 -1      3080 9.99795E-04 1.85519E-02-4.50483E-01
 -1      3081 1.01802E-03 1.85357E-02-4.72684E-01
 -1      3082 1.27474E-03 2.81555E-02-4.34667E-01
 -1      3083 9.81301E-04 1.85332E-02-4.29206E-01
 -1      3084 1.26101E-03 2.81557E-02-4.18372E-01
 -1      3085 9.72523E-04 1.85381E-02-4.18614E-01
 -1      3086 2.28298E-02 7.02060E-03-1.35465E-01
 -1      3087 5.72126E-03 1.77148E-02-1.72903E-01
 -1      3088-4.35070E-04-2.56712E-02-1.52076E-01
 -1      3089 2.69771E-02-4.65024E-03-3.04191E-01
 -1      3090-2.23398E-02 1.57076E-02-2.13473E-01
 -1      3091 9.87043E-03 2.54381E-02-1.62025E-01
 -1      3092-2.14874E-02-1.86885E-02-4.66677E-01
 -1      3093-1.44952E-02-1.21025E-02-4.51317E-01
 -1      3094-1.45592E-02-1.20433E-02-4.72620E-01
 -1      3095-2.14236E-02-1.87331E-02-4.47993E-01
 -1      3096-2.15508E-02-1.86731E-02-4.80125E-01
 -1      3097-1.44320E-02-1.21033E-02-4.40488E-01
 -1      3098-2.15065E-02-1.86287E-02-4.80484E-01
 -1      3099-1.45709E-02-1.19948E-02-4.83201E-01
 -1      3100-1.46085E-02-1.20296E-02-4.83390E-01
 -1      3101-1.44968E-02-1.20400E-02-4.62646E-01
 -1      3102-2.14802E-02-1.87461E-02-4.55254E-01
 -1      3103-2.14326E-02-1.86781E-02-4.59261E-01
 -1      3104-2.13626E-02-1.87492E-02-4.34813E-01
 -1      3105-1.45576E-02-1.21057E-02-4.61292E-01
 -1      3106-1.43992E-02-1.21345E-02-4.29419E-01
 -1      3107-1.45247E-02-1.21369E-02-4.50205E-01
 -1      3108-2.15218E-02-1.87220E-02-4.66555E-01
 -1      3109-2.13158E-02-1.87976E-02-4.18324E-01
 -1      3110-2.14422E-02-1.87976E-02-4.39696E-01
 -1      3111-1.43844E-02-1.21813E-02-4.18615E-01
 -1      3112-1.44768E-02-1.21481E-02-4.40125E-01
 -1      3113-4.72757E-03-1.25686E-02-5.33257E-01
 -1      3114 1.67974E-02 1.30692E-02-4.82383E-01
 -1      3115-5.63592E-04-2.60220E-02-4.50485E-01
 -1      3116-2.64992E-02-1.05458E-02-3.17987E-01
 -1      3117-1.75349E-02-7.06980E-03-3.17962E-01
 -1      3118 2.60682E-03-1.22831E-02-5.23289E-01
 -1      3119 1.81498E-02-7.59389E-03-3.16977E-01
 -1      3120 2.71732E-02-1.13071E-02-3.16979E-01
 -1      3121 1.95728E-02 1.25849E-02-4.64065E-01
 -1      3122-1.66146E-02-7.75803E-03-1.15758E-01
 -1      3123-1.14127E-02 2.45621E-02-2.16716E-01
 -1      3124 2.06218E-02-1.73029E-02-4.40457E-01
 -1      3125-3.59566E-03 1.76719E-02-2.93968E-01
 -1      3126 2.47204E-02-2.03572E-03-1.42098E-01
 -1      3127 2.74288E-02-1.06830E-02-1.74351E-01
 -1      3128 1.84291E-02-6.92643E-03-1.63949E-01
 -1      3129 1.83862E-02-7.01953E-03-1.85605E-01
 -1      3130 1.84606E-02-6.99272E-03-1.74378E-01
 -1      3131 1.83599E-02-6.95102E-03-1.74324E-01
 -1      3132 2.74328E-02-1.06005E-02-1.57880E-01
 -1      3133 2.73885E-02-1.06397E-02-1.69124E-01
 -1      3134 2.74248E-02-1.07656E-02-1.90822E-01
 -1      3135 2.74858E-02-1.06444E-02-1.62212E-01
 -1      3136 2.74692E-02-1.07264E-02-1.79578E-01
 -1      3137 1.84065E-02-6.97244E-03-1.74766E-01
 -1      3138 1.84797E-02-6.94298E-03-1.63109E-01
 -1      3139 2.73719E-02-1.07217E-02-1.86490E-01
 -1      3140 1.83963E-02-6.86911E-03-1.55375E-01
 -1      3141 1.83204E-02-7.04980E-03-1.96827E-01
 -1      3142 2.73338E-02-1.07733E-02-1.99656E-01
 -1      3143 1.83397E-02-6.99811E-03-1.85163E-01
 -1      3144 1.84197E-02-7.08808E-03-1.96320E-01
 -1      3145 2.74279E-02-1.08242E-02-2.02040E-01
 -1      3146 1.83993E-02-7.13725E-03-2.07576E-01
 -1      3147 2.73968E-02-1.08958E-02-2.18547E-01
 -1      3148 1.83759E-02-7.19719E-03-2.21184E-01
 -1      3149 9.88968E-03-2.68786E-02-3.25281E-01
 -1      3150-6.00586E-03 1.56584E-02-5.08192E-01
 -1      3151-1.90356E-02 1.64784E-03-1.74722E-01
 -1      3152 2.69476E-02 1.02333E-02-1.67856E-01
 -1      3153 1.79234E-02 6.43716E-03-1.83518E-01
 -1      3154 1.79316E-02 6.41920E-03-1.61771E-01
 -1      3155 2.69453E-02 1.02187E-02-1.54004E-01
 -1      3156 2.69596E-02 1.02246E-02-1.53887E-01
 -1      3157 2.69381E-02 1.02482E-02-1.87010E-01
 -1      3158 1.79183E-02 6.42394E-03-1.72292E-01
 -1      3159 1.79299E-02 6.40802E-03-1.51179E-01
 -1      3160 2.69511E-02 1.02460E-02-1.79233E-01
 -1      3161 1.79098E-02 6.44296E-03-1.95183E-01
 -1      3162 1.79437E-02 6.41622E-03-1.53593E-01
 -1      3163 1.79367E-02 6.43242E-03-1.72996E-01
 -1      3164 2.69339E-02 1.02381E-02-1.78666E-01
 -1      3165 1.79138E-02 6.43347E-03-1.83883E-01
 -1      3166 2.69267E-02 1.02569E-02-2.00689E-01
 -1      3167 2.69381E-02 1.02283E-02-1.66855E-01
 -1      3168 1.79325E-02 6.44181E-03-1.84310E-01
 -1      3169 2.69577E-02 1.02373E-02-1.67617E-01
 -1      3170 2.69466E-02 1.02591E-02-1.94439E-01
 -1      3171 1.79277E-02 6.45340E-03-1.98111E-01
 -1      3172-1.46544E-02-2.06351E-02-4.64589E-01
 -1      3173-2.58702E-02 9.95153E-03-3.46831E-01
 -1      3174 7.84393E-03-1.09154E-02-5.17926E-01
 -1      3175 2.00775E-02 1.89328E-02-1.98441E-01
 -1      3176-1.30581E-02-2.41869E-02-4.19444E-01
 -1      3177-1.49534E-02 2.19862E-02-3.25836E-01
 -1      3178-5.49081E-03-1.45396E-02-9.88606E-02
 -1      3179 2.45653E-02-9.63519E-03-4.19084E-01
 -1      3180-4.10217E-03-1.77268E-02-1.51920E-01
 -1      3181 4.76849E-03-1.91158E-02-1.64396E-01
 -1      3182 1.07029E-02-1.55552E-02-2.94947E-01
 -1      3183-1.78353E-02 4.88003E-03-4.01053E-01
 -1      3184-2.67686E-02 8.38272E-03-4.01074E-01
 -1      3185 2.11380E-02 1.89345E-02-2.88778E-01
 -1      3186 8.95774E-03 2.69203E-02-2.22760E-01
 -1      3187-2.48520E-02-7.70487E-03-1.40413E-01
 -1      3188 2.30463E-02-1.12708E-02-4.45861E-01
 -1      3189 4.87369E-03 1.13910E-02-5.22354E-01
 -1      3190 2.61031E-02-9.88512E-03-1.96070E-01
 -1      3191 2.02484E-02 1.72542E-02-1.72453E-01
 -1      3192-8.88930E-03 8.44448E-03-5.13733E-01
 -1      3193-1.92113E-02 1.86662E-02-1.69793E-01
 -1      3194-9.49134E-04-2.18759E-02-4.83328E-01
 -1      3195 2.90275E-02-1.14532E-03-3.61106E-01
 -1      3196 1.91992E-02-1.14884E-03-3.61106E-01
 -1      3197-8.43638E-03-1.59218E-02-1.76475E-01
 -1      3198-1.36894E-02 3.99918E-04-5.13776E-01
 -1      3199-2.53747E-02-2.04627E-03-4.56041E-01
 -1      3200 2.66314E-02-2.51895E-03-1.84427E-01
 -1      3201-5.72642E-03 2.58229E-02-1.90551E-01
 -1      3202-2.08975E-02-3.33888E-03-4.83665E-01
 -1      3203 1.34827E-02 1.30581E-02-1.58148E-01
 -1      3204 2.04180E-02 1.99090E-02-1.58148E-01
 -1      3205 5.27976E-03-1.35812E-02-5.09045E-01
 -1      3206-1.17036E-02 2.51814E-02-4.60914E-01
 -1      3207-7.81323E-03 1.64178E-02-4.71138E-01
 -1      3208-7.76113E-03 1.64371E-02-4.49874E-01
 -1      3209-7.79990E-03 1.64553E-02-4.60599E-01
 -1      3210-7.77730E-03 1.64007E-02-4.61230E-01
 -1      3211-1.17367E-02 2.51512E-02-4.77251E-01
 -1      3212-1.17047E-02 2.51493E-02-4.66338E-01
 -1      3213-1.16704E-02 2.52115E-02-4.44577E-01
 -1      3214-7.78693E-03 1.64268E-02-4.60524E-01
 -1      3215-1.16669E-02 2.51744E-02-4.49184E-01
 -1      3216-1.17402E-02 2.51884E-02-4.72644E-01
 -1      3217-1.17177E-02 2.52067E-02-4.61890E-01
 -1      3218-7.74768E-03 1.64762E-02-4.39039E-01
 -1      3219-7.72428E-03 1.64235E-02-4.39106E-01
 -1      3220-1.16325E-02 2.51796E-02-4.36325E-01
 -1      3221-7.75149E-03 1.64110E-02-4.50580E-01
 -1      3222-7.82630E-03 1.64436E-02-4.71681E-01
 -1      3223-7.82264E-03 1.63833E-02-4.79842E-01
 -1      3224-1.16491E-02 2.52351E-02-4.33417E-01
 -1      3225-7.72103E-03 1.64872E-02-4.27976E-01
 -1      3226-1.16097E-02 2.52507E-02-4.17200E-01
 -1      3227-7.69025E-03 1.64836E-02-4.17760E-01
 -1      3228-3.03367E-03 1.81791E-02-3.68089E-01
 -1      3229 6.59921E-03-2.77132E-02-3.79763E-01
 -1      3230-9.30893E-03 2.34693E-02-1.54517E-01
 -1      3231 1.72286E-02 8.26900E-03-1.60276E-01
 -1      3232-2.68689E-02-8.31009E-03-1.94099E-01
 -1      3233 1.63798E-02 6.11019E-03-1.06967E-01
 -1      3234 2.78167E-02 4.00313E-03-3.23317E-01
 -1      3235-1.02158E-02 2.60019E-02-3.11149E-01
 -1      3236-1.15100E-02-2.33690E-02-1.58466E-01
 -1      3237-2.60943E-02 1.00218E-02-1.74210E-01
 -1      3238-1.71837E-02 6.44190E-03-1.84451E-01
 -1      3239-1.71141E-02 6.59337E-03-1.63142E-01
 -1      3240-1.72350E-02 6.54975E-03-1.73994E-01
 -1      3241-1.70712E-02 6.48190E-03-1.74426E-01
 -1      3242-2.61008E-02 9.88746E-03-1.90524E-01
 -1      3243-2.60878E-02 1.01561E-02-1.57895E-01
 -1      3244-2.61600E-02 1.00923E-02-1.68876E-01
 -1      3245-2.61870E-02 9.95895E-03-1.86031E-01
 -1      3246-2.60287E-02 9.95130E-03-1.79544E-01
 -1      3247-1.71377E-02 6.32675E-03-1.96026E-01
 -1      3248-1.71470E-02 6.51675E-03-1.73812E-01
 -1      3249-1.72977E-02 6.39300E-03-1.95604E-01
 -1      3250-1.71752E-02 6.68227E-03-1.55403E-01
 -1      3251-2.59670E-02 1.01372E-02-1.54500E-01
 -1      3252-2.60369E-02 1.00864E-02-1.63830E-01
 -1      3253-2.60958E-02 9.79207E-03-2.01658E-01
 -1      3254-1.72633E-02 6.47017E-03-1.84802E-01
 -1      3255-2.62489E-02 9.87490E-03-1.98941E-01
 -1      3256-1.71709E-02 6.24675E-03-2.07109E-01
 -1      3257-1.70212E-02 6.59822E-03-1.58226E-01
 -1      3258-2.61464E-02 9.67558E-03-2.17906E-01
 -1      3259-1.72439E-02 6.18908E-03-2.17394E-01
 -1      3260 2.49944E-02-1.07781E-02-1.63759E-01
 -1      3261 2.61719E-02-8.13970E-03-2.58745E-01
 -1      3262-9.92854E-03 2.55357E-02-3.82568E-01
 -1      3263-2.10919E-02-1.87107E-02-4.04591E-01
 -1      3264 2.68161E-02 1.09651E-03-1.96985E-01
 -1      3265 2.40239E-02-1.58947E-02-3.37971E-01
 -1      3266-1.84034E-02-1.83848E-02-4.58520E-01
 -1      3267 7.06609E-03 1.26955E-02-5.16747E-01
 -1      3268-6.59367E-03-2.43614E-02-1.52100E-01
 -1      3269 6.84726E-03 2.84240E-02-3.85265E-01
 -1      3270 1.26051E-02-1.59595E-02-1.50754E-01
 -1      3271 1.03497E-03 2.85351E-02-2.10292E-01
 -1      3272-1.96965E-02-4.04490E-03-1.76808E-01
 -1      3273-2.04409E-02-1.81136E-02-4.35072E-01
 -1      3274 1.32113E-03 2.50015E-02-4.54466E-01
 -1      3275-2.57297E-02 6.46376E-03-4.24172E-01
 -1      3276-2.72459E-02-1.05428E-02-2.05337E-01
 -1      3277-1.13662E-02 1.36567E-02-1.52198E-01
 -1      3278 1.79272E-02 2.23509E-02-3.45768E-01
 -1      3279-2.50784E-02-1.07173E-02-1.51316E-01
 -1      3280-2.47004E-02-1.25875E-02-1.75103E-01
 -1      3281-1.62680E-02-8.94373E-03-3.24112E-01
 -1      3282 2.65711E-02 3.93035E-03-2.10006E-01
 -1      3283-1.70448E-02-2.24905E-03-1.05856E-01
 -1      3284-2.76174E-02-1.83829E-03-1.78533E-01
 -1      3285 9.07610E-03-2.12481E-02-4.80143E-01
 -1      3286 2.68659E-02 1.04320E-02-4.04362E-01
 -1      3287 1.78461E-02 6.62232E-03-4.04370E-01
 -1      3288-2.03476E-02 1.86258E-02-1.66142E-01
 -1      3289-1.33701E-02 1.20635E-02-1.66091E-01
 -1      3290 1.84477E-02-1.82577E-02-1.57566E-01
 -1      3291 8.46004E-03-2.65547E-02-4.22322E-01
 -1      3292-1.89055E-03 2.49919E-02-1.50376E-01
 -1      3293 3.60430E-03-1.97275E-02-1.98892E-01
 -1      3294-2.65904E-02-1.03280E-02-4.58579E-01
 -1      3295-1.76310E-02-6.83540E-03-4.68833E-01
 -1      3296-1.76186E-02-6.86904E-03-4.47463E-01
 -1      3297-1.76068E-02-6.84400E-03-4.58837E-01
 -1      3298-1.76420E-02-6.85860E-03-4.58320E-01
 -1      3299-2.66099E-02-1.03065E-02-4.74669E-01
 -1      3300-2.66111E-02-1.03272E-02-4.63450E-01
 -1      3301-2.65710E-02-1.03494E-02-4.42488E-01
 -1      3302-2.65950E-02-1.03516E-02-4.46414E-01
 -1      3303-2.65697E-02-1.03287E-02-4.53707E-01
 -1      3304-2.65859E-02-1.03043E-02-4.70743E-01
 -1      3305-1.76231E-02-6.85161E-03-4.58132E-01
 -1      3306-1.76144E-02-6.82695E-03-4.69939E-01
 -1      3307-1.76354E-02-6.87527E-03-4.47631E-01
 -1      3308-1.75933E-02-6.87773E-03-4.37200E-01
 -1      3309-1.76533E-02-6.82932E-03-4.77012E-01
 -1      3310-2.65557E-02-1.03631E-02-4.31560E-01
 -1      3311-1.75862E-02-6.89495E-03-4.26103E-01
 -1      3312-2.65464E-02-1.03856E-02-4.17086E-01
 -1      3313-1.75778E-02-6.91638E-03-4.12398E-01
 -1      3314-1.03090E-02 1.48189E-02-3.03969E-01
 -1      3315 1.19375E-02 2.56761E-02-2.74710E-01
 -1      3316 8.00937E-03 1.67490E-02-2.74734E-01
 -1      3317-1.78991E-03 2.83680E-02-2.50935E-01
 -1      3318-2.97343E-03-2.69797E-02-1.90068E-01
 -1      3319 2.05720E-02 2.01359E-02-2.63104E-01
 -1      3320 2.42754E-02 8.15470E-03-4.32060E-01
 -1      3321 2.31444E-02 4.65330E-03-4.56667E-01
 -1      3322 1.91714E-02 5.43675E-03-4.81517E-01
 -1      3323-1.98921E-02-2.60368E-03-2.09114E-01
 -1      3324-1.16157E-04 1.16013E-02-5.14726E-01
 -1      3325 2.61983E-02-9.57944E-03-1.72283E-01
 -1      3326-1.44881E-02 4.80555E-04-5.13847E-01
 -1      3327 2.50653E-02 8.01894E-03-3.93688E-01
 -1      3328-2.26274E-02 1.57456E-02-3.04408E-01
 -1      3329 1.94594E-02-7.41581E-03-4.86779E-01
 -1      3330-4.12244E-03-1.92340E-02-2.25727E-01
 -1      3331-1.60572E-03 1.63307E-02-1.15599E-01
 -1      3332 2.19726E-03-2.32385E-02-1.16512E-01
 -1      3333 2.30457E-02-4.43521E-03-4.58619E-01
 -1      3334 2.22130E-02-1.68917E-03-4.76027E-01
 -1      3335-1.05155E-02 5.52903E-03-5.14094E-01
 -1      3336-5.09591E-03-1.84989E-02-2.05283E-01
 -1      3337 1.38205E-03 1.67526E-02-1.08395E-01
 -1      3338 1.32115E-03-2.72957E-02-1.81706E-01
 -1      3339-2.16941E-03 1.83669E-02-1.81156E-01
 -1      3340 8.73858E-05-2.77583E-02-1.99410E-01
 -1      3341 4.47028E-03-2.75010E-02-2.05667E-01
 -1      3342 2.65051E-03-2.77660E-02-2.08288E-01
 -1      3343-8.32941E-03 2.19643E-02-1.29095E-01
 -1      3344 7.11323E-04-2.82947E-02-2.27677E-01
 -1      3345-1.67424E-02-5.32033E-03-1.51749E-01
 -1      3346-1.87525E-02-5.53138E-03-2.15389E-01
 -1      3347 1.34020E-02-1.44284E-02-3.66897E-01
 -1      3348 2.69127E-02-1.19291E-02-4.59605E-01
 -1      3349 1.78753E-02-8.26335E-03-4.70006E-01
 -1      3350 1.79181E-02-8.17026E-03-4.48351E-01
 -1      3351 1.78438E-02-8.19707E-03-4.59578E-01
 -1      3352 2.69087E-02-1.20116E-02-4.76075E-01
 -1      3353 1.79445E-02-8.23876E-03-4.59632E-01
 -1      3354 1.79029E-02-8.33237E-03-4.81288E-01
 -1      3355 1.78979E-02-8.21734E-03-4.59190E-01
 -1      3356 2.68557E-02-1.19677E-02-4.71744E-01
 -1      3357 2.69167E-02-1.18465E-02-4.43134E-01
 -1      3358 2.69910E-02-1.18581E-02-4.39428E-01
 -1      3359 2.69530E-02-1.19724E-02-4.64832E-01
 -1      3360 2.68612E-02-1.19144E-02-4.60885E-01
 -1      3361 1.78854E-02-8.10352E-03-4.37932E-01
 -1      3362 1.78246E-02-8.24680E-03-4.70846E-01
 -1      3363 2.69121E-02-1.17885E-02-4.32150E-01
 -1      3364 1.79045E-02-8.05386E-03-4.26683E-01
 -1      3365 2.69711E-02-1.19149E-02-4.52127E-01
 -1      3366 1.79647E-02-8.19168E-03-4.48792E-01
 -1      3367 2.69390E-02-1.17265E-02-4.17872E-01
 -1      3368 1.79281E-02-7.99342E-03-4.12961E-01
 -1      3369 1.79880E-02-8.13021E-03-4.34890E-01
 -1      3370 1.11952E-02 1.43314E-02-2.99865E-01
 -1      3371 1.96736E-02-2.10721E-02-4.03443E-01
 -1      3372 2.09040E-02-5.11045E-03-4.73573E-01
 -1      3373-9.61183E-03-1.70857E-02-2.37250E-01
 -1      3374-2.57706E-02 9.14197E-03-1.98864E-01
 -1      3375 2.40064E-02 9.71419E-03-1.51021E-01
 -1      3376-1.19210E-02-2.63336E-02-2.35823E-01
 -1      3377 2.42864E-02-1.53016E-02-2.63906E-01
 -1      3378-2.03430E-02 4.28350E-03-4.88193E-01
 -1      3379-2.45747E-02 1.11729E-02-4.24592E-01
 -1      3380-2.49014E-02-1.26753E-02-4.29671E-01
 -1      3381 1.20394E-02-1.07783E-02-1.06586E-01
 -1      3382 2.02902E-02 1.98099E-02-3.57538E-01
 -1      3383-2.45833E-02 9.50118E-03-1.65447E-01
 -1      3384-2.23066E-02-1.06850E-02-4.66793E-01
 -1      3385-1.67261E-02 1.32794E-02-4.83484E-01
 -1      3386 2.44413E-02 2.04253E-03-1.42627E-01
 -1      3387-2.56696E-02 2.03829E-03-4.52151E-01
 -1      3388-1.80507E-02 1.84941E-02-4.25676E-01
 -1      3389 2.48235E-03-2.81791E-02-2.89566E-01
 -1      3390 7.74537E-03-1.78025E-02-2.39119E-01
 -1      3391 1.16260E-02-2.65656E-02-2.39145E-01
 -1      3392-2.55979E-02-1.45880E-02-3.38658E-01
 -1      3393-1.90244E-02-2.02685E-02-2.09865E-01
 -1      3394-2.41455E-02 5.97580E-03-4.50193E-01
 -1      3395-8.06177E-03-2.41808E-02-1.56334E-01
 -1      3396 1.26361E-02-1.15751E-02-1.13092E-01
 -1      3397 1.34847E-02-1.22265E-02-1.25548E-01
 -1      3398-4.47778E-03-1.82509E-02-3.29342E-01
 -1      3399 1.44844E-02 2.43226E-02-3.76480E-01
 -1      3400-5.45285E-03 2.12347E-02-4.84816E-01
 -1      3401 1.72844E-02 8.52358E-03-3.00192E-01
 -1      3402 7.11094E-03-2.74493E-02-2.87688E-01
 -1      3403-1.52112E-02-1.25980E-02-1.53933E-01
 -1      3404-1.50135E-02 5.18053E-03-1.02796E-01
 -1      3405 1.26204E-02-1.14431E-02-5.02252E-01
 -1      3406 1.64150E-02-1.03665E-02-3.23115E-01
 -1      3407-1.70392E-02 2.06663E-02-3.90590E-01
 -1      3408-1.83136E-02 4.99296E-03-1.52563E-01
 -1      3409-1.75054E-02-7.13622E-03-2.74724E-01
 -1      3410-2.64731E-02-1.06136E-02-2.74699E-01
 -1      3411-2.59936E-02-1.22076E-02-2.04722E-01
 -1      3412-1.73650E-02-1.40846E-03-1.14931E-01
 -1      3413-1.16749E-02-2.58755E-02-2.05719E-01
 -1      3414 1.87644E-02 4.57966E-03-2.13231E-01
 -1      3415-7.59228E-03-2.68331E-02-2.02360E-01
 -1      3416 1.02026E-02 1.67539E-02-1.97850E-01
 -1      3417-9.28773E-03-2.65754E-02-2.05510E-01
 -1      3418 2.26006E-02 1.32362E-02-4.28922E-01
 -1      3419 2.57616E-02-2.23948E-03-4.36374E-01
 -1      3420 2.23604E-02-9.28924E-03-1.27184E-01
 -1      3421 1.39463E-02-2.39560E-02-1.97750E-01
 -1      3422 4.89281E-04 2.75324E-02-1.74387E-01
 -1      3423-1.98574E-02 1.91488E-02-2.20695E-01
 -1      3424-1.20124E-02-2.47847E-02-1.81972E-01
 -1      3425-1.75846E-02 2.06954E-02-2.25697E-01
 -1      3426 1.55622E-02 1.00894E-02-3.44341E-01
 -1      3427-1.63723E-02-1.05041E-02-4.29623E-01
 -1      3428-2.43239E-02-1.18716E-02-1.48265E-01
 -1      3429 2.72600E-02 3.16680E-03-2.80134E-01
 -1      3430 9.84949E-03 9.58156E-03-5.14322E-01
 -1      3431-8.32778E-03-9.97081E-03-5.26509E-01
 -1      3432-1.66031E-02-1.39074E-04-1.19336E-01
 -1      3433-1.78067E-02 1.13911E-03-1.46384E-01
 -1      3434-2.26653E-02 1.04052E-02-1.48084E-01
 -1      3435 8.60313E-03-1.55117E-02-5.06736E-01
 -1      3436-2.75550E-02 5.68155E-03-2.46974E-01
 -1      3437 1.90286E-02-5.04209E-03-4.27306E-01
 -1      3438-1.97838E-02 1.87729E-02-1.95166E-01
 -1      3439 1.90348E-02-2.66891E-03-1.62564E-01
 -1      3440 6.25634E-03-1.86608E-02-4.89491E-01
 -1      3441-2.10776E-02 1.79496E-02-2.19925E-01
 -1      3442 2.53306E-02-1.19452E-02-2.04044E-01
 -1      3443 2.70127E-02-2.35869E-03-2.20764E-01
 -1      3444-1.95129E-02-2.50938E-03-1.76938E-01
 -1      3445 1.04905E-02 5.55481E-03-5.12224E-01
 -1      3446 2.61182E-02-9.08347E-03-2.27864E-01
 -1      3447-7.45764E-04 2.72235E-02-4.12767E-01
 -1      3448 1.88587E-02 4.10680E-03-1.73682E-01
 -1      3449-1.23509E-02 2.52187E-02-3.56101E-01
 -1      3450 1.69581E-02-2.23607E-02-4.26246E-01
 -1      3451 9.00102E-03 2.57057E-02-4.30098E-01
 -1      3452-2.63743E-02-9.04985E-03-4.23280E-01
 -1      3453-9.32764E-03 1.76334E-02-4.91156E-01
 -1      3454-1.58276E-02 1.93000E-02-1.52856E-01
 -1      3455 1.26523E-02-1.44172E-02-1.52052E-01
 -1      3456 4.94431E-03-1.86440E-02-2.73570E-01
 -1      3457-2.52395E-02 1.10456E-02-2.18794E-01
 -1      3458 1.28140E-02 2.56064E-02-2.23854E-01
 -1      3459-1.41531E-02 4.22242E-03-5.06410E-01
 -1      3460 8.62921E-03 2.09089E-02-1.16570E-01
 -1      3461-1.09922E-02 2.32004E-02-1.73697E-01
 -1      3462-6.64575E-03 2.68950E-02-2.58027E-01
 -1      3463-1.03431E-02 2.57083E-02-2.74180E-01
 -1      3464-1.69067E-02-9.87150E-03-1.41578E-01
 -1      3465-2.01087E-02 1.62224E-02-1.51255E-01
 -1      3466 1.32220E-02 2.15242E-02-4.49345E-01
 -1      3467 2.15476E-02-1.11298E-02-1.28888E-01
 -1      3468-1.46010E-02 2.09861E-02-4.49939E-01
 -1      3469 1.91938E-02 1.02639E-03-2.13834E-01
 -1      3470 1.05720E-02-9.11901E-03-5.10076E-01
 -1      3471 1.13291E-02-1.54862E-02-3.30190E-01
 -1      3472 4.23575E-03 1.81434E-02-3.00885E-01
 -1      3473 1.24409E-02-2.57409E-02-4.06544E-01
 -1      3474 2.62067E-02 9.86439E-03-2.60575E-01
 -1      3475-1.55055E-02-1.14382E-02-1.82257E-01
 -1      3476 2.71752E-02 5.79934E-03-2.78089E-01
 -1      3477-5.09608E-03 2.49294E-02-1.58223E-01
 -1      3478 1.24072E-02 2.42239E-02-1.87096E-01
 -1      3479 2.26510E-02-1.02644E-02-1.43122E-01
 -1      3480 2.27838E-02 1.10909E-02-4.44832E-01
 -1      3481-7.66909E-03 2.49581E-02-1.75953E-01
 -1      3482 1.75629E-02-9.53523E-03-1.54180E-01
 -1      3483-2.35502E-02 6.39252E-03-1.47838E-01
 -1      3484-8.00482E-03 1.03584E-02-5.18317E-01
 -1      3485-1.97925E-02 1.71722E-02-1.63778E-01
 -1      3486 1.21449E-02 8.23889E-04-5.13478E-01
 -1      3487 1.56074E-02-1.21486E-02-1.56940E-01
 -1      3488 8.79560E-03 2.30806E-02-4.56860E-01
 -1      3489 2.62169E-03-1.92365E-02-1.96378E-01
 -1      3490-1.33244E-02 2.43865E-02-3.77358E-01
 -1      3491-2.49713E-02-1.52866E-02-2.44814E-01
 -1      3492 2.80964E-04-2.27409E-02-1.21151E-01
 -1      3493-1.72910E-02-2.22892E-02-4.00686E-01
 -1      3494-5.23574E-03 1.75434E-02-2.03256E-01
 -1      3495-2.14980E-02 1.48911E-02-4.24519E-01
 -1      3496-9.74674E-03-2.04395E-02-1.19254E-01
 -1      3497 1.74784E-02 1.16521E-03-1.15736E-01
 -1      3498-2.46428E-02-2.67495E-03-1.12696E-01
 -1      3499 1.89762E-02 2.95812E-03-1.77277E-01
 -1      3500 1.85514E-02 1.82402E-03-1.45152E-01
 -1      3501-2.50596E-02 1.13900E-03-1.57190E-01
 -1      3502-2.34429E-02 7.99581E-04-1.18731E-01
 -1      3503 8.94855E-03-1.83189E-02-1.50160E-01
 -1      3504 3.29834E-03 2.45416E-02-1.48945E-01
 -1      3505-1.13236E-03-1.82297E-02-1.50427E-01
 -1      3506-1.35726E-03 1.30604E-02-5.07389E-01
 -1      3507 2.52653E-03 2.83588E-02-2.15944E-01
 -1      3508 1.25857E-02-1.51562E-02-3.96688E-01
 -1      3509 1.70270E-02 6.75505E-03-1.21636E-01
 -1      3510-4.61836E-03-1.71327E-02-1.21297E-01
 -1      3511 1.98553E-02 1.99625E-02-3.05060E-01
 -1      3512 1.64822E-02 9.14229E-03-4.33813E-01
 -1      3513 1.30995E-02-2.01509E-02-4.68672E-01
 -1      3514 1.78625E-02 2.01887E-02-4.23184E-01
 -1      3515 7.46914E-03 2.55328E-02-1.73666E-01
 -1      3516 1.54528E-02 2.03038E-02-1.42791E-01
 -1      3517 1.58597E-02 1.73711E-02-1.27811E-01
 -1      3518-1.50497E-02-1.65400E-02-1.24236E-01
 -1      3519-1.15448E-03-1.94167E-02-1.94172E-01
 -1      3520-1.79672E-02-1.66930E-02-1.35394E-01
 -1      3521 2.14059E-02 1.26788E-02-1.29701E-01
 -1      3522 1.00329E-02 2.29146E-02-1.41190E-01
 -1      3523-4.10775E-03-2.87540E-02-3.28097E-01
 -1      3524 7.89332E-03 1.42426E-02-1.20584E-01
 -1      3525-1.90519E-02 7.72762E-04-1.65212E-01
 -1      3526-1.60016E-02-1.87538E-03-5.06529E-01
 -1      3527 1.40412E-02-1.25483E-02-1.30404E-01
 -1      3528-1.84617E-02-1.06657E-02-4.92239E-01
 -1      3529 1.79012E-02-1.78402E-02-4.69072E-01
 -1      3530 2.73149E-02-1.47388E-03-2.00356E-01
 -1      3531-1.19840E-02-1.43928E-02-1.77518E-01
 -1      3532 1.88436E-02 2.05784E-02-2.02397E-01
 -1      3533 8.46596E-03 1.65514E-02-3.90099E-01
 -1      3534 1.74774E-02-5.44969E-03-1.08918E-01
 -1      3535 9.98233E-03 1.53766E-02-4.14082E-01
 -1      3536 1.71382E-02 2.32571E-02-3.14219E-01
 -1      3537-1.61118E-02-1.04945E-02-2.88868E-01
 -1      3538-1.07916E-02-1.51739E-02-2.81252E-01
 -1      3539 2.33778E-02 1.51545E-02-3.40853E-01
 -1      3540 2.06855E-02 1.77136E-02-3.82456E-01
 -1      3541 2.29177E-03 1.24685E-02-5.10069E-01
 -1      3542 1.87629E-02-1.49985E-03-1.65138E-01
 -1      3543-1.45394E-02 4.05624E-03-1.12741E-01
 -1      3544-1.63277E-02-6.40084E-03-1.23503E-01
 -1      3545 2.16501E-02 1.76041E-02-3.60177E-01
 -1      3546-1.03120E-02-1.54607E-02-3.97470E-01
 -1      3547-8.89645E-03-1.63725E-02-4.19494E-01
 -1      3548-7.41102E-03-1.17580E-02-5.24384E-01
 -1      3549 1.72702E-02-6.25262E-03-1.17432E-01
 -1      3550 8.21109E-04 1.71126E-02-1.26700E-01
 -1      3551 1.04882E-02-2.57962E-02-4.27489E-01
 -1      3552-8.95136E-03-1.99041E-02-4.82092E-01
 -1      3553 9.14749E-03 2.61804E-02-1.96120E-01
 -1      3554-2.67255E-04-1.91008E-02-1.95945E-01
 -1      3555 3.61774E-03-2.60381E-02-4.42322E-01
 -1      3556 1.86209E-02 1.55542E-03-4.28093E-01
 -1      3557 1.14413E-02 1.09932E-02-1.14848E-01
 -1      3558 6.88676E-03 1.76459E-02-1.57400E-01
 -1      3559-1.93304E-02 1.44877E-02-1.26585E-01
 -1      3560-1.29582E-02 1.27599E-02-4.13150E-01
 -1      3561 7.10751E-03-2.44260E-02-4.51807E-01
 -1      3562-1.89073E-02-3.39796E-03-2.90661E-01
 -1      3563-1.52944E-02 8.07551E-03-1.85540E-01
 -1      3564-1.53325E-02 8.01879E-03-2.20014E-01
 -1      3565 2.49173E-02-1.35859E-02-2.27395E-01
 -1      3566 1.27543E-02-2.17868E-02-1.13059E-01
 -1      3567 4.56796E-03-1.82273E-02-4.13417E-01
 -1      3568-2.37729E-02 1.40302E-02-2.93503E-01
 -1      3569-8.96475E-03-1.60573E-02-3.45243E-01
 -1      3570-1.61066E-02 7.37869E-03-2.00013E-01
 -1      3571 8.33972E-03-2.26376E-02-1.28025E-01
 -1      3572-1.28034E-02-3.92810E-03-5.16382E-01
 -1      3573 1.88343E-03-1.87792E-02-2.91196E-01
 -1      3574 1.04675E-02 1.58365E-02-3.39684E-01
 -1      3575 3.75957E-03 1.84806E-02-2.02881E-01
 -1      3576 7.03652E-03-1.78679E-02-1.26381E-01
 -1      3577-1.96728E-03-1.58936E-02-5.06347E-01
 -1      3578 1.25199E-02-1.50746E-02-4.33799E-01
 -1      3579 1.33391E-02-1.14341E-02-1.10946E-01
 -1      3580 1.68132E-02 8.49070E-03-3.71219E-01
 -1      3581 5.40628E-03 1.63873E-02-1.20940E-01
 -1      3582-1.68973E-02 1.46546E-02-1.18995E-01
 -1      3583-1.32048E-02-1.28417E-02-1.23088E-01
 -1      3584 6.09159E-03 1.77345E-02-4.53362E-01
 -1      3585-1.10007E-02 2.54702E-02-1.69505E-01
 -1      3586-7.08042E-03 1.67370E-02-1.64497E-01
 -1      3587-7.09481E-03 1.66964E-02-1.75888E-01
 -1      3588-1.09942E-02 2.55056E-02-1.61678E-01
 -1      3589-1.10169E-02 2.54339E-02-1.80861E-01
 -1      3590-7.11692E-03 1.66747E-02-1.87030E-01
 -1      3591-1.10438E-02 2.54235E-02-1.91928E-01
 -1      3592-7.15404E-03 1.66594E-02-2.02423E-01
 -1      3593-1.10748E-02 2.54286E-02-2.01964E-01
 -1      3594-7.16440E-03 1.66864E-02-2.01835E-01
 -1      3595-1.10912E-02 2.54663E-02-2.01804E-01
 -1      3596-7.16222E-03 1.67183E-02-1.96070E-01
 -1      3597-7.19118E-03 1.67067E-02-2.08028E-01
 -1      3598-1.10645E-02 2.54773E-02-1.90741E-01
 -1      3599-1.11178E-02 2.54552E-02-2.12868E-01
 -1      3600-7.22828E-03 1.66917E-02-2.23367E-01
 -1      3601-7.12019E-03 1.67334E-02-1.78983E-01
 -1      3602-1.11370E-02 2.54309E-02-2.23406E-01
 -1      3603-1.10308E-02 2.54899E-02-1.76977E-01
 -1      3604-7.21754E-03 1.66657E-02-2.23685E-01
 -1      3605-1.11238E-02 2.53965E-02-2.24159E-01
 -1      3606-7.19409E-03 1.66431E-02-2.19018E-01
 -1      3607 1.26323E-02-2.50326E-02-1.94111E-01
 -1      3608 1.39654E-02-2.49812E-02-3.26161E-01
 -1      3609-1.51659E-02 8.57352E-03-1.48944E-01
 -1      3610-1.15368E-02 1.06974E-02-5.02059E-01
 -1      3611-9.22399E-03 1.62409E-02-1.73308E-01
 -1      3612-1.62176E-02 2.51152E-03-5.05732E-01
 -1      3613 1.78687E-02 6.16970E-03-1.14025E-01
 -1      3614-1.63474E-02-7.40710E-03-1.25363E-01
 -1      3615-7.75677E-03 1.56756E-02-1.03721E-01
 -1      3616-6.66831E-03 9.90687E-03-5.07525E-01
 -1      3617 1.95067E-02 7.03337E-04-1.98408E-01
 -1      3618-1.18098E-02-1.32299E-02-1.42715E-01
 -1      3619 1.34269E-02-2.48891E-02-2.27190E-01
 -1      3620 8.78321E-03-2.33415E-02-1.56125E-01
 -1      3621-1.01820E-02 1.49964E-02-2.29574E-01
 -1      3622 4.97898E-04 1.49299E-02-5.06201E-01
 -1      3623-1.69826E-04 1.65922E-02-1.22436E-01
 -1      3624 5.53504E-03-1.84592E-02-1.12633E-01
 -1      3625-5.49774E-03 2.04711E-02-9.95089E-02
 -1      3626 2.62075E-02 6.61996E-03-2.26024E-01
 -1      3627-1.80394E-02-6.02075E-03-2.39080E-01
 -1      3628 1.19976E-02 1.49747E-02-1.89041E-01
 -1      3629 3.44952E-03-1.82419E-02-4.36314E-01
 -1      3630-7.18111E-03 1.63521E-02-1.24085E-01
 -1      3631-2.95546E-03 1.76960E-02-4.54914E-01
 -1      3632-1.39879E-02-1.26413E-03-5.06482E-01
 -1      3633 9.14027E-03 1.15096E-02-5.09452E-01
 -1      3634-1.85887E-02-2.95693E-03-1.37863E-01
 -1      3635-1.04837E-02 7.14752E-03-5.04644E-01
 -1      3636-1.93859E-02-2.33046E-03-1.55666E-01
 -1      3637 1.09405E-02-1.59230E-02-3.50892E-01
 -1      3638 1.00449E-02-1.67057E-02-3.26776E-01
 -1      3639 1.21252E-02-4.75482E-03-5.11814E-01
 -1      3640 5.41468E-03-2.67160E-02-1.99695E-01
 -1      3641-1.20887E-02-1.44497E-02-3.02954E-01
 -1      3642-1.82265E-02-1.51380E-03-1.23147E-01
 -1      3643-2.57572E-02-8.67938E-03-1.67387E-01
 -1      3644 1.82153E-02 5.28089E-03-1.98848E-01
 -1      3645-7.82667E-03-1.52759E-02-5.09077E-01
 -1      3646 1.11873E-02-2.44404E-02-1.75693E-01
 -1      3647-1.58379E-02 6.45011E-03-1.22744E-01
 -1      3648-1.21866E-02-1.39554E-02-1.62141E-01
 -1      3649 2.32655E-02 1.58202E-02-2.83854E-01
 -1      3650 4.56211E-04 1.80076E-02-1.32782E-01
 -1      3651-1.48082E-02-2.76583E-03-5.03034E-01
 -1      3652-1.57849E-02 9.20964E-03-4.49319E-01
 -1      3653-1.61565E-02 8.04150E-03-4.23479E-01
 -1      3654 8.98333E-03 1.45780E-02-1.16069E-01
 -1      3655 1.37511E-02-2.23742E-02-1.49824E-01
 -1      3656-1.27626E-02-1.43035E-02-2.10295E-01
 -1      3657-1.02184E-02-1.02074E-02-5.11587E-01
 -1      3658 1.87518E-02-4.31457E-03-1.52141E-01
 -1      3659-1.57022E-02-1.10995E-02-2.62327E-01
 -1      3660 1.45966E-02-1.93308E-03-5.05901E-01
 -1      3661-1.62344E-02 6.00302E-03-1.24999E-01
 -1      3662 7.27798E-03-2.67243E-02-2.11820E-01
 -1      3663-1.04388E-02-1.51698E-02-4.40899E-01
 -1      3664 2.12567E-02 1.62751E-02-4.12343E-01
 -1      3665 5.97158E-03-1.73357E-02-1.19620E-01
 -1      3666-4.86594E-03 1.82492E-02-3.97581E-01
 -1      3667-3.26149E-03 1.74560E-02-4.30668E-01
 -1      3668-1.31010E-02-1.41445E-02-1.92070E-01
 -1      3669-1.59378E-02 7.78894E-03-1.69618E-01
 -1      3670-1.55719E-02 7.92970E-03-1.46304E-01
 -1      3671-8.60733E-03 1.65244E-02-1.50267E-01
 -1      3672-1.08077E-02-1.47674E-02-3.70828E-01
 -1      3673-4.26937E-03 1.79686E-02-1.66726E-01
 -1      3674-1.82893E-02-6.00274E-03-2.21436E-01
 -1      3675-9.56333E-03 1.60472E-02-2.03210E-01
 -1      3676 5.60571E-03-1.83153E-02-1.40238E-01
 -1      3677 1.83567E-02-4.66630E-03-1.27389E-01
 -1      3678 1.84973E-02-5.32186E-03-1.55125E-01
 -1      3679-5.93240E-03 1.77834E-02-1.87977E-01
 -1      3680-1.48088E-02 6.93558E-03-1.14455E-01
 -1      3681-8.25263E-03 1.63164E-02-1.71094E-01
 -1      3682-1.24706E-03 1.14652E-03-4.60807E-01
 -1      3683-1.29043E-03 2.66633E-03-4.61706E-01
 -1      3684-1.75467E-03-1.98508E-03-4.75731E-01
 -1      3685 4.98022E-03 1.70056E-03-2.04849E-01
 -1      3686 2.62045E-03 5.69585E-04-4.99879E-01
 -1      3687-3.18058E-03 5.62007E-03-2.00046E-01
 -1      3688 1.81253E-03 1.77442E-03-4.76191E-01
 -1      3689-3.45370E-04-3.67754E-03-4.40591E-01
 -1      3690 2.05696E-03-1.76672E-03-4.51665E-01
 -1      3691-5.58012E-03-1.06949E-03-4.32956E-01
 -1      3692-3.90649E-03-1.84724E-03-4.31876E-01
 -1      3693-4.38508E-03 3.83163E-03-1.54987E-01
 -1      3694 6.46222E-04-2.89454E-03-4.85029E-01
 -1      3695 3.13259E-03 2.56249E-03-2.91099E-01
 -1      3696 3.58409E-03 1.12516E-03-1.72222E-01
 -1      3697 6.47078E-04-1.43040E-03-4.62323E-01
 -1      3698 2.17145E-03 1.95068E-03-2.02234E-01
 -1      3699 4.14494E-03-7.20389E-04-1.79892E-01
 -1      3700-4.03536E-03-4.57848E-03-4.19071E-01
 -1      3701 2.06127E-03-4.30363E-03-4.56138E-01
 -1      3702 4.03391E-03 3.00463E-03-1.75721E-01
 -1      3703 2.71398E-03 6.66857E-03-2.16762E-01
 -1      3704 3.94046E-03-1.72042E-03-1.69108E-01
 -1      3705 3.92648E-03 3.77543E-04-4.64110E-01
 -1      3706 2.29826E-03 2.09925E-03-4.51255E-01
 -1      3707 5.45432E-04-5.16452E-03-1.74935E-01
 -1      3708 5.46867E-03 1.28841E-03-4.15755E-01
 -1      3709 3.52715E-03-1.29150E-03-1.46464E-01
 -1      3710 1.30927E-03 3.94030E-03-4.74828E-01
 -1      3711 1.86753E-03 4.06344E-03-2.45233E-01
 -1      3712-3.33032E-03-4.22487E-03-3.86654E-01
 -1      3713 3.69473E-03-3.01967E-03-4.80063E-01
 -1      3714-1.91786E-03 5.17264E-03-3.98764E-01
 -1      3715-2.27448E-03-3.57644E-03-1.50888E-01
 -1      3716 1.46919E-03 1.59073E-03-4.77233E-01
 -1      3717-4.99405E-03 3.17869E-05-1.85140E-01
 -1      3718 3.33567E-03 6.51051E-04-1.49293E-01
 -1      3719-2.97379E-03-1.11158E-04-4.82877E-01
 -1      3720 2.16758E-03-1.27206E-03-4.55263E-01
 -1      3721 5.99640E-03-1.06786E-03-1.74006E-01
 -1      3722-2.97761E-03-3.81405E-03-4.46972E-01
 -1      3723-1.74442E-03-1.27804E-03-4.55315E-01
 -1      3724-2.62666E-04 1.46634E-03-4.37703E-01
 -1      3725 1.97791E-03 9.52122E-04-4.94801E-01
 -1      3726 9.90717E-04-3.73609E-03-1.49473E-01
 -1      3727-1.41677E-03 4.42230E-03-1.44511E-01
 -1      3728 4.26804E-03-1.52208E-03-1.89776E-01
 -1      3729 2.66587E-03 1.68397E-03-2.00029E-01
 -1      3730 7.46646E-04-4.11050E-04-2.26042E-01
 -1      3731 3.52144E-03 1.25030E-03-1.81567E-01
 -1      3732 8.92736E-04 2.91763E-03-4.47239E-01
 -1      3733 1.28775E-03-2.33060E-04-4.23425E-01
 -1      3734-4.64742E-04 4.13019E-03-4.50428E-01
 -1      3735 2.70437E-03-7.99280E-04-4.67585E-01
 -1      3736 1.78069E-03-1.10845E-03-4.91699E-01
 -1      3737 7.48380E-03-2.85787E-03-1.38439E-01
 -1      3738-1.48891E-03-4.93602E-04-4.92143E-01
 -1      3739-5.98953E-04 5.57121E-05-4.92767E-01
 -1      3740 6.57085E-04-1.02406E-03-1.36356E-01
 -1      3741 6.47648E-04-4.51731E-03-4.70648E-01
 -1      3742-2.28187E-03-3.02152E-04-4.52769E-01
 -1      3743-5.59819E-03 7.47627E-04-4.39655E-01
 -1      3744-2.00831E-03 2.11992E-03-2.07532E-01
 -1      3745-2.69855E-04-5.37282E-03-1.65091E-01
 -1      3746-3.46859E-03-4.14276E-03-3.72882E-01
 -1      3747-2.08483E-03-3.46080E-03-4.89011E-01
 -1      3748-1.72626E-03-3.82690E-03-1.75154E-01
 -1      3749-3.84882E-03 6.70120E-04-4.55368E-01
 -1      3750 7.96447E-04-4.72631E-04-4.93805E-01
 -1      3751-5.67286E-03-4.43613E-04-1.62097E-01
 -1      3752-5.15676E-03 2.43954E-03-2.00356E-01
 -1      3753-1.65581E-03-1.45435E-03-4.63015E-01
 -1      3754 1.69289E-03-3.02475E-03-4.73546E-01
 -1      3755 2.66870E-03 9.56137E-04-4.42777E-01
 -1      3756 3.49936E-03 2.22250E-03-3.35222E-01
 -1      3757-4.55676E-03 2.36808E-03-1.65471E-01
 -1      3758 5.12999E-04 5.09729E-03-4.29201E-01
 -1      3759 1.87770E-03 2.46354E-04-4.59527E-01
 -1      3760-5.11697E-03-3.61912E-03-1.63243E-01
 -1      3761 2.45173E-04-1.74729E-03-4.77350E-01
 -1      3762-4.34924E-03-2.79755E-03-4.28331E-01
 -1      3763-5.97477E-03-2.33139E-03-1.33295E-01
 -1      3764-2.38570E-03 3.87702E-03-2.98819E-01
 -1      3765-7.48311E-04 2.42795E-03-2.52204E-01
 -1      3766-6.04654E-04 3.26516E-03-2.65881E-01
 -1      3767 2.98616E-03-3.22295E-03-4.26909E-01
 -1      3768 1.35138E-03 1.80645E-04-4.94651E-01
 -1      3769-1.54055E-03-4.38466E-03-1.60411E-01
 -1      3770 3.05680E-03 3.29047E-04-1.57631E-01
 -1      3771-3.43077E-05-7.80541E-04-4.67455E-01
 -1      3772-2.13399E-03 2.79391E-03-3.30962E-01
 -1      3773 4.31230E-03 2.93067E-03-1.84732E-01
 -1      3774-1.83770E-03-1.77410E-03-5.03862E-01
 -1      3775 2.20458E-03 1.14836E-03-4.69247E-01
 -1      3776-3.43088E-03 5.83893E-04-1.91320E-01
 -1      3777-7.75869E-04-1.48856E-04-4.73920E-01
 -1      3778 2.80392E-03 6.68504E-03-1.85919E-01
 -1      3779-1.54297E-03 3.43810E-03-1.60405E-01
 -1      3780-1.77990E-03 4.61528E-03-1.73612E-01
 -1      3781-3.05938E-03-7.46241E-04-1.26818E-01
 -1      3782-2.19085E-03-3.45684E-04-1.90105E-01
 -1      3783-1.26689E-03-5.54295E-03-2.12871E-01
 -1      3784 1.10003E-03 3.50725E-03-2.09410E-01
 -1      3785-5.40450E-03-2.68155E-03-1.89940E-01
 -1      3786 1.46378E-03 4.23974E-03-4.44980E-01
 -1      3787-5.21168E-05-4.93570E-04-5.07790E-01
 -1      3788 1.29748E-03-2.37524E-03-4.87078E-01
 -1      3789-5.22329E-03-8.92516E-04-2.00993E-01
 -1      3790-3.41574E-03-8.31642E-04-1.77972E-01
 -1      3791 2.02155E-03-8.63875E-04-1.55584E-01
 -1      3792-3.99272E-03 3.38618E-05-1.43982E-01
 -1      3793 1.81480E-03 3.65784E-03-1.52327E-01
 -1      3794 1.38180E-03 3.81497E-03-1.79263E-01
 -1      3795-2.49733E-03 3.86520E-03-4.39562E-01
 -1      3796-1.40331E-03 2.99594E-04-5.05667E-01
 -1      3797-4.85114E-04 1.70603E-03-4.87764E-01
 -1      3798 1.80304E-03-5.32669E-04-1.54907E-01
 -1      3799 2.04117E-03-2.71432E-03-4.27930E-01
 -1      3800 1.79903E-03 5.30776E-03-2.05126E-01
 -1      3801 2.75353E-03-1.94041E-03-1.24566E-01
 -1      3802 2.62610E-03 4.83926E-03-2.52251E-01
 -1      3803 3.68569E-03-2.11489E-03-1.48034E-01
 -1      3804 2.39071E-04-9.78934E-04-4.55259E-01
 -1      3805-4.22403E-03-2.11619E-03-4.77461E-01
 -1      3806 2.46911E-03 8.77459E-04-1.50458E-01
 -1      3807-2.61410E-03 2.28683E-03-1.97613E-01
 -1      3808 2.27767E-03-3.77312E-03-4.41030E-01
 -1      3809 2.27176E-03-3.34645E-03-4.84910E-01
 -1      3810 6.83431E-03-7.26237E-04-2.08459E-01
 -1      3811 3.26387E-03 3.32948E-03-3.08120E-01
 -1      3812 1.64929E-03-3.10463E-03-4.98138E-01
 -1      3813 4.66450E-03-2.14470E-03-2.01574E-01
 -1      3814 3.25778E-03 3.80157E-03-2.08347E-01
 -1      3815 2.87137E-03 2.68674E-03-1.54367E-01
 -1      3816-1.14788E-03-2.25450E-03-4.34564E-01
 -1      3817-5.61186E-03 2.04409E-03-1.47158E-01
 -1      3818 1.74371E-03-1.41894E-03-4.39374E-01
 -1      3819 9.16543E-04-6.13556E-03-2.13496E-01
 -1      3820-6.09964E-04-4.06788E-05-1.68894E-01
 -1      3821 8.74010E-05-2.81016E-04-4.11667E-01
 -1      3822-2.10993E-03-1.91825E-03-4.90330E-01
 -1      3823-2.97784E-04-4.00800E-03-4.21207E-01
 -1      3824 1.86215E-03-4.60078E-04-4.33522E-01
 -1      3825 4.39757E-04-1.33312E-03-5.08853E-01
 -1      3826 1.11642E-03 2.78762E-04-1.77901E-01
 -1      3827-1.30309E-04-6.06321E-04-4.75559E-01
 -1      3828-6.01847E-03-1.82051E-03-4.04506E-01
 -1      3829-1.75071E-03 3.16904E-03-3.73866E-01
 -1      3830-5.78847E-04-8.12671E-05-1.24852E-01
 -1      3831-2.07536E-04-4.63372E-04-1.48971E-01
 -1      3832 5.37489E-04-1.21835E-03-4.57910E-01
 -1      3833 5.49536E-05-5.30810E-04-1.52259E-01
 -1      3834 5.12611E-04 8.99333E-04-4.91667E-01
 -1      3835-1.99019E-03 5.48829E-03-3.72052E-01
 -1      3836 2.61150E-03-5.11204E-03-4.44328E-01
 -1      3837 3.83635E-04 1.40069E-03-4.51343E-01
 -1      3838-5.87414E-05-1.11539E-03-4.20096E-01
 -1      3839 3.85164E-04 2.90983E-03-1.96369E-01
 -1      3840 9.37756E-04-1.14895E-03-1.64015E-01
 -1      3841 2.66287E-03-6.07112E-04-1.56177E-01
 -1      3842 3.23019E-03 2.84174E-03-4.24959E-01
 -1      3843 2.49215E-05-1.09658E-03-4.85898E-01
 -1      3844 2.24273E-04 5.85941E-04-2.28859E-01
 -1      3845 1.30332E-03-6.21844E-04-4.32310E-01
 -1      3846 1.51769E-03 5.01612E-03-1.48395E-01
 -1      3847-2.50700E-03-8.25881E-04-1.55913E-01
 -1      3848-5.06459E-04 9.69484E-04-4.15511E-01
 -1      3849-2.55469E-03 2.02963E-03-2.14664E-01
 -1      3850 1.79395E-03-5.47393E-03-4.23111E-01
 -1      3851-6.17549E-05-3.92314E-03-1.37405E-01
 -1      3852 6.41990E-04-1.98211E-03-4.76614E-01
 -1      3853 2.79677E-03-3.01473E-04-1.27877E-01
 -1      3854-9.19952E-05-3.28237E-03-5.15232E-01
 -1      3855-2.71316E-03-1.56791E-03-1.40480E-01
 -1      3856 1.75693E-03-3.17305E-03-1.58959E-01
 -1      3857-2.67671E-03-7.22098E-04-5.01549E-01
 -1      3858 2.45268E-03-3.10438E-03-4.81511E-01
 -1      3859 4.67346E-03-1.66799E-03-2.17644E-01
 -1      3860-1.88156E-04 3.57084E-03-3.15707E-01
 -1      3861 7.06403E-04 2.74372E-03-3.88150E-01
 -1      3862-1.77806E-04 9.87470E-05-4.16987E-01
 -1      3863 8.04755E-04-2.89719E-03-4.34579E-01
 -1      3864 2.87165E-03-2.27204E-03-2.22464E-01
 -1      3865-8.95915E-04-1.45580E-03-4.88704E-01
 -1      3866 3.18958E-03 4.44093E-03-3.06006E-01
 -1      3867 8.79613E-04 1.39219E-03-1.84941E-01
 -1      3868-2.17092E-04 1.06774E-03-4.28927E-01
 -1      3869 5.57354E-05-8.59633E-04-1.38256E-01
 -1      3870-1.77633E-03 4.22503E-04-1.90564E-01
 -1      3871-3.46435E-03-3.40589E-03-3.60423E-01
 -1      3872-3.03349E-03-3.18307E-03-3.76678E-01
 -1      3873 2.52681E-04 2.68243E-03-3.87193E-01
 -1      3874 2.53287E-03-3.89927E-03-1.88177E-01
 -1      3875 2.46984E-03-4.78178E-03-2.15916E-01
 -1      3876 3.01841E-03 2.30477E-03-3.60267E-01
 -1      3877 1.82551E-03 6.83947E-04-4.57822E-01
 -1      3878 8.67693E-05 1.46877E-04-2.77444E-01
 -1      3879-4.16424E-04 1.86529E-03-4.93643E-01
 -1      3880-2.90969E-03-6.89147E-05-2.12062E-01
 -1      3881-5.16171E-03-3.85143E-03-1.91425E-01
 -1      3882 9.43979E-04-1.76978E-03-2.06210E-01
 -1      3883 4.22939E-03 1.87064E-03-3.54145E-01
 -1      3884 1.07342E-03-2.52380E-04-1.98345E-01
 -1      3885 8.81621E-04-1.80413E-03-4.88835E-01
 -1      3886 4.53641E-04-2.03863E-03-4.46793E-01
 -1      3887 1.07491E-03-3.14000E-03-5.08538E-01
 -1      3888 1.13897E-03-1.11695E-03-2.27200E-01
 -1      3889 9.96170E-04-5.54411E-04-5.03476E-01
 -1      3890 4.20276E-03 4.24505E-03-2.83630E-01
 -1      3891-1.51024E-03 4.27665E-04-1.84178E-01
 -1      3892 5.33495E-03-1.23738E-03-2.00949E-01
 -1      3893-2.66591E-03-2.06542E-03-1.36169E-01
 -1      3894 6.22894E-04-2.81861E-03-4.18124E-01
 -1      3895-4.16439E-03-2.52798E-03-4.55658E-01
 -1      3896 1.73527E-03 4.32068E-03-4.42979E-01
 -1      3897 5.67788E-04-2.19293E-03-1.40664E-01
 -1      3898 4.86395E-04 7.85190E-04-1.67978E-01
 -1      3899 6.29056E-04-3.18078E-04-1.77198E-01
 -1      3900-6.97357E-04-1.10849E-03-1.67696E-01
 -1      3901-1.08860E-03 3.08639E-03-5.06149E-01
 -1      3902 1.25358E-03-9.65243E-04-1.54357E-01
 -1      3903 1.20918E-03 2.06924E-03-1.86763E-01
 -1      3904-6.81035E-04 1.00874E-03-1.36639E-01
 -1      3905 2.03261E-03 1.23687E-04-4.32181E-01
 -1      3906 1.28179E-03 9.17996E-04-1.32375E-01
 -1      3907 5.28600E-04-6.41176E-04-2.22816E-01
 -1      3908-7.81523E-04-1.25901E-03-2.92019E-01
 -1      3909 2.17162E-03 2.49661E-03-5.05899E-01
 -1      3910 6.50887E-04 1.68599E-03-1.47960E-01
 -1      3911-2.45421E-04 1.03420E-03-3.49649E-01
 -1      3912 2.20337E-04-2.35433E-03-4.17083E-01
 -1      3913 3.49612E-04-1.95808E-04-1.34452E-01
 -1      3914-1.47570E-03-1.93553E-03-4.15264E-01
 -1      3915 1.55866E-03 1.21244E-03-4.47435E-01
 -1      3916-1.51260E-03 1.01592E-03-4.11653E-01
 -1      3917-1.92762E-03 1.53386E-03-4.64644E-01
 -1      3918 1.06017E-03-4.69156E-03-2.07402E-01
 -1      3919-4.33184E-04 1.41899E-03-4.13852E-01
 -1      3920 1.07461E-04-2.96440E-04-3.48960E-01
 -1      3921 1.52670E-03-2.03677E-03-1.79561E-01
 -1      3922 6.35816E-04-4.10736E-03-4.83330E-01
 -1      3923 2.62960E-04-1.34183E-03-2.28816E-01
 -1      3924-2.33773E-03-2.42365E-03-2.83638E-01
 -1      3925-4.73105E-04 1.78325E-03-1.74121E-01
 -1      3926-2.39387E-03-1.96982E-03-1.64831E-01
 -1      3927 1.45020E-03 4.37204E-04-4.17864E-01
 -3
    1PSTEP                         2           1           1          
  100CL  101 1.000000000        3927                     0    1           1
 -4  STRESS      6    1
 -5  SXX         1    4    1    1
 -5  SYY         1    4    2    2
 -5  SZZ         1    4    3    3
 -5  SXY         1    4    1    2
 -5  SYZ         1    4    2    3
 -5  SZX         1    4    3    1
 -1         1 2.77296E+01 2.01533E+01 2.01587E+01-1.70758E+00 2.29796E-02 1.45256E+01
 -1         2 6.71168E+00 7.37577E+00 1.01963E+01-1.06154E+00-4.55832E-01-8.07228E+00
 -1         3 2.87162E+01 3.86729E+01 2.83708E+01 1.89374E+00 1.29982E+01 2.59990E+00
 -1         4 1.71803E+01 2.36112E+01 1.71732E+01-1.76149E+00 1.06037E+01-2.13676E-02
 -1         5 4.60974E+00 1.21995E+01 7.31268E+00 7.93318E-01 7.32147E+00 7.18902E+00
 -1         6-1.23899E+01-1.69811E-01-5.73393E+00-1.64335E+00 5.96273E+00 6.59943E+00
 -1         7 3.78454E+01 3.23274E+01 2.95427E+01 4.82076E+00 5.92649E+00 9.52365E+00
 -1         8-9.09825E+00-9.85170E+00-4.70538E+00 2.07406E+00 7.88369E+00-5.17033E+00
 -1         9 5.29687E+00 4.13019E+00 9.29259E+00 5.94728E-01 7.62966E+00-2.69736E+00
 -1        10 5.38332E+00 4.78165E+00 7.57899E+00 6.39587E-01-2.60091E+00 6.05131E+00
 -1        11-5.65646E+00 8.80428E-01 1.54478E+00-1.51085E-01 3.38802E+00 6.00051E+00
 -1        12 1.01441E+00 2.21945E+00 5.82013E+00 1.29849E+00-5.07812E+00 5.05026E+00
 -1        13-3.02895E+01-3.82435E+01-2.88524E+01 3.68036E+00-9.73799E+00 4.04587E+00
 -1        14-3.62391E+01-4.77378E+01-3.53542E+01 3.05606E+00-1.31242E+01 2.97463E+00
 -1        15 7.72138E-01-1.90910E+00 2.44267E+00-4.00302E-01 6.06255E+00-3.06120E-01
 -1        16-2.90590E+01-3.99671E+01-2.90600E+01 2.52692E-01-1.45416E+01-2.77187E-02
 -1        17-2.76542E+01-3.83643E+01-2.77938E+01-6.85426E-01-1.41333E+01-2.78122E+00
 -1        18 3.61306E+00 1.10638E+00 5.11269E+00 1.55956E-01-5.14069E+00-3.45329E+00
 -1        19 7.31419E+00 7.18550E+00 7.62282E+00 7.26611E-01-5.50748E+00-7.90258E+00
 -1        20-1.19788E+01-1.75697E+01-1.12682E+01 3.73404E+00 9.19933E+00-6.93398E+00
 -1        21 8.22429E+00 9.00743E+00 1.12358E+01-3.58723E-01 3.14811E+00-4.88919E+00
 -1        22 9.36702E+00 7.85712E+00 7.82630E+00-9.31186E-01 3.23549E+00-8.99710E+00
 -1        23-4.17775E+01-3.06526E+01-3.04931E+01 1.53078E+00 2.12084E+00-1.05532E+01
 -1        24 4.11170E+00 3.67574E-01 2.25466E+00-2.18463E+00 3.91629E+00 8.29920E+00
 -1        25 1.77260E+00 4.14199E+00 2.35732E+00 5.37050E+00 2.08306E+00 7.74828E+00
 -1        26-1.63800E+01-7.75116E+00-1.08500E+01 7.68137E+00 1.65615E+00 6.73225E+00
 -1        27-8.56601E+00-8.16347E+00-2.92534E+00-2.57316E+00 7.17733E+00 3.44480E+00
 -1        28-2.12629E+01-2.55390E+01-1.97036E+01-3.08651E+00 1.09979E+01 4.58494E+00
 -1        29 3.68033E+00 8.96762E+00 5.35109E+00 4.54936E-01 8.23360E+00 4.43477E+00
 -1        30-7.75159E+00-7.33335E+00-1.00129E+01-2.21653E-01 1.48389E+00-4.75643E+00
 -1        31-7.37715E+01-1.60626E+02-6.65648E+01-8.98972E+01 5.32362E+01 5.01950E+01
 -1        32 1.41118E+00-8.74250E+00-3.47385E-01 2.94017E+00 8.22076E+00-5.52700E+00
 -1        33 2.39996E+01-7.87492E-01 1.53478E+00-1.72927E+01 1.55518E+00 7.26994E+00
 -1        34 2.85660E+01 2.34469E+01 2.18974E+01-3.25435E+00 4.91488E+00-1.19332E+01
 -1        35 3.02990E+01 2.78792E+01 2.44930E+01-4.47340E+00 5.15969E+00-7.71920E+00
 -1        36-2.09904E+02-5.54845E+01-4.51710E+01-1.54385E+01-4.11056E+00 5.94978E+01
 -1        37-1.67990E+02-8.12044E+01-5.62893E+01-5.29474E+01 5.59983E+00 6.85477E+01
 -1        38-1.02814E+02-9.59296E+01-4.28510E+01 2.49429E+01 4.75204E+01-2.00467E+01
 -1        39-5.66155E+00-6.18009E+00-7.66709E+00-4.63721E-02-6.07646E+00-3.67664E+00
 -1        40-9.74487E+01-1.55247E+02-7.59280E+01 1.10161E+02-4.50609E+01 6.73355E+01
 -1        41 2.70468E+01 2.40849E+01 2.15264E+01 3.75853E+00-7.35491E+00-1.09591E+01
 -1        42 1.66046E+00-2.74578E+00-6.50707E-01-2.58950E+00-3.04582E+00-8.37803E+00
 -1        43-8.34834E+00-3.46630E+01-4.48610E+00 2.61886E+01 9.19354E+00-7.46667E+00
 -1        44 1.46252E+00-4.39930E+01 9.11562E-01-3.90496E+00 2.45032E+00 2.97811E+00
 -1        45 3.23008E+01 2.34810E+01 2.34842E+01-4.89800E-01-3.87514E-02-1.23310E+01
 -1        46 2.27490E+01 1.64698E+01 1.65111E+01 5.22913E-01-2.35029E+00-1.17132E+01
 -1        47-4.30129E+01-1.94125E+02-3.97480E+01 3.56680E+01-1.10109E+01-1.62364E+01
 -1        48 3.92048E+00 4.31143E+00 4.33634E+00 3.56641E-01 6.88113E+00 1.96292E+00
 -1        49-1.48187E+02-5.01080E+01-4.35119E+01 1.27986E+01 1.49034E+01-4.83668E+01
 -1        50 1.86123E+01 2.50165E+01 1.83677E+01-1.27568E+00 1.06606E+01-2.09932E+00
 -1        51 1.88665E+01 2.30281E+01 1.76376E+01-2.59773E+00 1.06926E+01-4.45407E+00
 -1        52-8.92645E+00 1.28505E+01-2.58042E+00-2.33023E+01 2.34004E+00-1.96141E+01
 -1        53-1.48207E+01-1.11690E+01-3.54397E+00 3.13005E+00 2.89947E+00 8.38068E+00
 -1        54-8.62499E+01-1.69407E+02-3.49745E+01-4.28285E+01-3.58593E+01-3.28484E+01
 -1        55-1.21663E+02-9.02343E+01-2.26934E+01 6.29184E+01 8.39617E+00-2.26725E+01
 -1        56-9.15144E+01-9.88675E+01-3.29814E+01-4.48622E+01-1.95264E+01-2.50194E+01
 -1        57-4.51144E+00-8.09333E+00-4.60969E+00-3.27977E+00 5.71281E+00 4.80794E+00
 -1        58 3.87823E+01 3.05822E+01 2.92025E+01 3.64818E+00 5.23560E+00 1.26963E+01
 -1        59-1.12111E+01-9.30901E+00 8.55992E-01 6.18401E+00 5.37346E+00 1.44486E+01
 -1        60 2.62495E+01 1.94994E+01 1.92603E+01-1.54974E+00-3.52419E+00 9.66389E+00
 -1        61-3.24171E+00-3.12404E+00-2.31388E+00 6.37985E-01-5.03466E+00 6.22912E+00
 -1        62 1.79843E+01 1.78003E+01 1.50653E+01-2.82739E+00-7.63916E+00 7.60780E+00
 -1        63 2.15442E+01-1.16559E+01-4.19765E-01-7.65103E+00 2.51062E-01 5.31800E+00
 -1        64 8.18564E+00-4.57805E+01-1.23659E+01-9.17483E+00-1.48643E+01-3.82748E-01
 -1        65-8.33017E+01-1.60633E+02-5.78930E+01-7.17951E+01 1.61604E+01 1.33219E+01
 -1        66-8.37263E+01-1.68553E+02-3.80883E+01-1.01213E+01 3.97324E+00 1.14612E+01
 -1        67-4.11575E+01-5.05757E+00-1.51801E+01-4.39517E+00-3.27925E+00 2.16861E+01
 -1        68-7.39496E+00-6.46060E+00-1.08332E+01-8.04682E-01-4.84113E+00 2.05305E+00
 -1        69-1.89313E+02-4.14207E+01-6.49046E+01-2.61192E+01-2.80827E+00-5.79422E+01
 -1        70-1.13898E+02-7.21043E+01-1.99718E+01 1.47174E+01-1.10458E+01 1.86815E+01
 -1        71-3.16943E+01 1.51842E+01-2.76969E+00-2.36223E-01 2.94277E+00 3.02017E+00
 -1        72-8.77647E+01-6.59521E+01-3.76547E+01-7.60795E+00 2.60961E+00 1.72611E+01
 -1        73 2.92639E+01 3.64242E+01 2.76547E+01 3.69258E+00-1.12485E+01-6.49220E+00
 -1        74 4.68809E+00 8.92652E+00 2.53291E+00-2.40739E+00 5.37115E+00-4.46428E+00
 -1        75-2.89245E+00-4.54725E+00-2.32107E+00-8.92111E-02 5.96315E+00 1.97880E+00
 -1        76 3.06819E+00-3.83721E-01 6.92414E+00 8.88832E-01 6.00053E+00-9.43206E-01
 -1        77-1.00651E+01-6.84803E+00-8.82340E+00-5.45850E-01 1.64652E+00 8.04075E+00
 -1        78-4.23788E+00-4.92413E+00-5.59047E+00 1.11571E-01-9.37566E-01 8.19281E+00
 -1        79-2.36386E+00-3.00236E-01-1.98371E+00 2.50126E-01-7.25497E+00 2.29603E-01
 -1        80 1.30716E+01 1.61704E+01 1.23109E+01-1.85801E+00-1.21318E+01 8.09886E+00
 -1        81-5.83933E+00-7.14483E+00-4.13433E+00 1.26569E+00-8.62720E+00 6.83508E+00
 -1        82 2.99490E+00 5.09157E+00 4.78355E-01 1.92837E+00-6.42219E+00-2.73262E+00
 -1        83-4.10136E+00-1.16524E+00 5.69329E-01-8.31037E-01-1.74481E+00-6.20934E+00
 -1        84-4.29417E-01-2.39792E+00-2.19581E+00-2.12202E+00-5.16373E+00-6.03470E-02
 -1        85-2.26046E+01-2.53222E+01-2.01772E+01-3.53489E+00-8.54557E+00-5.73807E+00
 -1        86-3.86108E+01-4.11861E+01-3.35945E+01-6.23341E+00-8.79958E+00-8.24478E+00
 -1        87-5.24156E+00-1.21361E+00-5.50195E+00 1.11745E-01-6.19525E+00-5.88380E+00
 -1        88-1.22587E+01-1.63733E+01-1.30712E+01-5.37443E+00-2.88974E+00-7.24743E+00
 -1        89-2.37082E+01-2.02053E+01-1.84876E+01 3.03191E+00-6.23685E+00 9.28658E+00
 -1        90-2.71046E+01-2.11387E+01-2.03104E+01 2.73902E+00-2.56924E+00 1.27446E+01
 -1        91-1.70188E+02-2.88967E+02 2.24867E+00-7.52045E+01-6.07122E+01-8.08989E+01
 -1        92 2.72280E+01-4.86703E+01 2.03912E+01 8.75958E+00 9.22537E+00-3.48148E+01
 -1        93-5.03268E+00-1.81469E+01-2.89858E+01-7.38540E+00 2.22921E+01 1.08742E+01
 -1        94-9.08078E+01-2.22801E+02-8.54394E+01 3.90242E+01 1.02628E+02-8.62560E+01
 -1        95 1.34597E+01-4.01550E+01 2.89754E+01 4.44606E+01-1.45171E+00-3.65082E+01
 -1        96-8.51679E+01-8.81180E+01-7.06946E+01 5.76601E+01-7.23021E+01 2.40868E+01
 -1        97-2.50040E+02-4.84639E+01-5.87999E+00 1.16059E+02 3.88267E+01-9.34089E+01
 -1        98 2.31603E+01-3.36577E+01-7.53661E+00 3.37620E+01-2.73732E+01-5.69930E+00
 -1        99 7.24834E+00-1.29772E+01-9.43795E-01 1.13300E+01-1.22395E+01 5.13776E-01
 -1       100-2.36333E+01-5.77566E+01-6.18687E+01 1.38847E+02 9.42577E+01-5.43314E+01
 -1       101-1.80729E+02-5.19693E+02 1.99411E+00 9.91435E+01-1.00492E+02 3.98068E+01
 -1       102-3.41192E+01-2.78755E+01-7.11752E+00 8.82982E+00 1.60911E+01 3.42441E+01
 -1       103-2.14971E+02-1.05263E+02-5.31541E+01 7.68670E+01-1.81367E+00-7.12019E+01
 -1       104-3.33919E+02-9.73425E+01-1.13272E+02 8.12115E+01 5.62703E+01-1.94830E+02
 -1       105-4.71469E+01-1.54290E+02-2.96742E+00 1.56684E+01-5.20928E+01 2.56391E+01
 -1       106-3.97043E+01 8.85629E+00 1.15746E+00 3.03002E+01 3.01845E+00-6.84105E+00
 -1       107-9.73526E+01 2.31848E+01 2.04498E+00 7.50166E+01 2.98326E+00-2.10908E+01
 -1       108-3.58574E+02-2.19590E+02-2.46121E+01 5.16965E+01-6.15192E+01-8.93144E+01
 -1       109-1.28892E+02-7.77610E+01-2.55309E+01 6.04629E+01 2.06068E+00 1.20560E+01
 -1       110-7.62033E+01-3.98666E+01-2.16701E+00 3.14521E+01 1.71526E+00 2.86498E+01
 -1       111-2.74758E+02-8.24294E+01-6.79939E+01 1.12753E+02-7.14525E+01 1.27010E+02
 -1       112-3.12742E+01 2.42655E+00-9.07149E+00-1.34657E+01 1.50903E+01 1.57495E+01
 -1       113 3.05392E+00-8.91868E+01 4.69604E+00 2.08031E+01 1.01001E+01-2.20769E+00
 -1       114-1.50471E+02-5.22273E+01-4.11727E+01-2.48503E+01 5.58912E+00-3.35157E+01
 -1       115-3.06562E+02-5.82355E+01-3.73893E+01-6.85620E+01-1.38685E+01-9.11609E+01
 -1       116-5.12258E+01 5.78610E+00-3.02982E+01-4.39908E+01 1.84366E+01 3.46189E+01
 -1       117-3.11197E+02-2.38383E+02-2.71453E+01 4.13994E+01-6.61561E+01 6.98215E+01
 -1       118-3.84516E+01-1.16210E+01-1.33294E+01-3.16050E+01 1.16409E+01 1.08467E+01
 -1       119-4.28313E+01 3.41511E+01-1.78587E+01-5.48689E+01-3.48610E+00-4.00899E+01
 -1       120-4.89387E+01-4.22790E+00-5.74095E+01-3.89981E+01 2.28340E+01 6.74978E+01
 -1       121-1.27444E+02-1.34918E+02-4.98828E+01-7.01031E+01-3.62690E+01-2.54368E+01
 -1       122-4.34934E+02-6.15730E+01-4.47325E+01-1.59988E+01-2.64737E+01 1.58549E+02
 -1       123-2.10920E+02-2.66188E+02-1.18459E+02-1.18248E+02-1.82964E+02-1.21260E+02
 -1       124-9.23428E+00-1.01150E+02-4.62658E+01-1.08787E+02 8.25971E+01 3.97916E+01
 -1       125-3.06092E+02-7.37386E+01-1.02447E+02-1.02903E+02 6.36190E+01 1.73018E+02
 -1       126 1.49641E+00-6.87793E+00-6.96736E+00-1.51197E+01 1.78895E+00-2.16526E+01
 -1       127-3.16689E+00-1.90036E+01-1.43617E+01-2.58356E+01 1.61501E+01 1.39301E+01
 -1       128-7.18373E+00-2.60757E+01-8.35321E+00-1.90191E+01 2.01865E-01-2.79671E+01
 -1       129-2.70375E+02-2.01220E+02-2.43333E+01-6.73454E+01-7.66835E+01-7.01030E+00
 -1       130-6.86337E+01-8.03643E+01-2.93763E+01-1.91522E+01-2.00879E+01-1.45678E+01
 -1       131-5.63714E+01-2.65648E+02-2.48726E+02-1.10609E+02 2.49862E+02 1.15930E+02
 -1       132-1.09068E+01-2.43573E+01-9.43417E+00-1.90865E+01-1.22091E+01-1.37526E+01
 -1       133-3.66202E+01-2.36917E+02 1.30015E+01 2.47644E+01-6.23124E+01 3.10966E+01
 -1       134 7.11048E+01-1.05685E+01 1.75323E+01-5.79702E+01 1.39791E+00 3.58832E+01
 -1       135-1.28341E+01-5.32786E+01-6.29795E+01-3.26044E+01-6.21254E+01-2.98114E+01
 -1       136 8.24242E+00-2.18285E+01 6.63148E-02-1.35689E+01-1.06831E+01-4.99711E+00
 -1       137 3.96554E+01-6.76568E+01-1.58644E+01-6.38789E+01-3.59433E+01-1.03666E+01
 -1       138 6.13012E+00-1.53891E+02 8.81413E+00-2.15366E+01 1.36451E+01 1.23476E+01
 -1       139-1.37682E+02-2.89157E+02-8.43065E+01-3.63943E+01 9.94211E+01 1.02371E+02
 -1       140-8.45482E+01-1.95278E+02-4.91637E+01-2.45390E+01 3.76934E+01 3.76802E+01
 -1       141 6.97511E+01-2.26164E+02-7.32397E+01-2.69497E+01-1.72053E+02-8.53574E+01
 -1       142-5.78191E+01-1.82783E+02-2.50703E+01 9.59963E+00 3.24091E+01 4.50124E+00
 -1       143-1.47042E+01-7.15052E+01-3.79942E+01 7.34559E+01 6.64080E+01-3.03657E+01
 -1       144-7.77118E+00-4.66315E+01 1.16027E+01 6.58979E+01 2.66634E+00 2.55037E+01
 -1       145-1.09870E+02-3.80258E+02-5.09613E+00 2.12960E+01 9.87387E+01 2.53304E+01
 -1       146-1.12183E+02-1.79925E+02-3.47321E+02 1.50720E+02-2.56626E+02 1.98748E+02
 -1       147-1.29539E+02-2.55450E+02 8.14307E+00 3.00043E+01 4.60443E+01 2.38024E+01
 -1       148-3.77621E+02-1.55563E+02-1.95096E+02 5.06907E+01-5.79699E+00 2.81716E+02
 -1       149-6.22301E+00 6.00043E+00 2.20156E+00 1.35673E+01 5.19681E+00-2.66692E+00
 -1       150-2.12097E+01-1.30612E+00-4.01983E+00 1.03025E+02 3.27187E+01-1.77492E+01
 -1       151-5.06315E+01-9.40016E+01-1.52215E+01 1.37195E+01 2.36273E+01-6.09158E+00
 -1       152-7.81651E-01 8.38492E-02-3.90573E+00 1.38169E+01 4.39777E+00-6.16977E+00
 -1       153-1.44324E+02-8.04390E+01-9.11116E+01 1.54794E+01-5.59501E+00 5.96340E+01
 -1       154-3.25146E+01 4.92718E+01 1.86180E+01 3.76338E+01 3.44438E+01 4.45973E+01
 -1       155-1.49172E+02-1.65256E+02-7.43413E+01 4.33889E+01 1.05252E+02-5.93612E+01
 -1       156-8.14451E+00 4.35076E+01 1.41039E+01 2.37464E+01 1.27007E+01 9.82506E+00
 -1       157-3.40667E+01 1.16821E+02 2.29813E+01 9.47316E+01 4.89005E+01 4.69269E+01
 -1       158-7.17353E+01-4.88258E+01-1.75048E+01 2.67781E+01-4.17265E+01 2.95432E+01
 -1       159-1.97423E+02-1.47164E+02-8.05491E+01-2.68260E+01 5.13256E+01 1.19183E+02
 -1       160-6.92217E+01 5.26458E+01-2.18031E+00 1.50591E+00 1.29921E+01 4.60839E+00
 -1       161-1.41856E+02-8.77023E+01-3.03458E+01-2.21582E+01 1.71847E+01 2.27494E+01
 -1       162-2.79191E+02-1.37636E+02 8.60303E+00-5.30880E+01 4.58720E+01 6.97588E+01
 -1       163-1.31555E+01 1.78063E+01 6.33224E+00 8.68837E+00 8.92529E+00 4.10949E+00
 -1       164-1.90605E+02-5.55926E+01-1.64603E+02 1.35726E+01 3.64708E+01-1.71223E+02
 -1       165-3.56832E+01 5.29918E+01 1.74673E+01 2.86414E+01 3.10376E+01 1.19617E+01
 -1       166-2.73735E+02-6.32084E+01-2.59949E+02-9.98016E+01-8.29151E+01-2.63434E+02
 -1       167-2.07054E+02-2.85636E+02-6.15737E+00-1.30395E+02 1.45553E+02 4.86023E+01
 -1       168-8.95772E+01-1.00944E+02-3.88134E+01-3.69581E+01 3.39692E+01 2.48712E+01
 -1       169-4.98136E+01-8.00048E+00 4.14748E+00-3.25343E+01-1.10107E+00-1.89545E+01
 -1       170-9.31649E+00-2.42344E+00-9.44720E-01-9.86053E+00-5.18186E+00 1.18422E+00
 -1       171-5.52691E+01 1.89401E+00-5.61417E+01-4.78709E+00 5.35106E+00 5.73633E+01
 -1       172-8.20841E+01-1.19771E+02-1.79624E+02-1.27156E+02 1.46681E+02 1.56556E+02
 -1       173 6.81968E+01-3.15551E+01-4.44602E+00-1.02718E+01-3.01563E+00-3.54245E+00
 -1       174-3.18558E+02-1.33214E+02-1.36731E+01-1.68152E+02-8.39580E+00-8.55257E+01
 -1       175 5.53329E+00-1.78261E+01-7.57959E+00-1.88361E+01-9.66474E+00-4.55765E+00
 -1       176-1.82361E+02-2.88236E+02-5.84613E+01-5.05357E+01 1.09119E+02-3.18686E+01
 -1       177-5.22848E+01-9.18278E+01-2.43227E+01-9.87559E+00 1.88311E+01-2.17286E+00
 -1       178 4.66716E+01-5.46577E+01-3.76561E+01-1.74392E+01-4.07276E+01-1.70268E+01
 -1       179 1.77016E+02-3.74672E+01 4.94968E+01-3.96133E+01 2.02090E+01-9.59408E+01
 -1       180 5.21510E+01-4.21576E+00 1.82642E+01-1.28734E+01 1.05015E+01-2.19467E+01
 -1       181-1.54759E+02-1.24046E+02-8.69137E+01-7.47612E+01-9.62486E+01-1.03117E+02
 -1       182 6.88356E+00-9.79842E+00 9.44258E+00 2.30593E+00-1.74735E+00-2.58065E+00
 -1       183-6.10780E+01-1.39298E+02-4.00763E+01 1.82373E+01 3.28040E+01-2.02273E+01
 -1       184 1.33867E+01-1.22169E+01 5.61028E+00 1.95880E+01-2.70886E+00-8.25206E+00
 -1       185-6.62435E+00-7.27886E+00-1.63872E+01 2.44490E+01 1.59238E+01-1.08311E+01
 -1       186-1.79302E+02-1.03977E+02-3.25400E+01 9.06178E+00-6.71100E-01-7.10509E+01
 -1       187-4.12943E-01-1.79596E+01 1.93294E+00 6.73016E+00 1.20916E+01 9.80163E-01
 -1       188-2.25111E+01-9.06315E+01-1.10575E+01 5.61080E+00-1.60982E+01 9.17508E+00
 -1       189-2.43694E-01-1.64474E+01 7.32160E+00 2.52412E+01-4.36979E+00 1.32389E+01
 -1       190-2.31736E+01-1.38618E+01-1.25324E+01 5.41242E+00-1.36183E+01 9.20580E+00
 -1       191 1.32186E+00-2.74121E+00-1.29292E+00-4.50340E+00-5.10248E+00 2.54308E+00
 -1       192-1.56724E+02-9.50618E+01-2.98705E+01-6.37620E+01-3.02830E+01-4.46001E+01
 -1       193 1.16131E+01 7.21821E+00 7.87106E+00-3.31629E+00 1.13552E+00 1.19202E+01
 -1       194 2.05542E-01-1.73117E+00-7.54893E-01-5.28649E+00 9.39851E-01 1.01335E+01
 -1       195-1.08431E+01-6.55610E+00-6.16172E+00-3.16265E+00 6.60033E-01-1.17678E+01
 -1       196 4.45049E+00 5.28347E+00 5.98878E+00-4.96247E+00 2.55404E-01-1.00866E+01
 -1       197 5.73044E+00 8.42913E+00 4.32128E+00 3.15138E+00 1.14659E+01 2.25696E+00
 -1       198-2.72814E+00-7.04641E+00-2.12537E+00 3.10831E+00 7.11246E+00 4.15141E+00
 -1       199 8.17289E+00 1.12198E+01 6.28099E+00 2.16969E+00-1.11273E+01-1.08123E+00
 -1       200-6.77523E+00-1.28898E+01-3.94364E+00 1.20115E+00-9.88788E+00-6.19374E-01
 -1       201-1.46245E+01-1.36240E+01-1.39225E+01-1.56267E+00 6.68709E+00 8.28216E+00
 -1       202-3.36165E+01-3.13911E+01-2.73682E+01-5.01488E+00 8.95045E+00 1.09064E+01
 -1       203 2.96114E+01 2.97350E+01 2.49848E+01-4.46206E+00 9.30662E+00-7.93163E+00
 -1       204-1.13621E+00-3.02574E+00 3.59082E+00 2.88141E+00 4.98235E+00-4.00134E+00
 -1       205-1.06891E+01-1.20340E+01-1.20247E+01 9.13862E-01 8.86907E+00-2.38615E+00
 -1       206-3.07545E+01-3.92831E+01-2.94858E+01 3.57709E+00 1.38502E+01-4.20147E+00
 -1       207 2.13691E+01 2.20011E+01 1.82589E+01-3.53355E+00-1.00211E+01 9.14536E+00
 -1       208-9.52653E-01-2.87044E+00 5.42443E+00 2.57824E+00-3.56780E+00 4.51543E+00
 -1       209-3.55243E+01-2.61147E+01-2.59500E+01 1.30767E+00-1.32632E+00 1.34673E+01
 -1       210 4.95660E+00 7.35812E-01 6.03678E+00 2.17924E+00-2.63289E+00 6.52248E+00
 -1       211-3.18825E+01-2.47585E+01-2.38459E+01-2.72323E+00 3.42213E+00 1.12811E+01
 -1       212 6.60040E+00 5.73012E+00 9.84235E+00 8.88473E-01-2.73077E+00 6.00037E+00
 -1       213-2.38534E-02-5.80556E+00-2.53532E+00-2.42288E+00 5.13769E+00 9.72903E+00
 -1       214-1.46588E+01-7.53305E+00-9.58328E+00 4.93912E-01-6.54496E+00 8.17550E+00
 -1       215-9.17463E-01-5.54464E-01 3.78641E+00-1.00075E+00 5.78975E+00 4.61001E+00
 -1       216 1.98877E+00 9.27295E-01 4.23377E+00 6.87318E-01-7.03906E+00 2.37003E+00
 -1       217-4.91210E+00-8.15852E+00-5.55969E+00-1.03892E+00 8.81309E+00 4.20877E+00
 -1       218-6.94289E+00-9.86701E+00-3.57858E+00 2.61115E+00-1.05141E+01 2.41304E+00
 -1       219-2.64388E+00-1.06024E+01-5.05020E+00 3.84952E+00 1.08396E+01 2.81287E+00
 -1       220 6.38744E+00 6.38860E+00 9.53251E+00 3.00317E-01-6.76928E+00 7.26934E-01
 -1       221-2.14455E+01-3.73144E+01-2.44712E+01-2.39959E+00 1.08696E+01-3.10222E-02
 -1       222-7.02549E+00-1.40763E+01-7.74380E+00 1.73305E+00-1.31043E+01-3.37181E+00
 -1       223-7.66978E+00-1.19437E+01-5.15563E+00-1.99333E+00-6.34972E+00-3.81563E+00
 -1       224-7.46973E+00-1.09581E+01-3.15514E+00 2.82180E+00 8.59737E+00-4.56079E+00
 -1       225-5.73885E+00-6.02893E+00-2.57270E+00-1.62896E+00-7.68006E+00-5.00195E+00
 -1       226 2.62069E+00 4.10462E+00 4.13930E+00 4.88338E-01-6.88735E+00-8.57976E+00
 -1       227-3.46718E+01-3.01981E+01-2.73103E+01 4.78016E+00 8.74213E+00-1.06526E+01
 -1       228 5.85495E+00 4.61942E+00 8.33157E+00-4.69847E-01-2.74063E+00-6.00083E+00
 -1       229 4.41260E+00 5.69420E+00 8.20064E+00 5.89927E-02 2.99381E+00-7.42406E+00
 -1       230-6.05191E+00-6.39180E+00-4.11561E+00-2.77970E+00-3.71504E+00-1.05868E+01
 -1       231-3.30743E+01-2.46885E+01-2.43181E+01 1.93852E+00 4.24705E+00-1.40004E+01
 -1       232-3.85132E+01-2.84716E+01-2.82006E+01-1.88370E+00-1.32437E+00-1.34475E+01
 -1       233 1.69438E+01 5.22872E+00 9.24017E+00-1.72303E+00 4.93089E+00 9.39482E+00
 -1       234 8.81022E-01-1.27780E+00-4.25800E+00 5.09726E-01 1.85775E+00 6.54298E+00
 -1       235 1.04241E+01 1.14686E+01 4.26996E+00 2.18886E+00 7.10220E+00 1.99905E+00
 -1       236 1.33414E+01 5.99835E+00 8.89514E+00 7.93097E+00 9.66566E+00 2.21862E+00
 -1       237 2.32321E+01 2.46397E+01 2.01540E+01 4.24307E+00 1.05628E+01 8.02080E+00
 -1       238 2.91346E+01 2.47753E+01 2.26961E+01-3.66569E+00 6.61526E+00-1.23758E+01
 -1       239-6.89834E-01 2.18070E-01 1.96703E-02 1.36302E-02 5.45114E+00-4.99866E+00
 -1       240 3.53574E+00 1.21712E+00-1.10489E+00-1.66481E+00 3.86396E+00-7.61598E+00
 -1       241 1.27050E+01-6.87395E+00 7.19984E+00-2.76103E+01-8.62570E+00-1.01025E+01
 -1       242-3.67317E+01-2.01062E+01 3.59483E+00-3.76508E+00 4.50922E+00-3.77547E+00
 -1       243-8.13244E+00-2.36094E+01-1.32040E+00 2.52954E+00 9.62152E+00-4.94820E+00
 -1       244-2.62554E+01-8.82518E+00 1.95142E+00 6.34109E+00 1.44818E+01-1.36178E+01
 -1       245-1.23999E+00 3.14897E+01-3.11841E+01-4.22613E+01-2.13114E+01-1.77997E+01
 -1       246 1.31621E+01 2.43059E+00 1.96130E+01-7.05694E+00 1.61137E+01-7.08540E+00
 -1       247 5.60812E+00 7.32232E+00 1.45631E+00-1.91374E+00 7.13142E+00-1.36845E+00
 -1       248-1.80908E+00-4.85696E+01 6.61537E-01-1.08775E+01 1.76172E+00 1.93855E-01
 -1       249-7.34490E+00-4.63634E+00 1.65768E+01-6.11671E+00-1.24157E+01 9.38255E-01
 -1       250 6.27619E+00 6.56628E+00 9.95855E-01 2.94532E+00-7.19042E+00-1.92109E+00
 -1       251-1.46817E+01-1.54318E+01 4.51492E-01 1.00992E+01 3.12768E-01-1.16610E+01
 -1       252 5.61328E+00-5.66871E-01 1.44973E+01 5.90752E+00-3.63639E+00-8.38581E+00
 -1       253 9.69583E+00 1.07686E+01 5.37977E+00 2.74178E+00-6.01063E+00-4.49331E+00
 -1       254 9.23615E+00 1.28107E+01 9.96251E+00 3.12926E+00-8.12046E+00-9.78892E+00
 -1       255 3.15756E+01 2.51196E+01 2.38687E+01 3.92725E+00-5.23759E+00-1.19727E+01
 -1       256 8.69869E+00 4.05875E+00 6.84435E+00-2.67919E+00-3.65347E+00-9.57915E+00
 -1       257 1.14036E+00 4.56041E-01 1.74520E+00-1.30120E-01-2.04446E-01-6.59896E+00
 -1       258-1.41886E+01-5.32713E+01 5.23804E+00-1.76468E+01 2.14012E+01-9.34419E-01
 -1       259 5.70173E+01-1.91720E+00 3.00978E+01-7.53237E+00-9.78531E+00-5.83326E+00
 -1       260-2.37764E+01-2.46113E+01-1.40718E+01-5.25016E-01 8.72330E+00 9.47714E+00
 -1       261-6.62336E+01-8.10484E+01 1.01241E+01-3.21578E+01-3.71051E+00-9.94480E+00
 -1       262-1.69034E+01 1.86611E+01 2.62745E+01 4.36978E+00-2.21307E-01-1.24567E+01
 -1       263-4.37011E+00-1.23688E+01-8.01839E+00-2.94813E+00 6.53676E+00 5.50714E-01
 -1       264-2.64941E+01-2.96672E+01 1.25182E+01-1.83086E+01 4.83300E+00 4.43003E+01
 -1       265 4.14007E+01 4.23755E+01 1.37541E+01 6.61108E+01 5.23858E+01 9.97872E+00
 -1       266-1.38205E-01 5.49183E+01-1.10797E+01 1.53444E+01 1.18275E+01 1.02832E+01
 -1       267-5.10188E+00-1.11274E+01-3.37187E+00 1.21306E+01-1.64761E+01 8.14189E+00
 -1       268 5.19733E+01-1.22815E+00 1.34830E+01-2.85073E+01-3.36645E-01 1.13544E+01
 -1       269-6.80870E+00-8.43432E+00-1.32572E+01-1.28469E-01-2.42827E-01 7.23821E+00
 -1       270 3.55789E+01 1.79184E+01 2.32105E+01 1.10884E+00-3.43651E+00 8.65835E+00
 -1       271-1.18724E+01-2.52989E+01-2.24882E+00 1.10225E+00 1.10231E+01 6.62890E+00
 -1       272-1.00302E+02-8.99823E+01 4.44276E+00-3.74824E+01-2.56916E+01 2.64492E+01
 -1       273 3.06106E+01 2.32011E+01 2.26548E+01-3.20883E+00-5.10394E+00 1.18183E+01
 -1       274 8.23245E+00 1.35671E+01 8.35420E+00-3.19500E+00-6.15174E+00 7.17697E+00
 -1       275-6.76655E+01-2.46437E+01-2.10289E+00 1.79970E+01-1.64796E+01 1.75032E+01
 -1       276 2.74932E+01-1.90432E+01 1.06832E+01-8.87440E+00-1.71819E+01 2.02263E+01
 -1       277-2.84983E+01-1.08574E+01 4.66349E+00 1.92335E+00 5.81292E+00 1.23721E+01
 -1       278 8.92923E+00-1.99212E+01 1.36589E+01 1.37213E+01-2.35432E+00 1.56380E+01
 -1       279 2.86403E+01 3.22138E+01 2.56196E+01-4.23106E+00-1.24841E+01 5.80078E+00
 -1       280-3.57817E+00-3.01087E+01 2.72948E+01-1.12254E+01-1.24280E+01-1.15965E+01
 -1       281-6.21530E+00 6.66034E+01-2.03599E+01-3.55559E+01-3.08629E+01 3.55378E+01
 -1       282 3.15018E+00 7.83404E+00 3.85986E+00 2.31215E+00-1.04019E+01 3.11119E+00
 -1       283-3.45938E+01-5.79240E+01 2.70161E+00 1.79236E+01-3.10966E+00-7.12006E+00
 -1       284-1.27733E+01-1.84355E+01 8.85739E-01 3.97376E+00-7.99261E+00 1.28839E+00
 -1       285 2.76317E+01 3.87061E+01 2.79282E+01-9.89917E-01-1.33937E+01 2.16050E+00
 -1       286 1.92139E+01 2.85135E+01 2.68661E+01 1.94757E-01-7.35632E+00-5.24230E+00
 -1       287-8.24144E+00-5.45613E+00 1.03539E+01 3.66501E+00-1.33004E+01-5.37507E+00
 -1       288 7.67531E+00 2.64620E+00 6.29407E+00 4.28998E+00-1.13280E+01-2.53398E+00
 -1       289-2.46316E+02-6.20216E+01 9.09622E+00 2.66860E+00 5.57785E+01 2.90122E+01
 -1       290-2.34507E+02-6.48824E+01 4.23409E+01 3.25411E+00-3.56791E+01 1.67496E+01
 -1       291-1.16339E+02-1.11504E+02 1.47293E+01-2.05396E+01-3.29300E+01 2.74009E+01
 -1       292-2.49266E+02-1.05690E+02-5.48755E+00-8.39642E+01 1.91351E+01-4.94077E+01
 -1       293-9.23788E+02-6.92366E+02 1.23144E+02-5.01218E+02 1.17446E+01 2.44605E+02
 -1       294-2.30023E+02-2.99228E+02 1.36385E+02-1.50625E+02-6.08685E+01-6.14129E+01
 -1       295-5.12077E+01-3.73838E+01 2.24441E+01-2.54344E+01-1.06789E+01 2.08646E+00
 -1       296-1.29914E+02-3.91819E+02 4.75075E+01-1.25244E+02 3.60546E+01-3.75823E+01
 -1       297-7.77078E+01-3.78140E+02 6.09744E+01-1.98411E+01 8.03199E+00 5.23970E+01
 -1       298-8.14882E+01-2.02640E+02 2.75983E+01-7.09816E+00-1.98152E+01-3.78162E+01
 -1       299-1.33487E+02-4.46428E+02 9.64870E+01 5.57104E+01 8.44468E+01 4.86551E+01
 -1       300-1.88740E+01-1.85214E+02-6.42330E+01 1.42842E+01-1.78693E+01-1.01662E+01
 -1       301-8.88233E+01-1.26816E+02 1.96004E+01 7.58468E+01 2.31599E+01-1.07089E+01
 -1       302-2.01985E+02-2.16444E+02 6.85106E+01 1.52020E+02-1.70730E+01-3.23320E+01
 -1       303-1.84743E+02-3.57818E+01 1.05062E+01 4.07419E+01 1.23985E+01 4.51144E+01
 -1       304-1.54345E+02-4.92712E+01 5.19414E+01 2.24840E+01-3.18797E+00-3.95056E+00
 -1       305-5.68537E+02-8.81113E+01 9.51509E+01-1.28124E+01 7.64368E+01-9.10225E+00
 -1       306-1.33979E+02-7.35438E+01 2.96939E+01-2.50561E+01-2.63337E+01-9.60702E+00
 -1       307-1.60376E+02-5.25679E+01 4.67307E+01-4.15359E+01-6.99879E-01 1.79890E+01
 -1       308-1.73534E+02-1.10738E+02 2.64003E+01-4.34595E+01 5.55023E+01 1.13727E+01
 -1       309-2.04991E+02-1.69042E+02 4.47417E+01-1.42310E+02-3.83061E+01-1.50261E+01
 -1       310-2.89174E+02-2.08510E+02 9.27982E+01-1.39173E+02 2.17934E+01-5.14075E+01
 -1       311-3.99414E+01-1.31419E+02 2.94887E+01-1.31153E+01-1.23601E+01-2.14483E+01
 -1       312-2.44132E+01-1.69297E+02-9.23123E+00-4.86275E+01 3.34737E+01-9.78196E+00
 -1       313-5.43889E+01-3.38161E+02 6.94666E+01 1.69809E+01-1.49301E+01 4.22247E+01
 -1       314-6.37831E+00-1.36798E+02 2.61395E+01 7.57898E+00 3.99858E+00-1.41997E+00
 -1       315-3.70328E+01-8.85345E+01 3.53144E+01 1.71289E+01 1.25718E+01 6.26967E+00
 -1       316-1.14007E+02-4.35049E+02 7.64195E+01 1.17713E+02-4.06914E+01-4.43344E+01
 -1       317-8.11231E+01-1.91665E+02 7.20742E+01 1.24749E+02-2.25481E+01-3.65241E+00
 -1       318-2.21698E+02-2.59590E+02 5.77078E+01 1.38756E+02-4.66987E+01-4.60991E+01
 -1       319-1.50737E+02-5.82889E+01 7.26744E+01 3.84558E+01-1.10369E+01-1.08790E+01
 -1       320-3.89877E+02-9.39198E+01-2.53548E+01 1.16445E+02-7.25850E+00-1.00422E+02
 -1       321 3.59274E+01 2.59863E+01 2.60657E+01 5.60008E-01 2.41177E+00 1.20140E+01
 -1       322 1.48583E+00-2.21905E+00-6.86794E-01 2.30352E+00 1.76552E+00 9.77085E+00
 -1       323 1.49449E-02 4.36003E+00 9.74995E+00-1.30299E-01 1.50584E+00-6.58108E+00
 -1       324-1.66925E+00 3.14913E+00-3.04910E+00-2.49207E+00 8.42739E+00 7.72531E-01
 -1       325 3.34769E+01 3.39961E+01 2.84061E+01-5.38317E+00 9.84631E+00-8.08047E+00
 -1       326-7.14212E+00-2.64698E+00 4.07185E+00 2.62054E+00-1.53027E+00 3.50305E+00
 -1       327-3.79636E+01-2.89512E+01-2.81711E+01-3.33527E+00 2.70862E+00 1.03807E+01
 -1       328 5.05190E+00 9.15233E+00 1.07945E+01-2.28374E+00-4.77291E+00 5.22026E+00
 -1       329-1.95446E+01-1.32413E+01-1.34351E+01-9.35745E-01 4.67298E+00 6.38725E+00
 -1       330-2.36875E+01-2.06968E+01-1.86858E+01 3.27758E+00-7.30161E+00 8.89725E+00
 -1       331-1.09799E+01-1.31368E+01-7.88906E+00 3.04546E+00-6.99767E+00 7.24657E+00
 -1       332-1.64008E+01-2.45147E+01-1.82912E+01-2.18949E+00 7.64253E+00 6.83931E+00
 -1       333-7.79110E+00 1.21123E+00-4.39383E+00 3.02262E+00-8.00041E+00 3.01614E+00
 -1       334-3.19484E+01-3.48584E+01-2.81257E+01-5.37523E+00 1.03884E+01 5.55293E+00
 -1       335-3.35940E+01-4.44541E+01-3.28582E+01 2.97150E+00-1.30939E+01 3.97205E+00
 -1       336-2.92078E+01-3.55993E+01-2.72838E+01-4.39633E+00 1.23342E+01 4.56369E+00
 -1       337-1.57426E+00-8.16307E+00-2.08654E+00-3.32650E+00-6.66319E+00-7.44369E-01
 -1       338-7.84961E-01-3.51653E+00 1.50502E+00 3.62993E+00-8.99329E+00-7.45110E-01
 -1       339-4.07705E+00-4.53549E+00-1.99350E+00 3.54415E+00 1.01064E+01-1.89548E+00
 -1       340 1.54354E+00 1.39627E+00 1.98449E+00-4.26501E-01 7.12554E+00 5.20642E-01
 -1       341-4.73836E+00-8.48096E+00-3.33837E+00-2.18093E+00-9.55575E+00-2.68287E+00
 -1       342-1.15817E+01-4.25646E+00-5.15414E+00-7.15336E+00-1.08167E+01-4.17513E+00
 -1       343-2.62965E+01-2.98665E+01-2.36446E+01-4.17959E+00-9.60493E+00-5.81802E+00
 -1       344-2.96886E+01-3.36266E+01-2.66557E+01 4.70008E+00 1.32420E+01-7.07824E+00
 -1       345-2.43603E+00-5.85073E+00 4.20327E+00 2.38735E+00 5.80709E+00-3.18450E+00
 -1       346-1.06875E+01-1.70865E+01-8.34457E+00-2.45525E+00-5.87810E+00-5.98101E+00
 -1       347-2.81397E+00-2.06612E+00 1.25595E+00-1.63763E+00-5.35460E+00-5.90915E+00
 -1       348-4.77766E+00 2.90709E+00 2.45166E+00-7.84393E-01 3.54690E+00-5.52788E+00
 -1       349-3.51791E+01-3.07589E+01-2.77599E+01 5.08768E+00 8.70228E+00-1.04357E+01
 -1       350-1.08630E+00 7.05403E-01 2.67118E+00-6.43132E-01-2.50395E+00-5.95957E+00
 -1       351-5.07130E+00-1.35024E+00 4.78927E+00 1.66880E+00 3.76447E+00-3.67831E+00
 -1       352-8.51342E+00-4.44122E+00-4.17736E+00 1.73342E+00-2.75221E+00-1.05419E+01
 -1       353-9.87685E+00-8.78963E+00-7.58415E+00 3.22160E+00 2.74863E+00-9.35343E+00
 -1       354-9.34054E+00-5.25774E+00-5.52184E+00 3.94417E+00-6.52986E-01-1.02419E+01
 -1       355 5.50233E+00 6.21034E+00 4.82536E+00 2.19045E+00 4.82331E+00 8.92799E+00
 -1       356-8.50032E+00-8.22466E+00-1.06257E+01-2.75710E-01 6.32771E+00 3.06155E+00
 -1       357 1.41145E+01 9.32812E+00 1.00069E+01 2.45660E+00 6.72173E+00 6.23520E+00
 -1       358-3.23264E+00-1.60412E+00-2.17901E+00 7.94778E-02 5.99575E+00-5.43071E+00
 -1       359 5.93061E+00 3.40223E+00 4.73843E+00 8.08737E-01 3.79339E+00-1.14260E+01
 -1       360-2.72084E+01-3.88302E+01 1.11122E+01-5.23057E+00 4.45917E+00-4.11923E+00
 -1       361-8.19583E+01-1.67396E+01 4.06086E+00-3.75594E+00-1.74118E+00 2.28582E+01
 -1       362-1.00663E+01-1.01066E+01-1.12982E+01 9.03573E-01 8.59729E+00-3.76960E+00
 -1       363-1.08089E+01-1.85536E+01 1.18937E+01 3.44030E+01 3.61335E+01 4.94308E+01
 -1       364 2.19696E+00-7.98372E+00 2.85288E+00 4.19766E+00 1.66291E+00-9.77196E+00
 -1       365-1.52093E+01-8.15720E+00-3.02056E+01 3.64653E+01-9.58064E+00-3.56352E+01
 -1       366-2.17768E+01-2.56436E+01-2.78971E+00 1.49770E+00-2.21637E+00-5.22311E-01
 -1       367-6.06119E+00-1.62333E+01 2.14110E+00-1.39306E+00-8.40339E+00-8.56261E+00
 -1       368 3.73692E+01 3.47639E+01 3.03680E+01 5.55104E+00-9.39902E+00-1.14530E+01
 -1       369 1.10629E+01 9.43086E+00 9.41683E+00 1.38040E+00-5.95697E+00-1.02003E+01
 -1       370-1.40815E+00-1.60383E+00-8.12001E-01-2.61589E+00-1.53574E+00-1.00823E+01
 -1       371 4.47131E+00-2.13103E+01 1.39457E+01 1.12321E+01 6.76395E+00-1.01246E+01
 -1       372 5.62151E+00-2.27588E+01-8.53970E+00-9.10417E+00-1.13514E+01-1.89252E+01
 -1       373-5.97212E+01-9.32232E+01 4.22669E+00 1.90770E+01-2.26509E+01-7.54890E+00
 -1       374-4.23798E+01-2.76656E+01 4.47595E+00-9.54544E+00-2.53383E+00-1.15045E+01
 -1       375-2.52745E+01-3.02468E+01 9.73107E+00-1.64044E+01 2.06725E+01 1.63863E+00
 -1       376-3.63084E+00-4.08928E+00-1.37983E+00 3.54415E+00 9.79983E+00-1.85453E+00
 -1       377-1.70482E+01-5.04570E+01 1.41704E+00-1.95356E+01-2.41677E+00 1.95838E+01
 -1       378-3.10122E+01 3.71404E+00 5.79798E+00 9.07944E+00-1.24566E+01 1.05237E+01
 -1       379 5.89011E+01-4.85980E+01 1.28886E+00 6.12294E-01-2.21780E+01-1.01190E+01
 -1       380-2.21577E+01-1.30987E+01 1.77831E+00-4.79643E+00-3.80114E+00 1.99863E+01
 -1       381-1.35824E+01-5.33235E-01 1.47649E+00-5.55592E+00 7.61730E+00 9.38857E+00
 -1       382-2.12501E+01-1.64991E+01-1.79449E+01 7.11273E+00 3.93760E+00 1.34334E+01
 -1       383 3.36813E+00 2.34840E+00 2.07401E+00-9.75324E-01-5.24786E+00 5.07593E+00
 -1       384-2.63883E+01-2.30794E+01-7.96535E+00-4.77087E+00-5.23311E+00 9.25770E+00
 -1       385-1.95570E+01-1.54917E+01-1.11725E+00 2.69476E+00 6.71382E+00 3.44109E+01
 -1       386 9.54389E-01 3.71530E+01-6.73651E-01-5.78324E+01-2.62766E+01 4.75356E-01
 -1       387-9.10105E+00-2.71586E-01 8.46471E+00 2.64937E+00-1.18354E+01 7.98273E+00
 -1       388-3.63022E+01-2.43594E+01 2.34307E+00-9.80332E+00 4.62456E+00-1.93954E+01
 -1       389-2.83985E+01 3.17037E+01 9.18780E+00 2.28002E+00 1.93874E+01 8.82588E+00
 -1       390-1.69327E+01 4.42831E+00 7.33093E+00 1.98916E+00-1.43872E+01 2.07855E+00
 -1       391 3.46786E+01 4.70132E+01 3.43922E+01-2.07507E+00-1.21279E+01 1.19441E+00
 -1       392-2.39345E+01-3.73135E+01-4.44021E+00-5.34300E+00-7.21560E+00 2.78869E-01
 -1       393-6.34052E+01-2.94924E+01 7.97562E+00-5.64991E+00 1.59515E+00 1.78470E+00
 -1       394-7.65736E+01-3.22084E+01-4.80692E+00 1.83053E+01 1.69207E+01 1.66786E+01
 -1       395-8.53674E+00-3.22535E+01 1.61193E+00-1.24860E+01 7.23415E+00 6.33368E+00
 -1       396-5.87663E+01-8.58615E+01-1.48382E+01-2.43875E+01 4.04980E+00 4.78394E+01
 -1       397-5.63563E+01-6.72708E+01 4.52665E+00 1.01541E+01 4.17758E+00 4.64590E+01
 -1       398-5.53640E+01-6.13057E+01-5.98836E+00-5.48978E+00 6.67749E+01 4.41935E+01
 -1       399-4.91692E+01-3.53277E+01 4.63457E+00 8.02474E+00-1.11162E+01 1.09723E+01
 -1       400 7.28599E+00-4.51673E+00 4.96910E-01 2.93476E+00-3.75878E+00 2.37491E+00
 -1       401-2.92756E+01-3.40497E+01 2.74222E+00 8.06000E+00 2.26080E+00-2.14293E+01
 -1       402-3.13630E+01-4.32025E+01 2.96741E+00-1.51547E+01-9.72421E+00 1.56424E+01
 -1       403-2.13590E+01-5.09616E+01-9.20159E+00-7.48466E+00-6.63258E+00 1.75769E+01
 -1       404-3.47641E+01-3.18181E+01-2.49154E+00-7.90396E+00-5.96398E+00 9.32107E+00
 -1       405-1.39756E+01-1.77597E+01-7.38987E+00-7.32231E-01-1.52945E+01-1.14458E+01
 -1       406-1.63110E+01-5.02742E+01 5.09150E+00 1.70753E+01 9.91809E+00-1.16813E+01
 -1       407 3.31596E+01 4.50396E+00 4.06931E+00 2.14721E+00-1.16867E+00-4.29293E+01
 -1       408 2.65695E+01-1.18716E+01-2.91443E+00-5.32540E+00-3.91592E+00-8.60441E+00
 -1       409-2.59967E+01 1.71359E+00 1.80123E+01 1.18737E+00 4.10759E+00 6.84477E+00
 -1       410-2.19942E+01-9.54985E+01-4.56865E+00-1.02913E+01-1.61411E+01 1.02808E+01
 -1       411-3.87980E+01-1.18504E+02-1.47335E+00-6.37409E+00 3.11687E-02-1.71677E+01
 -1       412-1.40927E+01-3.32742E+01 3.21515E+00-8.02061E+00-4.41595E+00-4.52983E+00
 -1       413-5.57247E+00 1.46713E+01-3.01493E+00 1.12873E+01 8.64182E+00 1.42056E+00
 -1       414-6.22650E+00-8.80645E+00 6.92074E+00-1.26506E+01 5.42568E+00 1.33453E+01
 -1       415-2.90821E+01-2.71064E+01-1.71572E+00-2.21616E+01-8.61725E+00 2.03474E+01
 -1       416-4.26292E+01 3.37726E+00-2.39242E+00 2.19836E+01-5.62723E+00 1.30296E+01
 -1       417-2.99253E+00-3.26484E+01-6.69524E+00-4.87697E-01-2.16507E+01-1.24421E-03
 -1       418-1.05736E+01-8.34416E+01 9.22861E-01-2.06056E+01 8.32383E-01 6.47761E+00
 -1       419-2.74160E+01-1.27436E+01 1.06696E+01-1.11005E+01 2.18179E+00 3.31009E+01
 -1       420-9.48854E+00-1.71459E+01-9.48783E+00-8.84949E+00 1.33614E+00 1.64234E+01
 -1       421 4.20508E+00-8.40659E+00-5.16283E-02 2.12848E+00 3.84370E+00-4.95470E+00
 -1       422-2.20169E+01-1.80164E+01-1.27690E+01 1.48041E+00 1.24136E+01-2.14784E+00
 -1       423-1.49807E+01 1.14904E+01-1.66076E+01 2.85249E+01-5.19653E+01 4.73025E+00
 -1       424-4.17385E+01-3.00714E+01-3.16637E+00 2.48474E+00-1.38544E+01 6.01999E+00
 -1       425-6.82654E+01-6.13484E+01-4.47192E+00 1.52277E+01 3.13826E+01-8.13097E+00
 -1       426 3.00373E+00-6.08553E+00 1.07736E+01-2.20194E+00 2.04796E+01-6.80889E+00
 -1       427-4.76032E+01-3.07335E+01-5.64690E+00 6.33534E+00-2.61252E+01 7.53415E+00
 -1       428-2.38113E+00-1.69310E+00 7.72280E-01-6.38381E+00-4.87591E+00 1.51369E+01
 -1       429-9.75893E+00-5.22009E+00 4.53125E+00-3.66396E+01 1.53143E+00-6.33439E+00
 -1       430-2.03811E+01-7.47493E+00-2.79482E-01-1.50864E+00 6.62607E+00 5.94815E+00
 -1       431-2.27132E+01-1.47484E+01-6.16271E+00-7.95597E+00-5.13423E+00 1.06263E+01
 -1       432-5.82300E-01 9.98929E+00 1.97837E+01-1.79743E+01-8.52012E+00-2.00683E+00
 -1       433-7.11741E+01-1.96709E+01 2.71891E+01-5.13273E+00 2.68531E+01-2.68991E+01
 -1       434-6.61850E+01-1.36265E+01-8.95249E+00-2.79330E+01 5.38774E+00 2.19864E+01
 -1       435-2.29658E+01-8.58053E+00 1.80776E+01-4.27901E+00-2.42162E+00 8.33432E+00
 -1       436-2.78214E+01-2.78560E+01-3.31660E+00-5.15152E+00-7.28179E+00 3.44249E+00
 -1       437-1.43183E+01 6.77831E+00-6.69070E+00-1.34870E+00-1.56439E+01 4.93027E+00
 -1       438-1.45316E+01-1.91154E+01 5.64586E+00 3.19265E+00-1.15294E+01 4.67737E+00
 -1       439-1.38032E+01-3.22547E+01-1.71490E-01-7.59993E+00-1.77594E+01 2.03251E+00
 -1       440-2.89352E-02 1.10972E+00 2.52549E+00-3.15934E-01 1.41518E+00 5.75945E+00
 -1       441-1.52225E+01-1.28224E+01-1.24252E+01 1.39438E+00 1.92206E+00 1.23685E+01
 -1       442-6.30238E+00-3.35206E+00-4.59249E+00-1.03166E+00 3.59672E+00-9.95893E+00
 -1       443 5.32316E+00 4.80371E+00 4.88134E+00-7.68377E-01 1.83111E+00-8.21361E+00
 -1       444 3.01596E+01 2.20060E+01 2.19617E+01-1.05731E+00 1.06604E+00-1.24021E+01
 -1       445 1.85977E+01 2.80360E+01 1.96328E+01-9.73305E-01 1.26423E+01 1.09478E-01
 -1       446 1.42195E+00 8.22173E-01 3.39200E+00-6.77017E-01 7.58514E+00 9.88238E-01
 -1       447-9.26991E+00-1.03894E+01-9.27758E+00-2.39401E+00 1.00054E+01 4.91052E-01
 -1       448-6.35952E+00-7.35963E+00-8.29643E+00 7.86554E-01-9.52239E+00-9.86285E-01
 -1       449-1.40200E+00 1.46570E+00-3.95169E-01-4.16598E+00-1.26090E+01-8.18764E-01
 -1       450-1.37829E+00 1.48941E+00-3.62554E-01-4.16598E+00-1.26863E+01-8.29721E-01
 -1       451-2.90356E+01-4.01053E+01-2.91083E+01-1.72573E-01-1.47034E+01-1.44806E+00
 -1       452-3.42413E+00-2.52362E-01-9.67749E-01 6.46831E-01 4.04782E+00 6.24536E+00
 -1       453 1.43606E+01 7.24219E+00 7.11078E+00 1.76946E+00 6.68760E+00 6.21798E+00
 -1       454-5.64172E+00-9.75098E+00-6.57977E+00-1.92253E+00 6.05928E+00 7.15034E+00
 -1       455-3.97058E+01-3.78694E+01-3.26592E+01-6.11614E+00 9.04737E+00 1.09543E+01
 -1       456 2.22861E+01 2.35669E+01 1.93041E+01-3.56597E+00 8.99344E+00-7.38055E+00
 -1       457 4.52964E+00 6.02106E+00 7.25399E+00 1.47990E-01 7.19520E+00-4.72982E+00
 -1       458 7.75577E+00 6.23524E+00 1.02887E+01 5.04776E-02 5.81796E+00-4.68244E+00
 -1       459 4.46857E+00 7.06336E+00 1.67318E+00-1.55624E+00 7.20429E+00 3.33528E-01
 -1       460 5.51767E+00 9.82734E+00 3.66908E+00-1.21560E+00 6.84790E+00-2.77042E+00
 -1       461-1.31032E+01-1.89965E+01-7.75026E+00 3.23067E+00 8.82890E+00-1.74740E+00
 -1       462-6.61490E+00-1.13874E+01-5.31702E+00 3.41389E-01 1.08789E+01-2.56015E+00
 -1       463 1.61674E+01 1.98450E+01 1.51613E+01-3.48584E+00-1.20508E+01 9.29451E+00
 -1       464 1.80206E+01 1.83894E+01 1.53286E+01-2.89607E+00-8.54929E+00 7.01606E+00
 -1       465-7.17231E-02-2.80631E-01 4.10504E+00 1.29244E+00-6.20893E+00 4.29488E+00
 -1       466 2.09456E+00 2.48315E+00 5.19979E+00 6.80077E-01-7.31894E+00 5.93416E+00
 -1       467-2.79950E+01-1.98327E+01-2.01355E+01 2.31285E+00-1.48291E+00 1.29775E+01
 -1       468-1.55733E+01-8.31287E+00-1.02477E+01-2.46146E+00-1.05004E+00 1.22412E+01
 -1       469-2.84050E+01-2.28204E+01-2.15659E+01 3.10507E+00-3.89162E+00 1.28288E+01
 -1       470-4.26647E+01-3.23441E+01-3.15787E+01-2.61907E+00 2.99211E+00 1.29572E+01
 -1       471-1.61812E+00-7.27977E-01 2.88949E+00 1.30704E+00-3.90338E+00 4.69128E+00
 -1       472 3.43751E+00 4.32469E+00 5.71207E+00-4.78089E-01 2.48139E+00 4.44945E+00
 -1       473-2.95438E+00-3.00498E+00 2.94464E+00-2.12236E+00 4.19500E+00 3.51241E+00
 -1       474-7.21036E+00-8.44783E+00-5.34084E+00 2.68370E+00-1.03577E+01 5.95868E+00
 -1       475-9.34857E+00 1.56598E+00-3.14920E+00-3.58722E+00 6.65579E+00 3.03215E+00
 -1       476-2.18716E+00-9.00349E+00 1.41683E+00 5.32288E-01-7.27762E+00 5.45499E+00
 -1       477 3.76888E+00 2.75355E+00 6.32324E+00-1.10004E+00 6.42660E+00 2.59067E+00
 -1       478-2.45569E+00-5.35980E+00 2.02368E+00-1.66584E+00-3.20242E+00-2.44129E+00
 -1       479-2.35281E+01-2.56130E+01-2.06884E+01-3.75083E+00-8.17952E+00-6.71260E+00
 -1       480-3.33533E+00 1.65744E+00-1.79452E+00-8.50781E-01-6.28767E+00-5.77909E+00
 -1       481-1.54659E+01-1.31425E+01-1.04419E+01-2.28536E+00-4.63820E+00-8.14726E+00
 -1       482-1.59374E+01-1.06827E+01-1.09111E+01 9.40552E-01 4.08178E+00-8.79377E+00
 -1       483-1.75413E+01-1.14221E+01-1.11177E+01-1.02617E-01-3.11868E+00-7.15137E+00
 -1       484-3.71180E+01-2.72889E+01-2.71153E+01 2.41763E+00 2.66010E+00-1.23070E+01
 -1       485-8.04733E+00-7.02367E+00-5.79606E+00-2.84800E+00-1.46304E+00-9.87062E+00
 -1       486 3.52541E+01 2.98934E+01 2.74271E+01 4.11663E+00 6.59900E+00 1.09378E+01
 -1       487-2.35647E+00-4.02430E+00-5.62702E+00-6.88707E-01 9.38748E-01 5.03357E+00
 -1       488-1.07258E+00-3.16566E+00-3.29119E+00-8.62984E-01 1.60283E+00 7.34001E+00
 -1       489 5.95492E+00 1.74999E+01 1.00648E+01-5.55578E-01 9.16130E+00 5.00421E+00
 -1       490-7.42649E+00-7.86637E+00-5.10120E+00-1.64420E+00 7.21674E+00 2.31015E+00
 -1       491 2.52899E+01 3.31985E+01 2.46236E+01 2.01846E+00 1.28500E+01 3.91342E+00
 -1       492 2.56102E+01 2.81100E+01 2.26162E+01 4.07841E+00 9.56984E+00 7.85358E+00
 -1       493 2.86247E+01 2.44354E+01 2.23383E+01-4.10267E+00 6.56568E+00-9.94405E+00
 -1       494 8.00102E+00 9.14445E+00 7.54298E+00-1.87338E+00 5.01278E+00-1.05195E+01
 -1       495 1.25104E+01 2.03306E+01 1.38884E+01-4.80929E+00 6.22952E+00-8.36524E+00
 -1       496-1.09675E+01-1.05215E+01-1.44857E+01 1.74584E-01 1.90197E+00-7.96809E+00
 -1       497-2.25348E+00-1.65411E+01-3.06425E+00-3.57720E+00-2.36545E+00-1.01771E+01
 -1       498 1.57851E+00-4.98981E+01 1.96862E+00-2.27601E+01-2.73161E+01-5.15776E+00
 -1       499-2.86262E+01 1.36154E+01-6.28197E+00-2.79929E-01-1.40417E+00-6.65472E+00
 -1       500-1.83178E+01-8.39586E+00 7.31541E-01-3.63224E+00 7.29373E-01-1.31120E+01
 -1       501-1.91841E+01-5.79325E+01-8.88556E+00 2.30686E+01-1.66604E+00-9.51462E+00
 -1       502 3.92858E+00-2.49336E+01 7.20002E+00-1.93912E+00 1.38578E+01-1.43974E+01
 -1       503 1.25210E+01 1.36881E+01 2.99654E+00-2.55368E+01 9.20268E+00 1.64277E+00
 -1       504-3.93607E+00 4.90019E+00 5.85089E+00-6.14340E+00 7.86877E+00-8.87982E+00
 -1       505-1.44715E+01 2.11637E+01 1.48649E+00-3.90799E+01-3.42395E+01-6.80435E+00
 -1       506-5.67605E+00-1.35229E+01 4.62693E+00-6.91259E+00 1.02766E+01-3.08129E+00
 -1       507 1.97263E+01 2.34612E+01 1.81819E+01-2.85554E+00 1.04720E+01-5.59761E+00
 -1       508-5.36285E+01-1.99986E+01-1.00210E+01-8.35776E+00 1.92193E+00-7.98144E+00
 -1       509-1.46547E+01-4.90446E+00-3.94500E+00 3.88576E+00-1.36484E+00 1.29982E-01
 -1       510 3.19098E+01 3.86015E+01 2.96852E+01 4.46383E+00-9.54845E+00-5.10395E+00
 -1       511-3.68421E+00-2.31155E+00-6.54764E+00 7.63126E-01-5.51228E+00-3.16260E+00
 -1       512-2.86153E+01-2.43873E+01-7.70478E-01-2.34851E+01-1.85602E+01-2.97931E+01
 -1       513-1.96689E+00-2.17305E+00-4.98759E+00 6.67180E-01-5.18333E+00-4.33668E+00
 -1       514 9.71922E-01-2.74445E+00-2.71337E+00 1.02075E+00-7.24913E+00-5.71137E+00
 -1       515 2.72736E+01 2.49900E+01 2.20030E+01 3.98259E+00-8.58687E+00-1.04634E+01
 -1       516 2.79674E+01 2.26352E+01 2.13037E+01 3.02647E+00-5.32533E+00-9.96261E+00
 -1       517 9.23149E+00 8.13056E+00 6.64121E+00 2.39364E+00-2.78092E+00-7.46979E+00
 -1       518-1.58198E+00 5.04869E-01 1.48184E+00 1.75651E+00-2.41128E+00-9.30153E+00
 -1       519 4.80279E+00 4.45786E+00 4.31866E+00 2.60554E+00-8.51419E-01-1.10510E+01
 -1       520 6.38580E+00-7.68623E+00 3.82383E+00 1.10621E+01 5.00356E+00-1.78297E+01
 -1       521-4.92013E+01-4.56668E+01 1.91648E+01 1.34536E+01-8.29011E-01 1.67811E+01
 -1       522-8.67437E-01-7.57408E+00 7.52822E+00 1.16167E+00 1.97298E+01 5.24558E+00
 -1       523-1.07600E+01-1.07977E+01 7.32306E-01 7.02392E+00 6.56085E+00-5.20366E+00
 -1       524-3.57330E+01 4.01767E+01 1.14990E+00 8.81390E+00-3.28918E+01-1.29019E+01
 -1       525 1.87981E+01 2.50150E+01 1.84453E+01-2.11442E+00 1.08207E+01-1.06567E+00
 -1       526-2.47193E+01-3.67578E+01 3.19008E+00 4.19599E+00 3.19052E+00 2.91607E+00
 -1       527-2.29446E-01-1.84458E-01 8.74716E+00 3.03091E+01 2.84030E+01 9.15757E-01
 -1       528 1.13569E+01 4.23482E+01-2.92524E+01 6.33200E+01 1.32584E+01-2.19297E+00
 -1       529-3.25525E+01 1.72555E+01-1.20168E+00-1.70273E-01 1.61541E+01 1.96579E+01
 -1       530-5.88113E+00-1.20563E+01 2.00374E+00 3.66084E+00-3.42156E+00 9.85236E+00
 -1       531 1.57711E+01-2.01396E+01-6.35646E-01-1.26659E+01 4.01735E+00 1.53440E+00
 -1       532 1.20719E+01-6.48657E+01 9.11697E+00 2.65549E+01 1.98891E+01-1.58952E+01
 -1       533-2.55910E+00-1.58735E+00-3.69352E-01 5.96387E-01-1.39442E+00 8.43181E+00
 -1       534-5.82225E+00-3.79490E+00-7.59959E+00-1.79987E+00-7.33854E-02 8.27038E+00
 -1       535-7.84775E+00-7.90793E+00-1.31055E+01 7.01078E-01-3.35180E-01 8.15992E+00
 -1       536 2.25420E+01 1.67798E+01 1.65545E+01-1.27949E+00-2.86562E+00 9.44656E+00
 -1       537-1.83240E+01-9.75959E+00 3.71787E+00-3.39760E+00-1.05303E+00 1.29604E+01
 -1       538 2.85688E+01 2.17934E+01 2.12025E+01-2.52151E+00-5.17240E+00 9.67651E+00
 -1       539 3.77673E+01 3.68820E+01 3.15279E+01-8.32329E+00-5.53027E+00 8.96247E+00
 -1       540 2.43180E+00 8.63339E-01 1.61645E+00-1.28758E-01-6.55250E+00 6.27937E+00
 -1       541-6.48935E+01-4.54685E+01-6.53348E-01 1.37201E+01-7.84818E+00-7.49817E+00
 -1       542 4.93194E+00-7.47572E+00-1.83584E+00-1.24757E+01-1.09607E+01 1.47166E+01
 -1       543 7.63546E+00 8.26501E+00 7.40729E+00 7.79650E-01-1.14533E+01 6.53426E+00
 -1       544-1.21592E+01-1.86286E+01 7.75136E-01 6.24223E+00 1.53359E+00 2.20063E+01
 -1       545-1.34822E+02-4.41082E+01 9.14429E+00 4.78259E+00 1.62376E+01 4.96760E+00
 -1       546-4.12549E+01-5.16377E+01 1.31906E+01-1.92010E+01-6.43863E+00-1.89209E+00
 -1       547-9.03803E-01-1.75605E+01-2.88368E+00 1.30906E+01 9.98681E+00 2.49828E+01
 -1       548 5.03397E+00 1.24987E+01 6.38633E+00 4.52514E-01-9.18868E+00 4.07183E+00
 -1       549 1.84865E+01 3.45941E+00-2.00009E+00-8.13287E+00-1.93919E+01 1.49622E+01
 -1       550-1.90275E+01-5.97320E+00 5.94603E+00-1.21098E+01 2.03714E+01 3.54371E+00
 -1       551-1.54830E+01 1.44388E+00 7.36501E+00-2.27578E+00-1.30721E+01-7.23080E+00
 -1       552 9.48106E-01 4.37412E-01-1.60212E+00-1.64430E+00-1.04119E+01 3.86134E+00
 -1       553-1.08497E+01-1.28820E+01-1.22992E+01 2.93607E-01-7.41216E+00 3.02284E+00
 -1       554 6.52078E+00 1.02866E+01 6.70318E+00 2.29974E+00-1.26536E+01 1.07909E+00
 -1       555-3.96589E+01-3.26166E+01 8.46419E+00 9.67085E+00 1.07763E+01-8.55731E+00
 -1       556-1.60749E+01-1.51446E+01-4.59520E+00-6.96216E+00-6.54654E+00-7.40303E-01
 -1       557-5.51981E+01-2.76942E+01-2.74250E+00-5.63021E+00-3.47786E+00 7.64317E+00
 -1       558 5.71774E+00 7.35842E+00 5.33775E+00-2.46556E-01-1.18316E+01-3.89322E+00
 -1       559 6.19899E+00 1.37102E+01 1.03824E+01-2.76154E+00-1.05701E+01-3.68732E+00
 -1       560-7.71009E+01-2.96160E+01 1.65710E+01-1.86189E+00 5.71448E+00 4.31715E+00
 -1       561-6.19872E+02-1.09258E+02 6.01466E+01-3.72174E+01 7.62563E+01 5.28980E+01
 -1       562-9.90909E+01-4.47452E+01 1.86580E+01-2.03118E+01 1.41507E+00 3.01425E+01
 -1       563-1.42973E+02-9.04936E+01 6.23155E+01 4.64835E+00 1.75220E+00 2.41682E+00
 -1       564-1.09023E+02-1.61565E+02 8.57215E+00 2.07009E+01 3.25057E+01-4.26408E+01
 -1       565-4.05178E+01-3.05805E+01 1.20497E+01-5.83855E-01 4.73493E+00 9.07692E+00
 -1       566-2.35523E+02-1.76963E+02 5.83254E+01-1.17644E+02-2.50443E+01-1.95063E+01
 -1       567-9.89496E+01-3.45833E+01 1.22952E+01-5.22729E+01 7.69929E+00 2.14593E+01
 -1       568-1.39154E+02-1.10729E+02-2.26832E+01 2.44965E+01-4.89046E+01-1.06598E+02
 -1       569-2.74538E+02-2.55853E+02 8.40789E+01-1.78974E+02-3.61301E+01 3.93044E+01
 -1       570-3.38476E+02-2.91490E+02-1.46285E-01-2.14646E+02-1.44540E+02-5.12947E+01
 -1       571-1.08834E+02-1.19624E+02-2.43542E+00 9.42491E+00 8.13680E+01-1.50604E+01
 -1       572-1.24634E+02-2.04981E+02 5.28407E+01-7.48958E+01 1.21574E+00-1.29450E+01
 -1       573-9.79979E+01-1.15726E+02 2.16733E+01-4.62428E+01 3.59774E+01 3.83947E+01
 -1       574-1.14789E+02-1.32863E+02 1.92779E+01-1.92059E+01-2.62744E+01 3.58196E+01
 -1       575-8.78612E+01-1.45420E+02 3.77565E+01-7.68506E+01 1.71464E+01 6.19726E+00
 -1       576-8.10386E+01-2.21267E+02 4.68496E+01 3.01842E+01-3.99956E+00 1.17155E+00
 -1       577-2.93110E+01-1.36461E+02 2.91686E+00-1.94293E+01 5.38698E+01 9.05947E+00
 -1       578-1.10793E+02-5.80142E+02 7.31856E+01 1.62999E+00-2.53621E+00 7.61296E+01
 -1       579-4.19161E+01-1.68816E+02 2.71911E+01-2.69483E+00 2.09981E+01-2.65046E+01
 -1       580-7.60141E+01-2.33725E+02 4.38657E+01 5.59462E+01 1.38832E+01 3.42784E+01
 -1       581-1.33076E+02-2.87937E+02 1.83152E+01 7.69577E+01 4.75403E+01 2.38476E+01
 -1       582-1.62628E+02-1.69834E+02 5.43630E+01 5.98734E+01-8.64071E+01-1.24837E+01
 -1       583-5.36256E+01-1.04071E+02 3.64520E+01 2.90727E+01 2.34737E+01-1.38815E+01
 -1       584-6.82313E+01-7.84490E+01 2.64513E+01 3.69452E+01 1.30903E+01-3.17818E-01
 -1       585-3.33995E+01 2.41880E+00 1.97721E+00-4.54674E+01-1.79502E+01 7.27793E+01
 -1       586-1.83911E+02-2.43299E+02-1.16690E+00 1.61214E+02-6.79359E+01 1.58804E+01
 -1       587-1.18512E+02-8.70122E+01 1.09156E+01 4.22626E+01-1.42271E+01-3.70359E+01
 -1       588-1.39839E+02-1.07559E+02 4.07619E+01-3.90618E+01-4.83072E+01-4.73132E+01
 -1       589-3.87876E+01-7.65968E+01 4.60949E+00 2.28700E+01 2.49849E+01-2.57540E+01
 -1       590-3.80455E+02-8.34286E+01 6.15344E+01 6.20892E+01 2.29473E+01 4.11759E+01
 -1       591-8.14925E+01-5.23178E+01 1.11812E+01 2.47202E+01-2.52867E+01-2.39245E+01
 -1       592-1.22587E+02-6.54176E+00 1.64666E+01-1.05495E+01-6.08626E+00 8.84862E-01
 -1       593-3.12420E+02-7.83309E+01 9.05269E+01-2.38814E+01-5.25260E+00-4.49446E+00
 -1       594-3.07608E+02-1.22725E+02 5.25060E+01 3.83698E+01-6.01281E+00 4.69854E+01
 -1       595-2.59315E+01-4.70590E+01-8.17240E+00-3.90079E+01-3.47368E+01-3.26313E+01
 -1       596-6.25960E+01-4.38946E+01 4.91458E+00 1.86991E+01 1.09734E+01-2.36037E+01
 -1       597-3.74724E+02-1.32919E+02 6.44137E+01-9.97006E+01-5.51585E+01 2.30943E+01
 -1       598-7.16884E+01-3.91770E+01 1.51053E+01-1.43256E+01-1.14019E+01-3.98678E+00
 -1       599-1.35559E+02-9.72543E+01 1.70608E+01-8.89616E+00 3.27608E+01-3.32899E+01
 -1       600-1.16483E+02-1.29466E+02-3.70279E+01-7.07026E+01 5.34749E+01 9.26919E+01
 -1       601-8.73655E+01-2.50356E+01 1.69154E+01-3.98895E+01-5.33682E+00-6.12498E+00
 -1       602-1.70346E+02-7.44617E+01 1.23100E+01-9.49199E+01-1.56386E+01-4.02736E+01
 -1       603-2.62004E+02-4.27001E+01 8.53980E+01 2.90130E+01-2.33346E+01-1.05264E+02
 -1       604-1.40063E+02-1.36552E+02 1.14851E+01-5.05760E+01-4.50731E+00 3.56902E+01
 -1       605-2.01674E+01-8.90221E+01-3.03104E-01-2.03230E-01-6.93451E+00-1.14311E+01
 -1       606-4.59170E+00 6.18583E+00-1.10199E+01 2.71420E+01 5.36984E-01-1.56532E+01
 -1       607-1.20475E+02-1.27650E+02 6.87987E+00-5.89208E+01 1.03856E+01-3.41171E+01
 -1       608-6.64074E+01-2.04107E+02 3.97321E+01 2.69216E+01 1.15015E+00 5.11650E+00
 -1       609-6.50749E+01-4.91522E+01 1.47804E+01 1.46730E+01-3.09521E+01 7.62211E+00
 -1       610-3.14973E+01-1.27225E+02 1.22609E+01-1.51218E+01-1.87450E+01-2.91593E+01
 -1       611-1.23813E+02-4.33773E+02 4.83518E+01 4.48516E+01 1.19754E+01-8.31114E+01
 -1       612-5.35120E+01-6.73982E+01 1.46562E+01 1.42316E+01-2.08884E+01-1.91634E+01
 -1       613-1.10920E+02-2.88934E+02 4.90732E+01 9.84940E+01 3.81621E+00 2.26563E+01
 -1       614-7.43239E+01-8.67561E+01 2.34366E+01 6.35398E+01-2.23391E+01 1.16490E+01
 -1       615-1.97485E+02-4.24706E+02 5.18668E+01 1.10343E+02-3.53074E+01-8.89798E+01
 -1       616-5.53686E+01-7.21848E+01 2.94499E+01 2.88960E+01-1.75783E+01-2.59359E+00
 -1       617-2.27079E+02-2.49053E+02-1.77482E+01 1.61330E+02 1.03818E+02-1.83182E+01
 -1       618-1.25628E+02-8.39844E+01-6.18923E-01 4.21316E+01 1.52525E+01 4.55299E+01
 -1       619-3.48847E+01-1.19289E+01 1.04677E+01-6.92302E+01 4.07039E+01-5.10348E+01
 -1       620-6.27357E+01-2.62779E+01 1.60040E+01-5.06162E+00-7.89905E+00 6.81422E+00
 -1       621-1.46724E+02-9.48380E+01 5.39834E+01 5.02833E+01-1.71888E+01 1.10355E+01
 -1       622-1.28826E+02-4.64819E+01 1.41563E+01 2.66943E+01 1.88914E+01 2.63450E+01
 -1       623-3.39543E+02-1.66809E+02 5.83398E+01 1.42993E+02-6.13868E+01-2.38853E+01
 -1       624-9.15481E-01-1.24055E+01 1.04049E+01 2.06596E+01 1.04628E+01 8.67089E+00
 -1       625 5.67064E-01-2.13974E+01 7.07949E-01 6.12933E+00-1.67706E+01-2.37816E+01
 -1       626 2.57612E+00-3.36962E+01 2.96198E+00-1.82729E+01 7.43126E+00-7.59313E+00
 -1       627-1.78406E+01-4.94122E+01 3.01356E+00 4.72884E+00-1.33014E+01 3.44634E+00
 -1       628 1.39456E+01-1.06059E+01-7.91623E+00-3.79288E+01 1.59806E+01-3.84419E+01
 -1       629-9.61016E+00-1.69322E+01-5.20432E+00 1.38784E+01 4.61644E+00-6.18830E+00
 -1       630 9.89691E+00-7.45948E+00 6.22099E+00-1.57855E+01 1.44570E+00-8.54104E+00
 -1       631-4.06965E+01-4.88128E+01 5.50978E+00 7.58120E+00-8.50091E+00-1.10312E+01
 -1       632-7.69886E+00 6.61308E+00 1.66900E+01-1.95641E+01 5.57672E+00-1.46423E+01
 -1       633-1.70954E+01-2.99756E+00 1.54460E+00-1.92240E+01 1.83549E+00-7.70186E+00
 -1       634-8.99823E+01-5.72081E+01 5.12392E+00-4.63077E+00 3.75267E-01-5.38796E+00
 -1       635-7.89170E+00-3.35444E+01-6.35627E+00 3.79458E+00-8.24649E+00 5.37713E+00
 -1       636-1.68228E+01-1.89206E-01 1.53591E+01-2.37509E+01 1.67313E+01-3.75074E+01
 -1       637-1.62302E+01 2.80905E+01-6.91103E+00-1.58624E+01 1.04048E+01-1.08058E+01
 -1       638-2.12743E+01-5.98600E+00 1.47505E-01-1.32974E+01 1.40985E+01 1.81217E-01
 -1       639-3.79009E+01-3.93128E+01-4.35740E+00-9.51800E+00-5.63123E+00-9.46054E+00
 -1       640-4.11411E+01-3.07327E+01-3.32321E+00 9.45934E+00-1.27052E+01-1.51405E+01
 -1       641-2.36379E+01-2.70055E+01-5.44859E+00 3.15384E+00 1.54174E+00-5.58081E+00
 -1       642-6.44070E+00-2.95780E+01-4.19744E+00 2.21197E+00-1.85302E+01-1.96926E+01
 -1       643-2.63556E+00 1.57691E+01 1.01380E+01 1.67126E+01-1.16034E+01-1.44384E+01
 -1       644 1.63573E+01 1.94078E+01 1.03935E+01 1.07428E+01-5.77639E+00-1.04460E+00
 -1       645-2.06217E+01-6.65049E+00-3.67142E+00 6.90401E+00 3.12390E+01 1.11406E+01
 -1       646 5.62087E+00-5.67650E+00 2.50235E+01-2.35731E+00 1.43431E+01 1.54639E+00
 -1       647-5.20183E+01-6.53580E+00-7.46909E+00 1.39136E+00 3.91536E+00 6.61007E+00
 -1       648 2.54266E+01-3.07404E+01 9.69843E+00 2.21091E+01-7.47362E+00 8.77659E+00
 -1       649 1.33615E+01 6.55295E+00 1.34717E+00 1.98455E+01 1.30119E+01 3.05239E+00
 -1       650 5.28431E+01 5.20301E+01 2.15769E+01 7.09917E+01 7.94287E+00 1.92299E+01
 -1       651-1.45458E+01-2.38619E+01-6.25064E+00 1.60480E+00-5.88917E+00-2.41733E+00
 -1       652 4.14180E+00-8.70792E+00 1.45024E+01 1.33625E+01-6.05581E+00 3.08453E+00
 -1       653-2.62658E+01-1.00802E+02-3.28111E+00-8.92017E-01 2.92649E+01-1.36417E+01
 -1       654 1.65106E+01 1.10942E+01 1.09943E+01 1.15211E+00 7.40491E+00-2.50843E+00
 -1       655 2.30320E+01-4.66286E+01-5.24516E+00 3.19913E+01 3.89245E+00-8.53090E+00
 -1       656-8.70228E+00-3.21141E+01-1.23151E+01 6.92092E+00 9.73001E+00 1.80915E+00
 -1       657-5.65229E+01-9.64922E+01 8.64386E+00-6.71192E+00-1.60654E+01-1.66717E+00
 -1       658 1.04565E+01 2.15959E+01-5.87146E+00-1.01195E+00-7.31497E-01 2.03515E-01
 -1       659-1.32477E+01-1.59612E+01-7.33187E+00-5.52888E+00 8.55548E+00 1.60658E+01
 -1       660-6.24866E+01-4.37503E+01-1.43549E+01 2.30869E+01 1.86554E+01-1.07306E+01
 -1       661-1.43402E+01-4.01055E+01 6.12525E+00-9.04542E+00-6.08885E+00-1.63882E+00
 -1       662-1.06350E+02-8.65019E+01-1.60650E+01 7.86848E+00-2.72372E+01 7.82067E+00
 -1       663-3.09997E+01 3.80695E-01 9.15504E+00-4.56112E+00 1.07059E+01 1.36991E+01
 -1       664-1.49126E+01-1.80234E+01 2.22750E+01-1.08824E+01-1.32627E+01 3.97649E+00
 -1       665-3.93299E+01-5.84726E+01 1.00592E+01 3.40810E+00 9.41723E-01 1.32317E+01
 -1       666-3.06874E+01-1.27192E+01 7.53484E-01-8.59903E+00-5.55566E+00-4.75466E+00
 -1       667-5.03860E+01-3.22812E+01 1.04075E+01-1.04314E+01 1.67454E+01-1.82178E+01
 -1       668-2.35918E+00-3.09359E+00-1.56005E+00-2.64398E+00-5.63723E+00 2.24783E-01
 -1       669-2.04221E+01 1.53717E+01 1.21357E+01-1.63906E+00-8.41315E+00-5.67149E+00
 -1       670-4.89697E+01-6.72757E+01-4.06772E+00-3.45611E+00 9.26017E+00 8.41893E+00
 -1       671-2.81708E+00-7.28231E-01 4.08271E-01 4.91842E-01 9.93704E+00 4.09117E+00
 -1       672-1.84915E+02-9.52384E+01 4.69522E+01 2.51867E+01 3.05556E+01 1.40787E+01
 -1       673-2.31480E+02-1.00321E+02-2.87044E+01-8.02057E+01-5.92693E+01-5.35615E+01
 -1       674-1.23923E+02-5.29929E+01-9.45820E+00-7.24409E+00 3.89852E-01 4.75860E+01
 -1       675-2.25983E+02-6.66404E+01 2.82865E+01 1.92888E+01 2.29232E+01 4.51560E+01
 -1       676 5.53544E+01-2.34073E+01-1.42875E+01-1.28415E+01-4.49018E+00-1.65442E+01
 -1       677-5.71730E+01-8.09460E-01 1.01125E+01 1.13412E+01 1.34877E+01-1.37430E+01
 -1       678-3.54544E+01-1.27036E+01-2.04443E+00-4.92157E+00 3.94863E+00-8.98462E+00
 -1       679 2.46635E+01-2.22924E+01 5.64340E+00-1.10304E+01 2.77979E+00 4.87817E+00
 -1       680-3.60596E+00-1.28523E+01-5.51191E+00-8.33401E+00 8.59146E+00-1.03335E+01
 -1       681-4.13317E+00-2.53631E+01 1.35259E+01-4.70510E+01-1.27381E+00 9.34950E+00
 -1       682 2.70933E+01 1.09187E+01 1.05180E+01-1.05962E+01-9.26731E+00 2.53466E+01
 -1       683-3.94114E+01-2.04093E+01 4.33552E+00-1.15931E+01-2.34213E+01-2.34152E+01
 -1       684-3.97407E+01-3.75202E+01-3.51793E+00-5.63019E+00 4.04884E+00 4.59206E+00
 -1       685-3.30921E+00 5.96407E+00-6.71813E-01-1.46409E+01 9.23452E+00-3.53883E+00
 -1       686-1.71406E+01 7.77861E+00 2.83212E+00 1.10575E+01 9.44118E+00-3.09072E+00
 -1       687 2.37628E+01-8.25477E+00-2.18100E+00 1.28071E+01 3.23414E+00-4.10878E+00
 -1       688 4.46423E+01-2.82296E+01 1.28774E+01 2.04072E+00-1.22419E+01 1.05811E+01
 -1       689 3.43024E+00-3.73521E+01-1.21057E+01 8.85455E+00-2.21007E+00 1.19316E+01
 -1       690-4.73893E+01-2.22949E+01-1.19119E+01 1.86277E+00 4.73128E-01-1.22031E+01
 -1       691-1.56014E+01 4.12228E+00-3.02320E+00 1.25996E+01-7.98513E+00-5.29866E+00
 -1       692-3.08940E+01-1.93507E+01-2.19827E+00-4.93322E+00 7.91216E-01-1.13724E+00
 -1       693-4.88690E+01 1.50460E+01-1.08962E+01-7.01509E-01-1.79988E+01-7.55425E+00
 -1       694-1.26511E+01-1.26642E+01-7.65640E-01-2.21255E+00 4.38505E+00 1.15597E+00
 -1       695-2.16126E+01-2.44356E+01 1.57195E+00 2.90436E+01-1.38194E+01-4.64268E+01
 -1       696-2.51131E+01 2.31165E+01-1.54680E+01 1.18261E+01-3.23189E+00 1.09131E+01
 -1       697-1.46396E+01-2.26390E+00-1.85894E+00-7.56178E-01 1.05173E+01 8.47414E+00
 -1       698-1.67059E+01-4.30478E+00 2.12458E+01-1.00016E+01-2.85395E+01-1.53607E+01
 -1       699-1.93833E+00-9.23596E+00 2.64110E+00 1.66956E+00 9.02099E+00 1.76919E+01
 -1       700-7.02251E+01-3.41299E+01-1.01090E+01 1.68125E+01 6.78970E+00-6.32137E+00
 -1       701 4.50945E+00-1.43628E+01 6.51663E-01 5.31402E-01-5.21019E+00 1.14306E+00
 -1       702-3.69431E+01-2.74013E-01-5.74422E+00-1.10441E+00 2.75889E+00 4.70861E+00
 -1       703-1.12763E+01-5.92248E+01 1.05506E+01-2.77442E+01 1.35441E+01-1.89776E+01
 -1       704 3.90100E+00-1.43727E+01-6.59882E-01 8.52972E+00-5.44188E+00 8.72525E+00
 -1       705-1.23815E+01-3.70091E+00-2.81671E-01-8.82316E+00-1.62837E+01-5.21954E-01
 -1       706-1.75901E+01-5.97242E+00-2.24377E+01-2.46092E+01 3.82361E+01 1.25468E+00
 -1       707-1.16470E+01 3.50138E+00-6.73296E+00-8.23263E+00-7.54569E+00-8.16333E+00
 -1       708-1.73709E+01-2.06552E+01-8.23849E+00-6.69562E+00-1.84058E+00 2.06479E+00
 -1       709-1.16042E+02-6.87148E+01 3.13274E+01 3.55692E+01 7.25868E+00-2.85027E+01
 -1       710-1.50927E+02-1.69835E+02-8.45628E+00 5.84359E+01-5.15198E+01-2.72676E+01
 -1       711-1.20075E+02-2.74993E+02 1.17685E+02 7.41361E+01 4.36358E+01 2.30037E+01
 -1       712-1.16851E+02-2.47034E+02 3.19077E+01-1.61410E+01 4.86090E+01 5.24846E+01
 -1       713-4.10568E+01-2.20015E+02 1.37455E+01-9.04700E+01 2.72822E+01-3.02821E+01
 -1       714-9.71785E+01-2.30533E+02 3.96711E+01-6.93170E+01-1.37689E+01 2.50262E+01
 -1       715-2.71128E+02-2.79639E+01 3.79303E+01-1.18189E+01 1.75521E+01 8.30445E+00
 -1       716-2.07141E+02-1.51776E+02 1.15375E+02-7.28602E+01 3.86881E+01-2.77660E+01
 -1       717-1.23484E+01-3.44211E+01-1.63573E+01-1.38772E+01-1.95095E+01-1.08180E+01
 -1       718-1.21034E+02-4.42724E+01 1.79880E+01 1.63360E+01-1.08210E+01-1.60102E+01
 -1       719-2.98223E+02-1.08252E+02-6.61535E-01 3.56929E+01 8.17298E+01-1.28096E+01
 -1       720-6.60352E+00-2.23126E+01-6.82108E+00-2.23872E+01 8.96564E+00 2.36851E+01
 -1       721-3.79784E+02-2.46819E+02-4.62620E+01-1.54853E+02 2.32740E+00 1.43820E+02
 -1       722-1.82346E+02-1.46529E+02 2.52820E+01-9.31333E+01-4.40444E+01-7.46524E+00
 -1       723-2.37161E+02-1.06649E+02 3.75241E+01-7.18395E+00-3.99230E+01-3.76427E+00
 -1       724-1.34652E+02-1.81547E+02 3.47397E+01-3.60115E+01-1.19083E+01 4.71557E+00
 -1       725 2.37987E+01-2.03909E+01 2.72429E+00 2.06127E+01-5.50446E+00 1.39372E+01
 -1       726 5.05728E+01-8.10570E+01 3.74862E+01 5.99515E+01-4.81883E+00-1.29423E+01
 -1       727-2.06212E+02-1.23071E+02 3.11746E+01-6.62931E+01 4.42777E+01-1.19452E+01
 -1       728-1.52544E+02-4.16676E+01 3.93959E+01-5.96538E+01 3.27388E+00 8.32666E+00
 -1       729-3.50931E+02-1.88733E+02 2.30417E-01 1.22395E+01-8.31537E+01 1.07405E+01
 -1       730-8.45600E+01-4.74942E+01 2.42709E+01-3.97290E+01 2.90528E+00 2.43004E+01
 -1       731-3.89622E+01-3.16612E+01-1.31630E+01 6.33833E+00 2.51268E+01-4.94056E+00
 -1       732-1.15026E+02-2.22854E+02-3.06805E+01-6.92147E+01-3.18333E+01-1.08972E+02
 -1       733 6.03157E-01 1.75033E+01 1.70737E+01 6.57035E+01-8.55735E+00-7.27579E+00
 -1       734-5.00013E+01-6.12609E+01 4.99994E+00-3.13016E+01 5.21097E+00 3.09435E+01
 -1       735-2.58781E+02-2.24120E+02 9.08478E+01-1.62181E+02-4.14056E+01-4.56601E+01
 -1       736-2.54217E+02-1.92431E+02 4.23367E+01-1.44428E+02-4.01299E+01 1.59633E+00
 -1       737-2.44334E+02-3.99879E+02 7.94839E+01-2.07623E+02-4.63952E+01-5.32428E+01
 -1       738-2.99057E+01-3.75742E+01 3.11960E+00 2.50884E+00 3.00614E+01 1.42292E+01
 -1       739-9.55845E+01-3.47974E+02-6.21681E-01-1.03294E+02-1.22852E+01-7.91573E+01
 -1       740-8.02898E+01-2.33810E+02 5.04803E+01-6.93065E+01-1.62062E+00 4.28586E+00
 -1       741-3.93908E+01-4.34471E+01-1.69367E+01-2.76961E+01 2.21715E+01 2.32330E+01
 -1       742-6.27614E+01-6.29564E+01-2.18404E+01 5.75721E+00 5.68751E+01 5.80671E+01
 -1       743-5.46208E+01-5.38175E+01 3.04088E+01 7.95435E+00-1.59350E+01 3.59098E+01
 -1       744-1.33779E+01 3.12762E+01-1.12900E+00 1.01287E+01 4.68867E+00-5.31874E+00
 -1       745-6.47604E+01 3.26878E+01 2.12065E+01-8.67259E+00-4.24852E+01-7.40207E+00
 -1       746-1.37241E+02-4.58716E+02 6.33336E+01-1.18393E+01-2.88266E+00-9.10392E+01
 -1       747-3.26356E+01-5.42066E+01-2.96854E+01-4.52062E+00 5.18511E+01 3.17670E+01
 -1       748-2.64267E+01-2.15399E+02 2.55096E+01-1.55296E+01 2.94233E+01-2.46793E+00
 -1       749-4.10800E+01-3.76670E+02 2.29460E+01-2.69423E+01-5.51427E+01 3.16942E+01
 -1       750-7.75641E+01-3.02103E+02 4.94384E+01-1.87216E+01-9.10280E+00-4.68439E+01
 -1       751-2.22884E+01-3.66187E+01-2.17775E-01 3.81391E+00-1.94091E+01-1.94891E+01
 -1       752-5.27855E+01-9.19026E+01 2.14441E+01 1.19765E+01 1.65520E+01 1.49678E+00
 -1       753-1.36331E+02-1.13987E+02-2.61853E+01 5.68282E+01 2.30818E+01-1.04754E+01
 -1       754-8.48134E+01-1.88184E+02 4.04348E+01 2.17410E+01-1.06279E+01 1.64488E+01
 -1       755-1.85958E+02-2.24574E+02-1.04483E+01 8.09729E+01-1.24379E+02-4.23507E+00
 -1       756-1.09632E+02-2.41477E+02 1.46767E+01 3.42914E+01 7.43181E+01-1.02789E+01
 -1       757-3.20083E+01 4.27278E+00-1.55420E+01-1.28314E+01 1.51344E+01-1.75687E+01
 -1       758-1.20313E+01-6.28435E+01-1.18868E+01 1.20271E+01 8.04582E+00 1.59579E+01
 -1       759-2.86334E+01-1.00794E+00-8.47917E+00-9.15563E+00 1.79760E+01-5.23550E+00
 -1       760-1.94290E+02-2.01410E+02 3.27622E+01 1.04086E+02 5.18570E+01 4.51788E+01
 -1       761-5.99207E+01-4.80332E+01 6.65467E+01-6.65396E+01-1.20414E+01 2.75879E+01
 -1       762-3.01934E+02-1.81313E+02 5.13155E+01 6.80912E+01-2.23315E+01-2.67372E+01
 -1       763-1.80546E+02-2.34873E+02-9.28687E-01 1.55976E+02-1.21929E+01-4.98436E+01
 -1       764-4.30965E+01-6.12750E+01 1.27498E+01-2.09981E+01-6.17298E+00-5.54000E+00
 -1       765-4.74754E+01-2.94761E+01-1.94067E+00-1.43202E+01 2.70399E+01-1.09975E+01
 -1       766 7.81903E+00-3.57464E+01 8.76038E+00-3.53380E+01 6.64428E+00-5.16796E+01
 -1       767-3.29779E+02-1.48436E+02 4.50034E+01 8.18985E+01-6.68195E+01-6.17195E+00
 -1       768-5.97985E+00-7.11689E+01-1.34969E+01 5.47469E+00 1.46678E+01-5.27426E+01
 -1       769-2.37373E+02-1.72883E+02-2.81695E+01-2.05336E+01-1.80285E+00 9.41816E+01
 -1       770-2.06975E+02-8.27614E+01 4.13624E+01 9.18871E+01-1.80678E+01-1.65597E+01
 -1       771 1.32600E+01-1.80774E+01 5.72334E+00-3.68495E+01 4.05328E+00-1.59404E+01
 -1       772-1.31791E+02-7.63520E+00 4.55723E+01-5.00151E+00 1.74076E+01-3.24632E+01
 -1       773-6.73124E+02-1.06214E+02 1.10991E+02-2.58479E+01 8.21449E+01 3.22289E+00
 -1       774-6.48451E+01-1.49606E+01-9.32891E+00-1.00296E+01 7.81135E+00-2.79296E+00
 -1       775-3.63190E+02-4.98041E+01 3.66424E+01 2.33496E+01 3.31344E+01-1.69976E+01
 -1       776-3.47414E+02-7.09792E+01 1.54267E+01 1.08629E+01 5.04775E+01 7.50946E+01
 -1       777-2.35927E+01-5.93536E+01 1.11574E+01 1.74466E+01-4.19611E+00 3.59721E+01
 -1       778-8.81244E+01-1.38905E+02 2.14727E+01-8.67054E-01-6.09607E+01 1.20090E+01
 -1       779 4.72796E+01-2.08339E+01-2.92601E+00-9.85610E+00-4.23386E+00-1.49037E+01
 -1       780-2.10760E+02-1.26201E+02 4.17094E+01-7.89182E+01-8.98563E+00 6.77797E+01
 -1       781 4.41317E+01-1.79911E+01-4.51592E+00 2.08490E+01 2.36027E+00-6.24534E+00
 -1       782-1.04094E+02-7.42811E+00 3.20665E+01-9.94444E+00-1.44612E+01 6.90970E-01
 -1       783-2.36987E+02-1.13305E+02 3.55358E+01-4.49155E+01-4.53527E+01 5.01056E+01
 -1       784-3.08008E+01-3.24582E+01-1.65850E+01 1.72332E+00-2.59413E+01-1.24400E+01
 -1       785-1.54985E+02-9.39679E+01 4.08959E+01-2.82316E+01 1.17153E+01-1.29888E+01
 -1       786-6.57870E+01-3.24945E+02 4.58132E+01-1.24742E+01 1.07996E-01-3.07328E+01
 -1       787-3.37403E+02-1.29677E+02 1.45618E+01-1.06047E+02 3.43191E+01-3.64352E+01
 -1       788-3.85647E+01-2.13946E+01-1.05979E+01-1.76547E+01 2.85635E+00-3.19816E+00
 -1       789-2.60750E+02-1.78246E+02 2.42955E+01-9.64203E+01-6.97545E+01 5.04860E+01
 -1       790-2.48772E+02-1.73377E+02 3.72767E+01-7.10815E+01 2.86919E+01 1.10004E+02
 -1       791-3.51904E+02-2.19982E+02-2.29789E+01-1.36086E+02 4.44378E+01 7.34541E+00
 -1       792-1.70655E+01-4.55945E+00 6.59171E+00 6.50275E+00 9.10176E+00-2.07271E+00
 -1       793-1.40955E+02-5.70231E+01 5.39372E+01-6.68322E+01-1.63838E+01-1.95829E+01
 -1       794-1.90461E+02-1.56837E+02-4.16770E+01-9.21124E+01 9.31003E+00-6.19172E+01
 -1       795-1.09255E+02-2.27242E+02 3.14488E+01-7.84864E+01-1.35593E+01-5.63587E+01
 -1       796 9.86009E-01 8.20224E+01 5.97511E+00 5.17600E+01 3.71006E+01 2.48970E+01
 -1       797-5.27062E+01-1.07983E+02-2.39326E-01 1.09598E+01-3.48207E+01 5.62679E+00
 -1       798-9.95792E+01-1.89857E+02 1.51104E+01-4.23232E+01 3.98792E+01 1.95989E+01
 -1       799-5.02765E+01-1.01696E+02 3.45222E+01-2.82911E+01 1.78507E+01-5.45191E+00
 -1       800-2.88240E+01-5.38266E+01-1.04529E+01 1.17181E+01-3.40769E+01-5.70892E+00
 -1       801-4.70933E+01-1.02797E+02-2.05871E+00-1.87918E+01-1.31299E+01-2.36622E+01
 -1       802-9.13212E+01-1.11959E+02 9.97135E+00-1.54225E+01 2.33320E+01-2.10478E+00
 -1       803 6.43696E+00-7.61906E-02 3.48419E-01 4.41431E+00-3.76638E+00 4.55926E+00
 -1       804-5.68356E+01-2.54614E+02 2.57987E+01-2.83549E-01 1.29376E+00 5.11508E+01
 -1       805-1.00912E+02-1.45062E+02-8.44180E+00-2.45493E+01 5.75768E+01 3.13775E+01
 -1       806-7.53003E+01-2.18620E+02 1.65848E+01-2.05100E+00-1.50199E+01 3.22395E+01
 -1       807-1.53102E+01 2.95545E+01-7.50219E+00 9.65557E+00-2.03413E+01 6.50017E+00
 -1       808-6.51185E+01-8.17336E+01 1.34248E+01 7.20573E-01-7.59223E+00-9.84441E+00
 -1       809-9.96200E+01-2.08668E+02 2.31353E+01-8.56402E+00 5.14702E+01-4.55291E+01
 -1       810-1.75420E+02-2.03280E+02 3.21735E+01 3.60667E+01 5.45061E+01-3.28840E+01
 -1       811-2.29815E+02-1.57771E+02 6.41294E+01 1.21018E+02-1.96640E+00 2.93142E+01
 -1       812-7.85520E+01-1.94386E+02-3.05442E+01 3.56526E+01-7.02018E+01 6.24950E+01
 -1       813-6.68681E+01-1.44897E+02-1.72134E+01 3.16321E+01 3.53588E+01-3.69432E+00
 -1       814-2.78000E+01-9.84113E-01-9.97262E+00-7.76132E-01-4.59798E+00-1.52104E+01
 -1       815-7.39819E+01-1.70011E+02 4.19537E+01 3.64651E+01-1.28711E+01-7.31176E+00
 -1       816-1.91724E+02-4.71786E+02 5.99440E+01 1.39011E+02 4.46091E+01 8.17748E+01
 -1       817-4.64471E+01-4.77715E+01-8.36107E+00-7.59357E-01-1.62939E+01 2.22450E+01
 -1       818-5.46935E+01-2.46644E+02 9.38277E+01 4.71969E+01-3.97734E+01 1.53218E+01
 -1       819-1.41264E+02-1.78698E+02 5.28492E+01 2.33436E+01 4.04512E+01-1.66055E+01
 -1       820-4.32705E+01-2.61490E+01 5.56622E+00-3.44889E+00-1.42718E+01-6.88780E+00
 -1       821-1.25594E+02-1.71752E+02 5.11905E+01 7.97700E+01-4.20781E+01 1.17508E+01
 -1       822-1.75422E+02-2.06795E+02 8.54712E+00 1.03837E+02 8.52356E+01-2.25948E+01
 -1       823-1.40733E+02-1.19385E+02-6.14801E-01 9.94284E+01 4.68898E-02 4.49253E+01
 -1       824-2.09698E+01-3.45461E+01 1.03397E+01 8.32504E+00-6.43440E+00 8.87179E-01
 -1       825-1.20940E+02-1.37825E+02 4.14193E+00 3.09955E+01-6.90292E+01-2.15987E+01
 -1       826-6.83392E+01-6.02600E+01 3.85579E+01-8.98809E+00 5.05866E+00 1.82486E+00
 -1       827 1.61917E+01-2.60528E+01-2.95880E+00-2.71350E-01-8.01755E+00 1.01745E+00
 -1       828-1.19109E+02-8.66320E+00 2.41292E+01 3.68569E+01-2.01308E+01 3.18479E+01
 -1       829-1.44666E+02-2.99083E+01 1.32513E+02 6.10853E+01-3.09908E+00-2.64589E+01
 -1       830-3.25794E+00-2.45424E+01-7.00430E+00-1.89675E+01 3.32568E+00 2.24656E+01
 -1       831-3.25897E+02-1.07484E+02 6.42260E+01 1.04545E+02-7.83483E+00 5.14930E+00
 -1       832-2.23974E+02-2.32576E+02 5.95182E+01 9.04573E+01-1.59081E+01-4.26951E+01
 -1       833-5.55200E+01-1.49033E+01 1.37327E+00 3.49399E+01-2.22023E+00 6.01041E+00
 -1       834-1.01950E+02-2.59819E+01 7.95222E+00 6.17746E+01-5.42072E+00 9.57921E+00
 -1       835-1.05539E+02-2.14967E+02-1.63144E+01 3.58677E+01-1.14235E+01 3.23746E+01
 -1       836-1.42829E+02-2.83725E+02-2.48157E+01 2.29866E+01 4.84914E+00 6.71054E+01
 -1       837-6.13726E+01-5.56738E+01-1.16611E+01 4.57843E+00 1.19761E+01 9.39243E+00
 -1       838-1.61396E+02-1.39747E+02-2.84686E+01 6.14614E+00 5.52143E+01 2.28561E+01
 -1       839-3.02563E+02-2.49372E+02-3.25775E+01 6.54222E+01-7.14879E+01-1.82967E+01
 -1       840-1.55364E+02-1.21677E+02-1.47425E+01 4.29153E+01-1.30644E+01-2.18690E+01
 -1       841-2.14126E+01-1.57610E+01-5.18039E+00 7.53735E+00-1.17944E+01 6.35841E+00
 -1       842-1.79531E+02-5.84554E+01 2.58387E+01 1.78300E+01-2.00032E+01 5.86063E+00
 -1       843-1.13826E+02-2.86867E+02-5.90760E+00 9.47481E+00 2.64089E+01-5.16249E+01
 -1       844-6.28302E+01-1.26182E+02 3.97968E+00-5.38506E+00 4.97340E+00-2.50942E+01
 -1       845 1.41761E+01-3.41057E+01-2.29497E+01-8.27723E+00-8.73500E+00-1.02442E+01
 -1       846-9.40073E+01-8.74065E+01-1.28265E+01-3.37577E+01 5.14820E+00 3.62296E+01
 -1       847-9.47889E+01-1.30873E+02-3.05296E+01 3.33590E+01 1.23779E+01 3.75809E+01
 -1       848-1.67607E+02-1.79999E+02-8.61173E+00 3.46576E+01 9.29618E+00 7.10063E+01
 -1       849-2.30967E+01-7.17458E+00-2.05326E+00 3.35850E+01 7.12672E+00-1.28298E+01
 -1       850-4.06583E+01 1.04433E+00-7.97140E+00 4.23051E+01 6.57708E+00-9.12633E+00
 -1       851-4.85928E+01-9.56296E+01 8.34602E+00 8.58620E+01 1.05635E+01-3.52005E+00
 -1       852-1.97438E+01-4.81056E+01 7.61113E+00 3.58071E+01 2.74382E+00 1.42602E-02
 -1       853-3.42915E+00-1.14567E+01 1.04534E+01 2.38051E+00 6.80322E+00-6.40795E-01
 -1       854-6.96438E+00-2.52012E+01 1.14924E+01-1.06574E+01 1.84960E+01-4.83623E+00
 -1       855-2.37406E+01-1.53265E+01 8.65832E+00 4.17127E+00-1.18871E+01-2.66191E+01
 -1       856-7.34770E+01-2.60529E+01 7.53290E+00-1.25423E+00-3.94091E+01-3.61955E+01
 -1       857 1.23102E+01-1.07894E+01-6.18248E+00-4.87182E+00-5.70511E+00 2.68810E+00
 -1       858 2.20940E+01-2.24189E+01 9.37756E-01-5.67354E+00-3.67465E+00 2.32013E+00
 -1       859 5.55738E+00 1.37595E+00-1.42975E+01 1.08196E+01-4.85003E+00 3.33098E+00
 -1       860-1.24288E+02-2.70131E+01-5.62832E+00 3.14898E+01 2.43773E+01 1.96357E+00
 -1       861-1.21886E+02-7.67257E+01-1.37453E+00-3.78827E+01 1.24881E+01-6.93665E+00
 -1       862-2.70488E+02-1.75629E+02 1.70955E+01-8.56572E+01 3.65688E+01-1.35485E+01
 -1       863-9.58595E+01-5.55564E+01 3.53366E+01-2.54850E+01-6.30331E+01-2.47335E+01
 -1       864-2.88187E+00-1.15416E+01-1.50131E+01 1.67794E+01 2.07864E+00 1.50259E+01
 -1       865-5.61855E+01-4.14497E+01-6.13351E+00 1.84128E+01 1.46510E+00-5.82337E+00
 -1       866-1.27413E+02-1.24316E+02-8.54296E+00 3.34759E+01 5.68799E+01-3.46207E+01
 -1       867 5.67127E+00-1.38464E+01 1.67147E+00-3.32267E+00 2.71731E+00 2.81309E+01
 -1       868-3.10906E+01-5.01128E+01-9.97172E+00 4.57961E+00 6.23679E+00 2.39419E+01
 -1       869-2.66181E+01 4.72178E+00 1.15072E+01 8.14531E+00-3.16517E-01 1.08612E+00
 -1       870-4.00756E+01 1.78132E+00 2.28330E-01-1.03043E-01-1.59190E+01 3.86313E+00
 -1       871-2.38271E+02-2.83433E+02-1.18863E+01 1.36542E+02 5.89014E+00-6.59542E+01
 -1       872-1.37204E+02-1.57159E+02-2.80181E+00 7.18196E+01 4.71165E+00-2.38221E+01
 -1       873-1.06650E+01-5.54448E+00 2.98849E+00-1.77925E+00 3.61381E+00 1.40794E+01
 -1       874-1.08490E+02-9.71807E+01-5.96301E+00 6.27217E+01-2.82902E+01 4.93652E+00
 -1       875 2.73564E+01 3.09837E+00-2.67849E+01 2.37982E+01-1.91763E+01-3.51691E+01
 -1       876-1.46149E+02-1.15863E+02-3.16110E+01-5.01174E+01-5.71339E+01 4.19592E+01
 -1       877 2.20469E+01-5.17435E+01-4.24198E+00-1.08725E+01-5.15170E+00-6.60987E+00
 -1       878 9.55135E+00-1.66529E+01 2.92695E+00-6.19956E+00 1.00745E+00-1.57543E+00
 -1       879-1.14724E+02-3.10172E+02 3.03768E+01-1.06045E+02 1.24073E+01-3.32249E+01
 -1       880-4.36699E+01-1.33222E+02 6.58753E+00-4.01727E+01 1.73684E+01-6.80384E+00
 -1       881-3.61920E+01 6.89738E+00-1.16015E+00 5.82958E+00 2.11645E+00 2.45728E+00
 -1       882-6.04113E+01 1.97717E+01-1.09220E+00 2.12470E+01 5.60293E+00 1.26364E+00
 -1       883-1.98071E+01 4.93878E+00-7.14582E+00 8.32316E-01-4.51099E-01-6.36382E+00
 -1       884-4.42364E+01 4.08824E+01-4.07385E+00 1.22167E+01 1.82877E+01-1.46729E+01
 -1       885-7.94939E+00 1.35475E+01-6.30418E+00 6.42417E-01-3.67320E+00 4.24900E+00
 -1       886-2.20371E+01 6.73829E+01-6.99518E+00 1.00751E+00-5.57313E-01 7.03917E+00
 -1       887-1.97238E+01 8.92989E+00-1.91479E+00 7.70431E+00 1.67599E+00 6.19108E+00
 -1       888-4.22865E+01 2.39128E+01 1.15347E+00 2.61517E+01 1.38323E+01 2.02808E+01
 -1       889-7.85793E+00 4.12392E+01-3.09431E+00 1.39506E+00-1.36877E+01 6.40759E+00
 -1       890-1.17797E+01 5.92075E+00-3.03245E+00-9.93425E-01-7.25751E+00 3.01041E+00
 -1       891-1.20348E+01-7.53619E+00-4.82204E+00-2.45072E+00-6.06698E+00-1.01109E+00
 -1       892-1.04966E+01-2.54145E+01-4.73585E+00 3.28683E+00-1.56500E+01-6.82640E+00
 -1       893-6.69115E+01 1.17730E+01-2.14117E+00-1.75985E+00 6.20717E+00 4.23778E+00
 -1       894-1.07465E+02 2.84279E+01-2.60083E+00-2.55634E+00 1.14287E+01 7.16427E+00
 -1       895-4.09592E+01 6.37405E+00-1.43929E+00 9.08820E+00-4.11530E+01 2.39580E+00
 -1       896-1.61169E+01 8.36042E+00-6.33353E+00-1.04238E+00-1.01838E+01 1.02716E+00
 -1       897-4.52743E+00-1.39656E+01-1.97683E+01-1.32987E+01-1.22663E+01-1.24244E+01
 -1       898-1.17756E+01-1.21367E+01-2.17253E+00-5.23138E-01-4.16034E+00-6.64549E+00
 -1       899-4.00980E+01-1.21353E+02-1.61339E+01-7.75634E+00-2.97541E+01-2.20284E+01
 -1       900-1.82875E+02-5.35656E+02 9.23714E+01 1.13588E+02-3.04600E+01-5.10873E+01
 -1       901-6.73435E+01-6.77385E+01-2.13749E+01 1.46823E+00 4.67874E+00 1.46127E+01
 -1       902-1.70688E+02-1.62510E+02-1.86018E+01-3.01968E+01 2.79046E+01 7.03312E+01
 -1       903-8.87129E+00-9.81551E+00-2.01041E+00 3.31572E+01 4.11972E+00 5.44370E+00
 -1       904 1.27242E+01-8.81779E+00-2.12911E+00 7.26115E+00-4.94426E+00-2.49018E+00
 -1       905-2.64746E+01-5.77503E+01 9.74321E+00-1.69679E+01-1.39383E+01 1.04418E+00
 -1       906-3.73838E+01-1.52093E+02 1.80391E+01-4.30402E+01-3.17457E+00-3.10388E+00
 -1       907 1.22422E+02 4.12915E+01-3.74606E+01 7.20353E+01 3.25288E+01 1.12991E+01
 -1       908-1.41360E+02-5.08470E+01-6.34458E+01 1.28758E+00-5.44348E+00-1.09094E+02
 -1       909 7.35745E+00-1.16540E+01-4.42560E+00 4.26577E+00-6.85026E+00-3.00621E+01
 -1       910 2.13432E+01 4.54525E+00-4.06934E+00-7.33585E+00-3.01905E+00-5.62226E+00
 -1       911-3.17984E+01-2.51689E+01-2.08701E+01-3.97798E+01-4.20530E+00 5.89890E+01
 -1       912-1.63090E+02-1.72139E+02-2.31788E+01 7.14309E+00 4.86644E+01 8.85559E+01
 -1       913 1.08029E+01-4.14512E+01 1.11039E+01-1.15547E+01-1.30269E+01 2.54135E+00
 -1       914 1.14108E+01-1.35929E+02 8.66760E+00-2.99396E+01-2.55185E+01 8.97612E+00
 -1       915 1.27210E+01 1.46836E+01 1.39981E+00 2.87036E+01-6.75450E+00 1.12392E+01
 -1       916-1.13601E+02-8.28843E+01 3.82339E+00-1.01091E+01 5.18719E+01 2.72583E+01
 -1       917 1.22352E+00 6.85923E+00-2.83771E-01-1.30023E+01-4.18724E+00-4.57853E-01
 -1       918-1.68334E+01 1.61866E+01-1.15209E+00-2.29295E+01-7.23045E+00 1.52859E+00
 -1       919 1.75533E+01-2.20297E-01-1.99119E+01-1.18441E+01 4.08344E+00-7.02955E+00
 -1       920 3.56023E+01 6.18105E+00-5.98023E+01-2.39194E+01 8.83068E-01-5.76734E+01
 -1       921 5.92516E+00-3.85140E+01-1.49871E+01 7.31547E+00-7.17969E+00-1.36354E+01
 -1       922-9.47776E+01-8.63662E+01-6.04096E+00-2.35304E+01 1.56905E+01 4.97913E+01
 -1       923-3.43554E+02-1.57492E+02-4.23078E+01-1.23181E+02 6.05283E+00 8.42177E+01
 -1       924-1.50554E+02-9.23125E+01-4.09852E+00-3.53355E+01-9.51725E+00 1.58593E+01
 -1       925 3.45776E+01-9.15226E+00-1.50424E+01 6.52448E+00 4.81512E+00-3.49818E-01
 -1       926-1.05826E+01-6.54348E+01-3.04656E+00-3.29489E+01-8.09855E-02-9.27121E+00
 -1       927 7.10770E+00-4.90265E+01-6.48536E-01 2.37417E+01 3.20697E-01-7.34730E+00
 -1       928 8.02024E+00-2.08054E+01 4.16343E+00 1.39841E+01-1.09569E+00-3.19764E+00
 -1       929-1.52395E+01 9.70609E-01-1.37247E+01-8.33189E+00 1.45085E+01-1.16059E+01
 -1       930-4.53850E+01-1.09431E+02 9.87797E+00 1.58778E+01-6.28449E+00 2.11307E+01
 -1       931-6.63030E+01 1.50579E+01 5.03534E+00 3.60746E+01 1.40679E+01 1.95985E+01
 -1       932-3.13640E+01 8.77738E+00 9.26456E+00 7.79111E+00 4.79681E-01 1.17208E+01
 -1       933-1.41757E+02-5.23260E+01 1.30732E+01-1.54942E+01 2.56764E+01 8.69486E+00
 -1       934-2.85311E+02-1.18072E+02 9.28386E+00-7.28635E+00 5.31159E+01 1.00518E+01
 -1       935 2.94777E+01-1.31497E+01-7.97941E+00 3.12609E+01-5.62088E+00 6.75683E+00
 -1       936 5.57046E+00-1.08035E+01-4.42643E+00 1.22111E+01-5.19132E+00 5.73837E+00
 -1       937-2.29613E+01-2.71343E+01-6.06458E+00 1.24885E+01-1.62248E+01 2.13855E+00
 -1       938-4.36902E+01-1.61092E+02 1.94381E+01 2.18831E+01-2.80690E+01 2.05347E+00
 -1       939 1.81481E+00-9.71822E+00 4.43062E+00 2.08113E+01-7.78164E+00 8.14503E+00
 -1       940-3.34658E+00-1.56831E+01 6.68092E+00 7.09700E+01 1.17634E+01 1.98883E+01
 -1       941-4.95265E+00-2.63370E+01 1.62988E+01 3.41453E+00-8.83445E-01-2.37632E+01
 -1       942-9.29719E+01-6.41848E+01 4.38059E+00-2.89675E+01 3.77727E+01 1.21402E+01
 -1       943-1.76077E+02-2.34612E+02-3.13195E+01-1.18982E+01 7.59745E+01-1.89548E+01
 -1       944-8.98717E+01-1.49821E+02-2.44008E+01-1.01601E+01 3.50270E+01-1.86568E+00
 -1       945-6.67448E+01-1.55283E+02 9.35747E+00 4.41456E+01-3.92937E+00 1.35780E+01
 -1       946-1.63806E+02-2.77727E+02-5.90258E+00 1.14122E+02-4.85691E+00 3.41885E+01
 -1       947-2.88079E+02-2.32048E+02-1.86436E+01 1.73650E+02-1.40369E+00-6.58597E+01
 -1       948-1.40068E+02-1.92342E+02 6.11399E+00 1.07775E+02-4.47956E+01-7.58656E+00
 -1       949-1.41076E+02-7.03018E+01 4.13917E+00-3.07763E+00-1.39938E+01-3.58721E+00
 -1       950-4.83933E+02-1.63998E+02-8.05201E+00-2.65874E+00-4.63294E+01 2.61778E+00
 -1       951-2.37541E+01-1.47051E+01-7.43671E+00 3.97257E+00-3.76505E+00-2.67654E+00
 -1       952-7.73337E+01-1.49889E+02 1.38532E+01-5.02586E+01 4.58414E+01 1.32338E+00
 -1       953-3.80903E+01-3.16320E+01 4.85733E+00-1.44267E+01-1.87210E+00-3.22916E-01
 -1       954-1.88570E+02-6.40106E+01 1.27351E+01-3.91911E+01-3.14195E+01-6.33996E+01
 -1       955-1.35208E+02-4.43152E+01 2.27645E+01-4.69050E+01 5.85675E-01 4.65071E+00
 -1       956-3.40981E+02-1.11446E+02 2.52805E+01-1.04196E+02-1.81832E+01-1.83238E+00
 -1       957-2.01287E+01 5.05481E+00-1.19876E+01-1.23359E+01 4.39853E+00-1.00181E+01
 -1       958-3.84569E+01-1.56859E+01-9.83870E+00-7.47405E+00 4.84073E+01-5.05837E+01
 -1       959-1.54942E+02-1.19148E+02-5.86830E+00-7.32713E+01 5.06876E+00-1.68518E+01
 -1       960-2.50518E+02-1.97930E+02-1.80203E+01-1.30342E+02 1.89050E+01-2.06236E+01
 -1       961 5.44129E+01-2.94848E+01-1.88759E+01-1.46562E+01 2.02116E+01 1.03935E+01
 -1       962 1.19271E+01-1.74511E+01-1.34213E+01-3.89875E+00 1.10138E+01 3.52976E+00
 -1       963-1.13851E+01 2.64076E+01-4.01245E+00 4.75216E-01 6.25194E+00 9.61546E+00
 -1       964-3.86774E+01-5.48174E+01-2.03129E+00-1.55974E+01 3.77706E+01-7.87228E+00
 -1       965-1.33200E+02-1.36714E+02 2.44894E+00-3.49139E+01 2.75445E+01-4.16345E+01
 -1       966-4.19137E+01-8.85100E+01 2.72571E+00 1.88614E+00 1.17868E+01-2.32975E+01
 -1       967-5.68050E+01-7.31167E+00-1.47570E+01-2.41702E+01 1.40825E+01-2.71096E+01
 -1       968-1.24220E+02-9.89607E+01 1.07322E+00-5.32110E+00 6.32108E+01-6.72604E+01
 -1       969-1.90298E+01-1.32244E+01-8.75275E+00 1.30061E+00 1.06651E+01-2.13113E+00
 -1       970-6.27247E+00-1.12423E+01-3.94000E+00-8.23765E-01 5.56583E+00 2.68364E+00
 -1       971-1.43095E+01 8.11921E+01 1.26704E+01 6.46893E+01 3.07350E+01 1.36985E+01
 -1       972-1.35897E+01 3.76871E+01 6.53500E-01 1.59696E+01 1.14854E+01-3.08706E+00
 -1       973-5.70814E+00-3.50430E+01-5.37684E+01 1.30408E+01-4.42154E+01-9.56634E+00
 -1       974-3.76505E+01-1.65970E+01-5.46396E+00-6.41856E+00-1.92117E+01 3.21394E+00
 -1       975-5.94963E+01-3.46959E+01 5.48095E+00 5.26495E-01-4.35654E+01-1.78324E+00
 -1       976-4.91065E+01-2.72041E+01-1.19755E+00-5.15826E+00-2.71297E+01-1.47848E+00
 -1       977-4.52836E+01-1.05538E+02-1.17479E+01-5.21561E+00-2.97269E+01-2.77582E+01
 -1       978-2.94244E+01-5.04455E+01-8.49241E+00-6.01751E+00-1.89268E+01-7.44743E+00
 -1       979-1.16007E+02 1.62463E+01-5.89177E-01 8.54549E+01 1.20979E+01 4.38821E+01
 -1       980-5.37065E+01 1.15341E+01 7.46131E+00 4.52274E+01 6.29693E+00 2.69618E+01
 -1       981-5.11837E+00 2.11023E+00 5.88595E-01 4.38554E+00 2.23769E+00 3.10621E+00
 -1       982 3.07538E+01 4.80725E+01-1.49586E+01 3.39203E+01 8.49612E+00-2.75284E+00
 -1       983-1.15673E+02-5.99136E+01-1.27056E+01-1.34570E+01-1.54269E+01 3.74605E+00
 -1       984-2.92637E+02-7.73409E+01-1.52014E+01-1.82259E+01-3.32784E+01 4.76359E+00
 -1       985-3.26154E+01-6.89079E+01-2.71220E+01-2.57854E+01-1.80435E+01-7.80608E+00
 -1       986-1.90376E+02-1.97391E+02-4.03007E+01-6.64545E+01-7.54454E+01-9.65888E+01
 -1       987-2.06422E+01-5.98791E+01-1.00634E+01-1.51992E+01 1.24279E+01-1.77767E+01
 -1       988-8.80221E+01-8.86038E+01-1.65754E+01-6.29708E+01 6.37877E+01-8.50658E+01
 -1       989-6.02492E+01-1.87025E+02-7.25470E-01-1.01629E+01 7.15196E+00-2.65315E+01
 -1       990-1.13370E+02-3.49637E+02-1.08592E+00-4.90525E+01-1.88639E+01-6.54478E+01
 -1       991-5.22102E+01-2.02066E+02-2.16529E+01 1.46019E+01 4.93815E+01-2.56449E+01
 -1       992-7.48020E+01-2.66741E+02-1.88092E+01 4.31731E+01 5.89822E+01-3.18641E+01
 -1       993 9.27292E+01-4.01142E+01-2.26401E+01-2.88018E+01-1.69522E+01 1.31533E+01
 -1       994 9.39873E+01-1.08198E+02-2.07974E+01-2.79565E+01-2.90711E+01 3.76156E+00
 -1       995 8.13164E+00-1.93543E+01 8.86751E+00 5.20305E+00 5.97459E+00 5.48212E+00
 -1       996-3.26504E+01-5.39743E+01 3.09852E+01-3.35358E+01-1.03774E+01 3.92144E+01
 -1       997-7.94936E+01-1.39640E+02 1.67425E+01-3.34316E+01 5.38555E+01 1.39108E+01
 -1       998-8.60750E+00-4.38694E+01-5.66968E+00-1.19064E+01 1.12568E+01 2.96155E+00
 -1       999-2.03668E+01-4.44626E+01-8.13310E+00 2.06614E+01 3.43794E+00 2.42462E+01
 -1      1000-1.34235E+02-1.02579E+02-1.79914E+01-1.12087E+01 1.98818E+01 8.90460E+01
 -1      1001-4.94840E+01-1.66677E+02 1.00660E+01 4.45689E+01 3.75460E+00 4.16397E+00
 -1      1002-1.16733E+02-4.24985E+02 5.04101E+00 1.09315E+02 4.08967E+01 1.42414E+01
 -1      1003-5.30270E+01-7.59718E+01-1.55900E+01 8.04394E+01-1.44417E+01 5.33269E+01
 -1      1004-1.10942E+02-1.02335E+02-1.08424E+02 1.32195E+02-5.67085E+01 1.83596E+02
 -1      1005-5.15036E+01-1.21526E+02 1.99161E+01 7.05919E+01-9.12583E+00 2.75669E+01
 -1      1006-1.77909E+02-2.98912E+02-6.71729E+01 2.16903E+02-7.09398E+01 1.40459E+02
 -1      1007 6.00324E+01-2.58524E+01-2.53141E+01 2.61602E+01-1.38427E+00-2.12516E+00
 -1      1008-3.33391E+01-8.07400E+01-6.96349E+01-6.35182E+00-1.59216E+01-3.05684E+01
 -1      1009-9.55732E+00-3.70899E+01-1.07633E+01 1.81855E+01-1.49468E+01 1.12455E+01
 -1      1010-4.03808E+01-1.99622E+02-3.28591E+00 3.34014E+01-7.31435E+00-1.44818E+01
 -1      1011 4.26904E+01 2.42502E+01-2.55915E+01-1.85489E+01-6.27548E+00-7.97627E+00
 -1      1012 2.44587E+01-5.97265E+01-2.48841E+01 2.97808E+01-4.28836E+01 1.69559E+01
 -1      1013-4.68617E+00 5.91815E+00-2.76525E+01-1.45195E+01-1.86180E+01 2.32195E+01
 -1      1014-3.31152E+01-1.42442E+02-1.10975E+01 1.41086E+01 6.01016E+01-2.88638E+01
 -1      1015-7.82665E+00-1.90888E+01 2.84705E-01 1.28203E+01-4.00207E+00-1.10407E+01
 -1      1016-2.54925E+01-3.00089E+01-2.29475E+00 2.32743E+01-7.85263E+00-1.57174E+01
 -1      1017 1.83528E+01-2.33208E+01 4.73154E+00 1.89493E+01 9.46599E-01-1.04580E+01
 -1      1018 1.67892E+01-2.87815E+01-3.41437E+00 1.75495E+01 3.93606E+00-8.01843E+00
 -1      1019 3.42844E+01-9.83421E+00 4.09681E+00 2.60958E+01 1.48912E+00 1.17027E+01
 -1      1020 1.06182E+01-1.04807E+01 1.04254E+00 5.92713E+00-2.52511E+00 4.87563E+00
 -1      1021 1.16130E+01-1.30211E+01 2.34516E+00 1.31713E+01-7.50113E+00-1.56048E+00
 -1      1022 1.95385E+01-2.61195E+01 1.95564E+00 2.87196E+01-1.07250E+01-3.77211E+00
 -1      1023-4.86084E+00-2.12454E+01-6.07954E+00 1.32125E+01-8.64740E+00 1.18011E+01
 -1      1024-1.96395E+00-3.64824E+01-6.33986E+00 2.50576E+01-1.78353E+01 1.92206E+01
 -1      1025 3.46356E+01-1.69880E+01 3.55665E+00 3.24963E+01-7.86526E-01-1.84788E+01
 -1      1026 1.22548E+01-1.45891E+01-7.05094E+00 1.24936E+01 1.31581E+00-2.83997E+00
 -1      1027 6.15638E+00-1.27710E+01-8.88230E+00 1.81141E+01-6.15645E+00 1.54640E+01
 -1      1028 4.03415E+00-1.15116E+01-6.38926E+00 2.62355E+01-6.74245E+00 2.98307E+01
 -1      1029-3.15881E+00-1.00780E+01 1.32211E+01 4.05118E+01 3.88620E+01 8.24807E+01
 -1      1030-3.84701E+02-2.54723E+02 7.81534E+01-1.64445E+02-1.61142E+01 5.25021E+01
 -1      1031-3.29195E+02-2.10548E+02 7.79127E+01-1.26375E+02 4.97263E+01 1.57317E+02
 -1      1032-6.47415E+01-2.83565E+01 6.52826E+01 2.57709E+01 3.07022E+01 1.02228E+02
 -1      1033-4.00786E+00 2.92003E+00-2.85797E+00 3.36458E+01 2.67364E+01-6.67348E+00
 -1      1034-2.34981E+02-1.20594E+02-8.50977E+01-8.00493E+01 1.24092E+01-8.60123E+01
 -1      1035 6.55106E+01 1.53753E+01-3.84552E+00 3.24268E+01-1.26577E+01-4.61428E+01
 -1      1036-1.55258E+02-4.54370E+01 7.40862E+01-6.46664E+01-2.70748E+01-3.04033E+01
 -1      1037-3.02623E+01-4.50115E+01-5.54257E+00 7.04008E+00 3.04226E+01 7.81642E+01
 -1      1038-2.19150E+02-1.21854E+02 3.89516E+01-5.84200E+01 4.87811E+01 1.16086E+02
 -1      1039 4.29738E+01 1.17146E+01-1.69232E+01 4.31917E+01-5.21978E+00-4.26070E+01
 -1      1040-1.72435E+02-6.21008E+01-3.14122E+01-3.56106E+01-1.51946E+01-6.41820E+01
 -1      1041-3.74368E+01-7.32575E+01-7.49186E+00 1.66982E+01 6.35842E-01 2.23471E+01
 -1      1042-1.57555E+02-1.77777E+02-2.36988E+01-9.85473E+00 3.88018E+01 1.03444E+02
 -1      1043-1.43080E+02-1.51570E+02 2.81415E+01-5.21602E+01 1.93904E+01-3.78256E+01
 -1      1044-4.75682E+01-6.62498E+01 3.15889E+01 7.74756E+00 4.71155E+00-4.43513E+01
 -1      1045-1.95576E+02-1.29510E+02-3.90370E+01 2.68393E+01 4.53616E+00 1.17217E+02
 -1      1046-1.49691E+02-8.47396E+01-7.04807E+01 2.36985E+01-3.26544E+00 9.24125E+01
 -1      1047 7.95814E+01-7.80520E+00-5.09506E+01 5.48458E+01 1.18559E+01 3.86535E+01
 -1      1048-1.50016E+02-9.33797E+01-1.36036E+02-5.30516E+01 1.18339E+02 1.31949E+02
 -1      1049-1.91178E+02-1.43789E+02-4.74344E+01-4.87337E+00 2.56448E+01 1.23025E+02
 -1      1050-1.21792E+02-6.86416E+01-5.52340E+01 1.74147E+01-9.41594E-01 7.73535E+01
 -1      1051 1.06005E+01 6.52546E+00-2.44943E+01 1.56582E+01-4.18941E+00 1.64495E+01
 -1      1052-6.64744E+01-3.79288E-01 3.14302E+00 1.58689E+01-8.60434E+00-8.13962E+00
 -1      1053 5.95313E+01-1.17924E+01-2.78571E+01-2.82096E+01 1.91689E+00 5.22803E+00
 -1      1054 2.73894E+01-3.31479E+01 4.12912E+01-1.02578E+01 2.17334E+01-2.86518E+01
 -1      1055-3.22800E+01-1.14523E+01-7.51585E-01 3.93921E+00 7.85263E+00-4.33892E+00
 -1      1056-8.93478E+01-2.96167E+01-2.75546E+00 2.49449E+01 6.06339E-01-2.32156E+01
 -1      1057-2.36334E+00-1.08619E+01-1.57761E+01-1.69795E+01-1.72699E-01 1.13491E+01
 -1      1058-2.42430E+01-9.02653E+01 1.65738E+00 1.98051E+01 2.49437E+01-2.57020E+01
 -1      1059-2.86145E+01-7.93084E+00-7.94908E+00 6.15103E+00 6.53632E-01-2.09910E+01
 -1      1060-1.34959E+02-3.09671E+00-1.92786E+01 3.78074E+00 8.76536E+00-5.17470E+00
 -1      1061 1.81362E+01 1.65990E+01 1.19378E+01-2.58447E+01 6.87926E-01 5.88039E+00
 -1      1062-4.81110E+01-4.55806E+01 1.04097E+00 3.71095E+00-1.34176E+01 4.65108E+00
 -1      1063-2.04768E+01-6.25241E+01 4.40367E+00-3.64410E+01 5.02323E+00 3.50699E+00
 -1      1064 4.37691E+00-1.59759E+01 4.64765E+00-1.72437E+01 3.81677E+00-6.08869E-01
 -1      1065 4.16637E+00-2.18720E+01-1.09888E+01 2.56700E+00 1.26192E+00 1.30202E+01
 -1      1066-7.03385E+01-1.32190E+02 1.35228E+01-4.56561E+01-1.82545E+01 7.63216E+00
 -1      1067-1.26512E+01 3.07035E+01-4.88476E+00 3.36106E+00-1.88639E-01 2.18039E+00
 -1      1068-4.07272E+01-1.16269E+01 9.98386E+00 1.35261E+01 1.69899E+01-3.28248E+00
 -1      1069-2.37439E+01-7.84810E+00 5.49037E+00-7.89637E+00 3.45346E+01 1.16322E+01
 -1      1070-4.01187E+01-7.91838E+01-1.15917E+01-3.65068E+01 6.54888E+01 2.33019E+01
 -1      1071-2.06789E+01-1.87819E+01-6.55845E+00 5.17265E+00 6.78659E+00 1.50598E+00
 -1      1072-9.70538E+01-8.71580E+01-1.56184E+01-1.25525E+01 2.58364E+01-1.77446E+01
 -1      1073 7.16627E+00-1.26553E+01-1.45872E+00-7.29377E+00-6.18452E+00 1.99896E+00
 -1      1074 2.40013E+01-2.16719E+01-6.57345E+00-1.20486E+01-1.21600E+01 6.12280E+00
 -1      1075-1.36003E+02-4.03478E+01-2.71876E+01-1.01586E+02-6.51783E+01-2.81971E+01
 -1      1076-3.59208E+02-3.55797E+02 1.44426E+02-3.02050E+02-5.25961E+01-2.74001E+00
 -1      1077-1.57013E+02-7.03536E+01-1.16147E+01 1.46998E+01-3.63032E+01 7.35911E+01
 -1      1078-4.91634E+01-1.17725E+01-7.61122E+00-4.44430E+00-3.39135E+00 1.89208E+01
 -1      1079-6.75036E+01-1.16917E+02-2.45755E+01-1.64683E+01-2.16022E+01-1.23820E+01
 -1      1080-1.20800E+02-2.39922E+02-4.32218E+01 2.05675E+01-1.13275E+02-3.06562E+01
 -1      1081-7.14427E+01-2.46782E+02 1.07603E+01 2.73836E+01-8.68505E+01-4.80839E+01
 -1      1082 2.48616E+01 2.25579E+01-3.47979E+01-7.62738E+01-3.24549E+01-3.49870E+01
 -1      1083-1.58971E+02-2.96132E+01 3.35969E+01-5.22956E+01 8.03162E+00 3.01842E+01
 -1      1084-5.11881E+02-1.01043E+02 9.95274E+00-1.27013E+02 2.01776E+01 1.27333E+02
 -1      1085-1.68134E+02-8.01297E+01-1.96646E+00-9.74603E+01-2.52247E+01-2.90761E+01
 -1      1086-3.78413E+02-1.79591E+02-1.71623E+01-1.85798E+02-6.79243E+01-6.14668E+01
 -1      1087 9.02284E+00 5.55605E+01-3.12776E+01-5.86732E+01-2.94065E+01-5.96067E+00
 -1      1088-4.08074E+01-1.75747E+02-7.97874E+01 9.30145E+00-7.73067E+01 1.33853E+01
 -1      1089-3.09176E+00 7.74024E+01-2.12888E+00-2.68507E+01-1.71158E+01-1.92193E+01
 -1      1090-3.68351E+01 1.07126E+01 8.57714E+00-2.92542E+01-2.67346E+01-5.90270E+01
 -1      1091-3.93968E+01-2.23871E+01-2.99041E+00-9.48743E+00 7.37582E+00 2.31193E+01
 -1      1092-1.73254E+02-3.73639E+02 7.70538E+01 1.22217E+02-2.80179E+01 3.46090E+01
 -1      1093-7.06282E+01-2.27907E+02-2.55477E+01 4.83273E+01 6.08445E+00 6.63833E+01
 -1      1094 1.30104E+01-7.80804E+00-2.74209E+01-4.30978E+01 3.70833E+00 3.99016E+01
 -1      1095-5.38124E+00 4.35838E+01 1.58588E+01-4.56143E+01 1.82120E+01-9.98642E+00
 -1      1096-9.51596E+00-2.55719E+02-5.60317E+01-2.43440E+01 3.75441E+01-4.02517E+01
 -1      1097-2.62824E+00 5.51954E+01-2.22088E+01-3.75709E+01 9.68998E+00 5.60787E+00
 -1      1098-6.93147E+01-6.56730E+01-2.73333E+01-8.13551E+00 1.80209E+00 1.97483E+01
 -1      1099-4.00752E+01 6.87009E+01-1.97310E+01-1.91895E+01-6.87083E+00-1.84521E+01
 -1      1100-8.59550E+01 4.45573E+00-8.05283E-01 1.75377E+00 1.14748E+01-2.30246E+01
 -1      1101-5.13072E-01-7.26942E+00-4.35517E+01-4.70039E+01 2.95069E+01 1.38784E+01
 -1      1102-1.11213E+02-2.53293E+02-6.89742E+01 2.46445E+01 4.05812E+01 5.95886E+01
 -1      1103-6.32742E+00 9.78796E+01-3.31073E+01-5.53253E+01-1.80998E+01-3.97964E+01
 -1      1104-1.46577E+01-6.11845E+01-6.47701E+01 1.46281E+01-2.43706E+01-3.38751E+01
 -1      1105-4.79145E+01-3.77123E+01-2.31130E+01-1.36314E+01 4.42454E+00-1.45245E+01
 -1      1106-1.44057E+02-2.24687E+02-3.98151E+00 3.14494E+01-3.06746E+01-2.37543E+01
 -1      1107-2.88522E+01-9.67684E+01-1.15544E+01 1.19865E+01-2.50406E+01 3.72578E+01
 -1      1108-2.92137E+00-3.43765E-01 5.88100E+00-1.01215E+01-6.55497E-01 7.19218E+00
 -1      1109-4.37563E+01-1.33081E+02-4.39618E+01 2.02527E+01-1.84846E+01 2.17420E+01
 -1      1110 4.38545E+00 1.51689E+01 1.89590E-01-2.01743E+01-2.28295E+01 2.54552E+01
 -1      1111-1.15878E+01 1.05187E+01-2.64775E+00-1.52612E+01 7.36456E+00-1.51199E+01
 -1      1112-4.38629E+01-1.37129E+01-9.37614E+00-1.35686E+01-5.62128E+00-2.65899E+01
 -1      1113-8.63288E+00-2.14816E+01 6.54364E-01 1.05305E+01 1.07319E+01 8.21746E+00
 -1      1114-3.95074E+01-7.17535E+01-2.70991E+00 2.11927E+01 1.46843E+01 1.80103E+01
 -1      1115-2.73491E+01-5.53703E+00 1.01802E+00 3.26419E+01 1.51555E+01-1.95560E+01
 -1      1116-3.07397E+02-1.97412E+02 1.09310E+02-1.36208E+02 2.78146E+01-1.80700E+01
 -1      1117-5.55511E+01-1.05675E+02-1.04016E+01-8.95805E+00-9.16460E+00 1.13691E+01
 -1      1118-1.04447E+02-2.74889E+02-3.70582E+00 6.17447E-01-6.35585E+01 3.81481E+01
 -1      1119-3.02715E+01 2.33970E+01-8.85505E-01-8.17655E+00-1.83748E+01-5.22591E+00
 -1      1120-6.13349E+01-8.35264E+01 1.37939E+01 1.40967E+00 2.89289E+01 3.55048E+00
 -1      1121-4.60483E+01 2.26753E+01-4.76576E+00-5.46942E+00-8.39991E+00-1.44512E+01
 -1      1122-7.91444E+01-1.07234E+02 3.74628E+01-3.24072E+01-2.24787E+01-1.41588E+01
 -1      1123-1.40172E+02-3.41825E+02 6.01246E+00-9.03503E+01 2.31204E+01 4.46453E+01
 -1      1124-4.32866E+01-1.74829E+02 3.65320E+00-1.83342E+01-7.78856E+00 1.71566E+01
 -1      1125-5.07084E+01 2.25944E+01-2.35162E+01-3.06650E+00 6.60913E+00-2.09726E+01
 -1      1126-7.18935E+01 4.04411E+01 1.51640E+00 1.64541E+01-3.77544E+01-1.57496E+01
 -1      1127-1.34159E+01 4.21333E+01-6.97049E+00-6.07318E+00-3.55147E+00-1.16628E+01
 -1      1128-4.82510E+01-4.98310E+00-4.85614E+00-1.22653E+01-2.54468E+01 2.40952E+00
 -1      1129 3.66829E+01 3.73948E+00-1.21569E+01-1.60356E+01-9.31646E+00-8.52101E-01
 -1      1130 4.14636E+01-7.47330E+00 1.78910E-01-1.91628E+01-2.95358E+01-4.65233E+00
 -1      1131-4.14296E+01-2.85114E+01 1.41962E+00 5.31162E+00-5.77840E+00 2.91374E+01
 -1      1132-1.29731E+01-1.40618E+01 2.56937E+00 9.48399E-01-1.39553E+00 1.10793E+01
 -1      1133 5.84697E+01 3.76953E+00-3.27388E+01-3.74286E+01 3.16941E+00 4.85832E+00
 -1      1134-1.14590E+01-1.47304E+01 1.60234E+01-2.14270E+01 3.03560E+00 2.08788E+01
 -1      1135-1.08654E+01-2.42640E+01-2.81414E+00-3.06901E-01 9.85967E+00 1.36934E+01
 -1      1136-3.98201E+01-6.71604E+01-9.91452E+00-7.29499E+00 6.99052E+00 2.59899E+01
 -1      1137-3.25970E+00 1.41536E+01-1.51224E+00 1.19088E+01 7.56563E+00-7.02135E-01
 -1      1138-2.84417E+01 4.10939E+01 4.62376E+00 4.02055E+01 3.60849E+00-1.26813E+01
 -1      1139-7.40574E+01-5.11007E+00 3.94993E+00 4.75578E+01-1.95572E+00-6.06336E-02
 -1      1140-1.30462E+02 1.01309E+00 3.76228E+00 7.42377E+01-9.33981E-01-1.19915E+01
 -1      1141-9.92710E+00 4.29998E+00-2.82116E+00-1.01751E+00 3.10709E+00 2.86682E+00
 -1      1142-4.09305E+01-4.57621E+00-4.24874E+00-7.88545E+00 2.86997E+01 1.39955E+01
 -1      1143-2.77853E+01-2.99858E+01-1.67433E+01-9.90094E+00 1.30647E+01-5.95558E+00
 -1      1144-1.78100E+01-8.87909E+00-8.36071E+00 3.87758E+00 7.84539E+00 4.30789E-01
 -1      1145-2.66685E+00 1.30087E+01-4.49623E+00 3.30480E+00 8.07404E+00 4.47316E+00
 -1      1146-1.38554E+01 3.50209E+00-5.54147E+00-4.78027E+00 4.65207E+00 6.87186E+00
 -1      1147-3.44557E+01-8.47808E+01 2.34407E-01-3.33230E+01 4.18101E+01 1.14684E+01
 -1      1148-7.45262E+00-5.11836E+00-4.50874E+00 8.95665E+00 7.14147E+00-3.72772E+00
 -1      1149-4.45550E+01-7.21327E+01-5.75341E+00-2.58354E+01 3.08998E+01-1.51284E+01
 -1      1150-6.19743E+00 8.83786E+00-1.35902E+01 6.10898E+00 1.47020E+01-5.78920E+00
 -1      1151-3.06788E+01 1.97311E+01-4.74059E+00-1.10253E+01 1.10945E+01 1.84145E+01
 -1      1152-9.28334E+01-9.07323E+01-2.87092E+01-4.59134E+01 5.20864E+01 4.95516E+01
 -1      1153-1.57464E+01 4.83954E+01-1.59833E+01 6.50016E+00 1.79775E+01 1.76866E+01
 -1      1154-7.28261E+01-4.87387E+01-2.10438E+01-2.90796E+01 3.62067E+01 3.62749E+01
 -1      1155 7.24039E+00-6.28759E+00 7.36867E+00-1.54920E+01-3.57263E+00 3.42400E+00
 -1      1156-1.61851E+00-5.13207E+01 1.04912E+01-4.21013E+01-2.18182E+01 5.23987E+00
 -1      1157-2.05385E+02-9.36412E+01-2.66032E+01-1.51359E+01 3.81766E+01 5.11973E+01
 -1      1158-6.54369E+01-6.17186E+01-4.22350E+00-6.53663E+00 8.97696E+00 1.34701E+01
 -1      1159-1.26693E+01-7.23172E+00-8.30507E+00-4.02529E+00 7.34634E+00-1.91507E+01
 -1      1160-5.03562E+01-8.01559E+01 3.86021E+00 2.11518E+01 3.94491E+00 2.28755E+00
 -1      1161 1.37604E+01-1.81149E+01 1.16081E+01 3.00166E+00-2.64595E+01-3.88465E+00
 -1      1162-1.74576E+02-1.73987E+02 2.22423E+01-1.08636E+02-1.12245E+01 2.98432E+01
 -1      1163 5.74372E+00-1.60716E+00-1.60510E+00-1.87141E+01 9.87262E+00-1.12988E+00
 -1      1164-2.64289E+00-2.54788E+01-1.03413E+01-2.90933E+01 2.47057E+01-5.98213E+00
 -1      1165-1.16470E+01-7.55918E-01-1.05539E+00-6.36962E+00 6.68881E+00-1.32096E+01
 -1      1166-5.03479E+01-4.62161E+01-9.78062E+00 9.21551E+00 1.18084E+01-3.13668E+01
 -1      1167-8.14388E+00 1.32995E+00-7.40486E+00-9.16931E+00 1.41665E+01-5.92155E+00
 -1      1168-4.37744E+01-1.35501E+01-4.80722E+00-5.59901E-01 3.04728E+01-1.02491E+01
 -1      1169-1.83417E+00-5.92315E+00 8.12517E+00-1.41159E+01-2.33110E+00-6.20345E+00
 -1      1170-1.65440E+01-2.15099E+01 8.80112E+00-3.40333E+01-1.38402E+01-2.00744E+01
 -1      1171 5.51079E+00-2.38832E+01-9.59501E+00-3.69049E+01 2.39632E+01 5.57745E+00
 -1      1172 2.35770E+01-1.60097E+01-3.93089E+00-4.76786E+01 3.30209E+01-7.81058E+00
 -1      1173 1.01298E+00-3.10877E+01-4.28247E+00-3.60037E+01 2.06650E+01 9.76503E+00
 -1      1174-2.48323E+00-5.79276E+01-1.38330E+00-3.93887E+01 3.04652E+01-2.63236E+00
 -1      1175-3.50873E+01-1.56824E+01-1.66112E+01 4.95177E+00 3.17618E+01-1.37457E+01
 -1      1176 6.17302E+00 4.69581E+00-3.01022E+00-1.44330E+01 1.47799E+01-4.26460E+00
 -1      1177-5.11918E+00-2.56957E+01-6.14091E+00-9.07278E+00-7.46038E+00-1.05010E+01
 -1      1178 5.62063E-01-3.42069E+01-1.26944E+01-2.29184E+01-1.18493E+01-1.79080E+01
 -1      1179-5.59992E+00-1.38721E+01-2.08521E+01 1.16194E+01-7.19843E+00-8.23813E+00
 -1      1180-1.74738E+01-8.18948E+01-9.33320E+00-8.85206E+00 3.18902E+01 7.57462E-01
 -1      1181-3.48833E+01-5.92498E+00-9.64334E+00 5.79444E-02-1.95870E+00-2.60661E+00
 -1      1182-7.63301E+01-8.43170E+01 2.54114E+01 2.55545E+01 4.35253E-01-2.27477E+01
 -1      1183-1.57313E+01-1.97725E+01-2.15627E+00 5.72392E+00-1.07192E+01-1.15569E+00
 -1      1184-3.84716E+01-3.32212E+01 6.28269E+00 2.24595E+00-2.19251E+01 1.06449E+01
 -1      1185 2.36607E+00-2.76893E+01-2.72427E+00 1.84883E+01 3.43989E+00-1.73549E+01
 -1      1186-3.70144E+01-3.96525E+01-8.70565E+00 2.45041E+01 1.44396E+01-4.22548E+01
 -1      1187-3.19354E+01-4.76665E+01-1.01824E+01 1.70469E+01 2.04120E+00-8.59415E+00
 -1      1188-1.52339E+02-1.15523E+02-1.15809E+01 9.40937E+01 9.95654E-01-4.25403E+01
 -1      1189-1.89138E+01-3.43822E+01-7.28600E+00-1.34925E+01 1.29768E+01-3.59830E+00
 -1      1190-1.46284E+02-9.56724E+01 1.12302E+01-7.31250E+01-1.02757E+00-1.73266E+01
 -1      1191-1.87178E+01-9.10832E+00 1.54920E+00-1.59220E+01-9.30915E-01 2.75980E+00
 -1      1192-2.83772E+01-1.34181E+02 5.46531E+01-1.44800E+01-2.91988E+01 2.53656E+01
 -1      1193-4.46512E+00 1.50084E+00-2.28202E+00-3.40346E+00-5.69091E+00-6.26291E+00
 -1      1194-3.46729E+01-5.41241E+01-4.33980E+00 1.51795E+01-2.61190E+01-1.10217E+01
 -1      1195 2.31717E+00 4.88729E+00-9.24774E+00-5.78136E+01 1.56890E-01 3.29601E+01
 -1      1196-2.85010E+01-1.47270E+01 1.73241E+01-8.43747E+01-1.23415E+01 6.71154E+01
 -1      1197-1.03283E+02-7.05123E+01-2.23651E+01 1.27645E+01-1.56543E+01-6.76892E+00
 -1      1198-2.49434E+02-1.09624E+02-6.91754E+00 6.33603E+01-5.16544E+01 3.32416E+01
 -1      1199-1.03116E+02 2.29381E+01-3.10407E+01-2.65056E+01-1.23403E+01 5.69360E+01
 -1      1200-2.14903E+02 7.38602E+01-5.75994E+01-7.25528E+01-4.48772E+01 1.56884E+02
 -1      1201-1.69577E+01-6.86650E+01-2.69288E+01-5.58404E+00-8.60168E+00-2.25798E+01
 -1      1202-1.25894E+02-1.49115E+02-3.24103E+01 3.40574E+01-1.66124E+01-7.19466E+01
 -1      1203-1.82747E+01-2.30370E+01 1.73461E+01-1.46057E+01 8.24747E-02-1.24241E+01
 -1      1204-1.47729E+02-1.78188E+02 5.97302E+01 7.89019E+01 5.46534E+00-2.43669E+01
 -1      1205-1.19299E+02-4.56112E+01-1.38981E+01 2.50332E+00 3.23943E+01-3.98092E+01
 -1      1206-1.57911E+02-1.09045E+02-9.67488E+01 1.61935E+01 3.85090E+01-1.18700E+02
 -1      1207-1.71204E+01-4.00311E+01-1.16755E+01-7.52283E+00 2.69767E+01 3.28978E+00
 -1      1208-1.74828E+01-3.14048E+01-1.22079E+01 6.99837E-01 1.03636E+01-5.41543E-01
 -1      1209-1.03966E+02-2.67877E+01 1.26906E+01 6.74403E+00 1.95400E+01-2.55599E+01
 -1      1210-3.07161E+01-1.41045E+01 2.73891E-01 4.66652E+00 9.59332E+00-8.33143E+00
 -1      1211 1.77267E+01-2.34904E+01 5.39305E-02 1.51355E+00-1.08252E+01-1.88425E+01
 -1      1212 8.62130E+00-3.63717E+01-1.58969E+00-1.02898E+01-2.41467E+01-2.59963E+01
 -1      1213 3.58790E+01-1.77082E+01-3.10525E+00-5.84990E-01-7.72682E+00-7.66577E+00
 -1      1214 8.35177E+01-2.53924E+01-1.02440E+01-6.22357E+00-6.85916E+00-1.25302E+01
 -1      1215-2.57715E+01-1.26219E+01-4.96765E+00 2.35228E+00 6.24740E+00-4.67372E+00
 -1      1216-4.57281E+01-1.73409E+01-3.25340E+00-4.17413E+00 6.76235E+00-4.51600E+00
 -1      1217 6.55139E+01-2.91898E+01-6.88803E+00-2.90690E+00-1.34783E+01-2.50788E+01
 -1      1218 3.16222E+01-1.95181E+01-4.78482E+00 2.92135E+00-6.87231E+00-1.15298E+01
 -1      1219 9.22368E+01-2.51249E+01-7.03118E-01-3.33361E+00-9.66464E+00-2.17623E+01
 -1      1220 2.37054E+01-1.71898E+01-8.01703E-01-1.05948E+00-5.34084E+00-9.82412E+00
 -1      1221 6.60258E+01-4.43982E+01-8.46832E+00-4.14170E+01-1.51666E+01-8.65137E+00
 -1      1222 1.63204E+01-1.23374E+01-3.12497E+00-1.28810E+01-5.82837E+00-3.98572E+00
 -1      1223-3.31644E+01-3.59688E+01 1.08353E+01-1.98516E+01-1.99160E+00 2.68341E+01
 -1      1224-2.66541E+02-9.93380E+01-2.98840E+01 1.19271E+01-1.08060E+01 9.19038E+01
 -1      1225-1.36553E+01-4.23405E+01 7.19088E+00 1.55100E+01-1.21702E+01-8.14232E+00
 -1      1226 1.91998E+01-1.79483E+01-1.54073E+01 3.80127E+00-4.05486E+00 5.53582E+00
 -1      1227-3.15322E+01-1.82081E+01-7.09599E+00-5.49205E+00 2.17167E+01-2.64154E+01
 -1      1228-3.60049E+00 1.05895E+01-1.04690E+01-9.13941E+00-7.83241E-01 2.43643E+00
 -1      1229-1.62629E+01-3.92249E+00-1.12367E+01 8.87018E+00-7.28577E+00 9.14921E-01
 -1      1230-3.28999E+01-4.93147E+01-9.42158E+00 9.07759E+00-1.38223E+01-1.69648E+01
 -1      1231-8.82288E+01-1.07252E+02 3.86619E+00-1.88394E+01 2.27702E+00 1.66650E+01
 -1      1232-2.77067E+01-1.41712E+01-1.21200E+01 5.61457E+00-8.50646E+00 4.47751E+00
 -1      1233 1.12209E+02-7.78089E+00-2.30621E+01 4.03714E+00-5.42558E+00-2.03816E+00
 -1      1234 4.55743E+01-4.52785E+01-1.58446E+01 3.33108E+00 6.27272E+00-2.91229E+00
 -1      1235-4.24331E+00-2.12123E+01-1.09734E+01 3.14223E+01-1.08901E+01 2.00367E+00
 -1      1236-1.39781E+02-5.94324E+01-1.80207E+01 6.59769E+01 6.11720E+00 5.93806E+01
 -1      1237-2.21019E+01-6.22267E+00 4.22991E+00-7.58752E+00 3.23528E+00-3.50783E+00
 -1      1238-9.45806E+01-2.57306E+01 8.88845E+00-1.99974E+01 7.32023E+00-8.80438E+00
 -1      1239-1.82920E+01-1.18699E+01 1.72170E+00 1.39804E+01 3.39401E+00-2.51428E+00
 -1      1240-2.52408E+01-3.18357E+01 1.22701E+01 2.34973E+01-2.17385E+01-9.96190E+00
 -1      1241-2.81878E+01 7.15825E-01-3.98170E+00 2.31898E+00 1.83406E+01 6.68697E+00
 -1      1242-4.95094E+01-3.02993E+00-2.29721E+01-1.34184E+01 3.80967E+01 2.28069E+01
 -1      1243-1.91698E+01 8.84572E-01-1.77565E+01-1.02708E+01 2.52897E+01 9.39152E+00
 -1      1244-3.89579E+01 1.51033E+01-2.85278E+01-3.20131E+01 5.47986E+01 2.19645E+01
 -1      1245-5.02363E+01-8.22611E+01-6.83954E+00-2.54090E+01 9.48130E+01 3.59717E+01
 -1      1246-3.99462E+01-1.13306E+00 2.26721E+01-4.70194E+00 5.00295E+01 2.07000E+01
 -1      1247-6.60477E+00 3.14633E+01-1.75898E+01 2.19778E+01-1.02926E+01 8.89604E-02
 -1      1248-5.75062E+00 1.68934E+01-6.12990E+01 1.13613E+01-3.37960E+01 6.77999E+00
 -1      1249-5.34320E+00 2.33525E+01-4.01472E+01 1.62871E+01-1.75516E+01 4.59160E+00
 -1      1250-3.11947E+01-1.01953E+02 3.96691E+00-1.54653E+01 5.00178E+01 1.75752E+01
 -1      1251-6.73260E+01-1.06671E+01-3.86008E+01-3.02978E+01 1.44387E+01-3.12373E+01
 -1      1252-1.29940E+02 5.99329E+01-3.67780E+01-8.08896E+01-3.39016E+00-7.01501E+01
 -1      1253-3.22814E+01-2.48138E+02-5.30802E+00-4.42517E+01-5.02401E+01 4.47237E+01
 -1      1254-3.65851E+01-7.84999E+01-1.72806E+01-1.48664E+01-5.97999E+00 1.20626E+01
 -1      1255-6.37025E+01-4.16604E+01 7.26618E+00-5.39807E+00-2.28491E+01-2.28602E+01
 -1      1256-4.30629E+01 2.76942E+01-9.55788E+00-5.10174E+00-6.97522E+00-1.91339E+01
 -1      1257-3.28679E+01 8.44675E+01-3.71496E+01-7.85179E+00-2.39379E+01-1.38247E+01
 -1      1258-5.93705E+01 5.33979E+01-2.85357E+01-2.33405E+01-6.00599E+01-2.70128E+01
 -1      1259 1.36917E+01 2.35489E+01-1.12950E+01 2.89127E+01 1.18846E+01-3.48652E+00
 -1      1260-2.46883E+01-3.19703E+01 1.13281E+00 3.09562E+01 3.14889E+01-9.62144E+00
 -1      1261 3.73944E+01 5.56105E+01 1.21115E+01 6.36170E+01 3.93303E+01-4.94148E-01
 -1      1262-3.54724E+02-9.04050E+01 5.62316E+01-9.63652E+01 3.06093E+01-1.20240E+02
 -1      1263 1.16981E+01 1.90775E+00-1.46108E+01-1.43957E+01-8.38421E+00 4.01923E+00
 -1      1264-2.19709E+01 7.20227E+00-1.70835E+01-1.58052E+01-3.01998E+01 3.07692E+01
 -1      1265 3.17397E-01-1.72945E+01-3.44792E+00-3.41882E+00-6.34360E+00 1.73973E+00
 -1      1266 1.95412E+01-3.30499E+01-2.04884E+00-1.04080E+01-1.19881E+01-1.00476E+00
 -1      1267-5.22244E+01-3.45556E+01 5.05392E+00-7.09287E+00 2.84702E+01 1.26882E+01
 -1      1268-1.20188E+02-3.24957E+02 7.30378E+01 5.63486E+01 4.12466E+01 2.38561E+01
 -1      1269-1.76340E+01 3.08743E+01-1.48218E+01 1.10567E+01-1.48279E+00 2.40292E+00
 -1      1270-8.25602E+01-1.35145E+02-7.92417E+00 3.80691E+01-3.02423E+01 5.86692E+00
 -1      1271 1.08563E+01-1.61581E+01-6.45677E+00 9.38412E+00-8.51501E+00 6.31680E+00
 -1      1272-4.00677E+01-5.18364E+01-3.85523E-01 2.52823E+01-5.54824E+00 2.00175E+01
 -1      1273-2.72550E+01-1.70684E+01-5.84673E+00-2.29769E+00-1.83989E+00 1.02955E+01
 -1      1274-1.37340E+02-4.25259E+01 1.76570E+01-4.55870E+00 6.74318E+00 2.35408E+01
 -1      1275 1.37019E+01-3.39366E+01-3.99481E+00-1.06200E+01-1.92116E+01-6.76930E+00
 -1      1276-1.01014E+01-7.86529E+01 1.31515E+01-5.09266E+00-2.70561E+01 1.36574E+01
 -1      1277-6.26637E-01-4.25131E+01-5.36061E+01 8.08963E+00 1.30343E+01 1.34911E+00
 -1      1278-1.58287E+02-8.78787E+01-1.16488E+01 1.33245E+01 3.89050E+01 3.73607E+00
 -1      1279-2.57594E+01-7.60444E+01-2.15048E+01-2.48561E+01-1.06723E+01 2.20292E+00
 -1      1280-3.21349E+02-3.36168E+02-1.73068E+01-2.25533E+02-7.20242E+01-4.36624E+01
 -1      1281 1.21203E+01 1.00127E+01-8.29110E+00 2.71169E+01 2.52748E+01 1.45169E+01
 -1      1282 1.32816E+01 8.81911E+00-2.68337E+00 1.49242E+01 1.23952E+01 5.66384E+00
 -1      1283-1.39252E+00-1.07532E+01 1.61807E+00 6.89675E+00 1.05257E+01 2.54354E+01
 -1      1284-5.09537E+01-6.28313E+01 1.45537E+00-2.24378E+01 4.38961E+00 2.62055E+01
 -1      1285-5.36101E+01-1.10118E+02-1.35122E+00 5.10157E+01-2.32438E+01 4.73309E+01
 -1      1286-6.21287E+01-9.35506E+01 3.40815E+00 6.24869E+01 2.44569E+00 2.93740E+01
 -1      1287-8.37259E+01-2.53755E+02-3.78448E+00 8.77221E+00-3.75162E+01-3.99619E+01
 -1      1288-5.18372E+01-9.86473E+01-7.30687E+00 2.22966E+01-2.68565E+00-5.87405E+00
 -1      1289-1.94921E+02-1.57125E+02 4.45361E+01 5.53381E+01-8.62037E+01-6.03214E+00
 -1      1290-1.03837E+02-7.16836E+01 1.32669E+01 2.56263E+01-3.20145E+01-2.64861E+01
 -1      1291-7.93928E+00 8.14103E+00-1.34628E+01 1.37693E+01-6.95542E+00 2.15285E+01
 -1      1292-2.81924E+01-1.06547E+01-1.30864E+01-1.52162E+01-3.87348E+01 2.21588E+01
 -1      1293-4.17605E+01-1.09653E+02-1.30248E+01 2.48800E+01-2.89276E+01 2.05743E+01
 -1      1294-3.07480E+01-4.66383E+01-3.02678E+00 1.67286E+01-1.64098E+01 6.17229E+00
 -1      1295-2.46525E+00 2.87380E+01 5.17992E+00-1.45675E+01 1.46155E+01-1.39231E+01
 -1      1296-1.76237E+01 3.88845E+01-2.40031E+00-2.92723E+01 1.39657E+01-1.35610E+01
 -1      1297-7.92979E+00 4.13502E+00-6.19703E+00-6.47865E+00 1.29581E+01 3.39610E+00
 -1      1298-2.73867E+01-1.54786E+01-1.42661E+01-8.55696E-01 3.82671E+01 3.56303E+00
 -1      1299-3.38401E+01-7.88998E+00 8.34856E+00-2.24133E+01 3.56111E-01-1.73202E+01
 -1      1300-9.18410E+01-1.51258E+01-1.35653E+00-5.80560E+01-1.11636E+01-4.93243E+01
 -1      1301-2.99057E+00 2.64852E+00-4.24509E+00-4.75040E+00 1.49098E+00 3.52418E+00
 -1      1302-5.32159E+01-8.08678E+01-1.29426E+01 5.48167E+00 1.02017E+01 1.67906E+01
 -1      1303-2.43868E+01-7.31081E+00-5.09080E+00-1.88375E+01 1.71501E+01 6.19062E+00
 -1      1304-3.71517E+01-1.17765E+01-2.57033E+01-2.85851E+01 3.64886E+01 2.18793E+01
 -1      1305-2.47775E+01-7.28684E+00 6.19077E+00-1.40011E+01 6.43185E+00 2.27674E+00
 -1      1306-7.95837E+01-3.05172E+01-1.06090E+01-5.78194E+01 1.93361E+01 1.98634E+01
 -1      1307-4.06860E+01 1.21161E+01-1.70237E+01 1.81330E+01-3.40467E+00-3.39924E+00
 -1      1308-1.34445E+02-1.55316E+02-1.66103E+01 7.32432E+01 1.79543E+01-2.75011E+01
 -1      1309-6.98929E+01-9.53835E+01 1.42488E+01 5.67016E+01-1.20285E+01 1.50138E-01
 -1      1310-2.12971E+02-2.57765E+02 2.80228E+01 1.66252E+02-1.15432E+01-1.76238E+00
 -1      1311-3.52269E+00-8.11550E+01-6.46057E+00-1.39818E+01-1.75657E-01-1.75450E+01
 -1      1312 3.35017E+01 6.82940E+00-4.73258E+00-3.48446E+01 1.54946E+01 3.37999E+00
 -1      1313-6.42203E+00-9.16345E+00-1.10288E+01-9.22881E+00 5.73334E-01-2.29871E+01
 -1      1314-1.10949E+02-4.47332E+01 1.97540E+00-1.38582E+01-2.21738E+01 2.95581E+00
 -1      1315 1.18510E+01-3.30775E+01-1.42928E+01-9.49613E+00-9.76369E+00 1.19076E+01
 -1      1316-4.06279E+01-1.05320E+02-4.26268E+01 1.03701E+01-2.94894E+01-9.08125E+00
 -1      1317-1.55155E+00-6.26499E+01 2.69333E+00 1.47945E+01-2.72629E+01-5.35222E+00
 -1      1318-4.58169E+01-7.52246E+01-1.43088E+00 9.42537E-01-1.56928E+01 2.47697E+01
 -1      1319-2.13184E+02-6.85167E+01-1.35103E+01 2.43835E+00 3.98270E+01 5.22165E+01
 -1      1320-4.79365E+01-4.36864E+01-1.83307E+01 1.56674E-01 1.68427E+01-4.81725E+00
 -1      1321-2.22907E-01-2.94202E+01-1.26243E+01 1.82965E+01-1.04851E+01 1.51989E+00
 -1      1322-1.71327E+02-8.60845E+01-7.45436E+00 1.87052E+01-1.81054E+01 2.45642E+01
 -1      1323-8.71403E+01-2.87222E+02-8.52281E+00 8.21819E+01-2.81402E+01 1.28447E+01
 -1      1324-1.04925E+02-3.59529E+02-7.29158E+00 5.96188E+01-4.41482E+01 3.77065E+01
 -1      1325-4.80834E+01-2.24226E+02-3.07623E+01-4.50741E+00 3.72036E+01 2.90121E+01
 -1      1326-1.37549E+02-4.31720E+02-5.44021E+01 1.18410E+01 3.84972E+01 6.20436E+01
 -1      1327-1.39161E+02-4.36916E+01-1.80869E+01 1.76573E+01-1.81549E+01 1.26351E+01
 -1      1328 1.15505E+01-1.25321E+01-1.76662E+01 2.28214E+01-1.68304E+01-5.05542E+00
 -1      1329-6.38689E+01-3.06160E+02-1.49304E+01 7.03087E+01-4.84369E+01 1.14564E+01
 -1      1330-3.73439E+01-1.42349E+02-1.60454E+01 4.01055E+01-1.87513E+01-5.16917E+00
 -1      1331-1.17726E+01 5.91879E+00-1.34250E+01-1.24291E+01-1.59549E+01-4.04216E+00
 -1      1332-2.54937E+01-8.87600E+01 4.48398E+00 8.70084E+00 2.00971E+01-2.32916E+00
 -1      1333-1.83139E+01 1.26707E+01-2.39428E+01 1.40855E+01-2.73156E+01-3.19813E+01
 -1      1334-1.23326E+02 4.58519E+00 4.17121E+01-1.45708E+01-4.14829E+00-2.18748E+01
 -1      1335-1.41219E+01-2.91012E+01-9.75203E+00-4.10756E+00-4.72926E+00-3.55013E+00
 -1      1336-2.31486E+01-6.33972E+01-9.96343E+00 2.98630E+00-9.45729E+00-1.87483E+01
 -1      1337-6.22716E+00-8.52041E+00 3.71231E+00-2.47937E+00-1.00436E+01 1.52267E+00
 -1      1338-2.47860E+01-7.21194E+01 8.49940E+00-7.75029E+00-1.05977E+01-1.34259E+01
 -1      1339-3.97577E+01-4.42722E+01 2.10389E+01 1.50858E+01-2.27340E-01 1.47039E+01
 -1      1340-1.24930E+02-1.69794E+02 2.86790E+01 7.85625E+01 4.01365E+01-4.72158E+01
 -1      1341-6.81423E+00-1.94360E+01-3.61639E+00 5.43664E+00-1.38115E+01 4.21195E+00
 -1      1342-5.49455E+01-1.08303E+02-2.63269E+01 4.32738E+01-1.43340E+01 1.50145E+01
 -1      1343-4.09738E+01-5.08665E+01-2.60024E+00 5.63557E+00-2.24608E+01 2.81496E+01
 -1      1344 2.69629E+01 1.28799E+01-4.97164E+00-2.60117E+01 2.42633E+00 6.86270E+00
 -1      1345-1.36147E+01-1.36346E+01-5.35279E+00-3.47193E+01 3.35065E+00 2.33859E+01
 -1      1346-7.99092E+00-1.08087E+01 4.60710E-01-1.30413E+01 7.50352E+00 1.75271E+01
 -1      1347-4.96869E+01 1.19258E+00 6.79557E+00-2.47152E+01-1.04096E+01-1.67520E+01
 -1      1348-3.98485E+01-1.88492E+00 2.16050E+01-3.29228E+01 2.15544E+01-1.31972E+01
 -1      1349-6.33764E+01-6.03379E+01-2.38707E+01-8.01459E+00 2.39216E+01-5.32469E+00
 -1      1350-1.50088E+02-8.40285E+01-2.61740E+01 3.63991E+01 7.30890E+01-2.96229E+01
 -1      1351-7.78561E+01-1.95958E+02-3.13366E+01-6.68373E+01 4.51830E+01 2.06205E+00
 -1      1352-6.35035E+01-1.99335E+02-6.84128E+01-5.04148E+01 1.18171E+02 2.01124E+01
 -1      1353-3.17450E+01-1.18552E+01 2.51291E+01-6.15367E+00 2.57786E+01-2.20454E+01
 -1      1354-1.52695E+02-1.06327E+02 2.14851E+01 6.84159E+01 5.95254E+01-4.51255E+01
 -1      1355-1.73277E+02-1.17902E+02-2.45039E+01-1.03468E+02 4.95943E+00-3.85637E+01
 -1      1356-2.36834E+02-1.59334E+02-5.57946E+01-1.57539E+02 5.33124E+01-2.28312E+01
 -1      1357-1.09357E+02-1.51297E+02 3.59487E+00-7.74568E+01 9.35966E+00-9.18225E+00
 -1      1358-1.91771E+02-3.29987E+02-5.35906E+01-1.80298E+02 6.40030E+01 1.24944E+01
 -1      1359-6.28945E+01-7.13528E+00-3.37088E+01-4.56320E+01 2.45467E+01-4.16021E+01
 -1      1360 1.01570E+01 1.43203E+01-1.41043E+01-4.82856E+01-1.60855E+01-9.51284E-01
 -1      1361-8.43197E+01-1.72605E+02-5.78520E+01 8.10853E+00-1.78536E+01-9.39444E+01
 -1      1362-2.82389E+01-8.01125E+01-1.54886E+01-3.07072E+01-1.19238E+01-1.13048E+01
 -1      1363-1.34051E+02-2.54800E+02-1.72077E+01-1.16581E+02-3.93995E+01-5.91059E+01
 -1      1364-7.32813E+01-1.42752E+02 1.24772E+01-6.65666E+01-5.14978E+00-1.83000E+01
 -1      1365-5.24192E+00-1.12972E+02-2.25233E+01-2.44625E+01-1.63797E+01-1.15968E+01
 -1      1366-5.86905E+01-8.16723E+01 2.34443E+01 2.30754E+01-2.22985E+01-4.72247E+01
 -1      1367 2.59855E+01-1.05512E+01-5.60893E+00-4.97406E+00 3.98764E+00-1.69980E-01
 -1      1368-4.31321E+01-1.10131E+02 5.16667E-01 3.92855E+01 1.39112E+01-2.68235E+01
 -1      1369-9.68718E+01-8.28725E+01-4.11756E+01 2.65773E+01-3.06103E+01-4.71599E+01
 -1      1370 1.35412E+01-1.41816E+01-2.59197E+01-2.75878E+01-1.35294E+01-9.15283E+00
 -1      1371-1.13038E+02-1.48377E+02 2.85724E+01-1.85415E+01-4.81271E+01-2.54867E+01
 -1      1372 1.49745E+01-7.18383E+01 1.56664E+01 1.53605E+00-1.63849E+01-7.29476E+00
 -1      1373-8.65503E+01-5.57008E+01-4.39623E+00-7.45307E+00-9.91475E-01 2.43979E+01
 -1      1374-1.88399E+02-1.68853E+02-6.55644E+00-2.21807E+01 1.46311E+01 6.10763E+01
 -1      1375-8.30103E+00-1.77448E+01-1.40075E+01 4.13843E+01 2.86390E+01-1.19167E+01
 -1      1376-3.38728E+01-7.48152E+01-1.24006E+01 4.28970E+01 4.52536E+01 4.18820E+00
 -1      1377-1.26763E+01-4.16629E+01-3.93614E+00-1.02433E+01 1.81597E+00 4.47496E+01
 -1      1378 1.21159E+01-3.53750E-01-8.28750E+00 1.50796E+01-1.06672E-01 1.87355E+01
 -1      1379 2.93969E+01 5.11619E-01-1.92049E+01 3.59671E+01 2.63918E+01 7.52459E+00
 -1      1380-2.47266E+01-5.85828E+01-2.36526E+01 2.82101E+01 8.13573E+01 4.19693E+01
 -1      1381-1.29639E+01-2.88833E+01 3.89954E+00 2.89221E+01 3.09236E+01 8.52776E+00
 -1      1382 7.67136E-01 3.19607E+00-9.20106E+00 3.84084E+01 2.15503E+01-8.51125E+00
 -1      1383 9.86729E+00-4.06453E+01-2.76340E+01 1.44605E+01 5.71698E+01 2.74203E+01
 -1      1384 6.32509E+01 7.15422E+00-8.94976E+00 4.57671E+01 3.35777E+01 4.29680E+00
 -1      1385-4.99126E-01-9.60775E+00-4.69336E+00 1.11664E+01 6.19615E+00 1.61808E+01
 -1      1386-6.42378E+01-9.58096E+01 8.48641E+00-2.57868E+01 7.69871E+00 3.79515E+01
 -1      1387 2.84592E+00 7.68828E+00-1.16657E+01-1.37783E+01 1.30719E+01-1.41978E+00
 -1      1388-3.16143E+01-8.14611E+01 1.28435E+01 1.54907E+01-3.76674E+01 1.08172E+01
 -1      1389-9.24399E+00 1.33532E+01-2.64682E+01 1.36671E+01 2.30063E+01-9.77803E+00
 -1      1390-4.37322E+01-1.24407E+02 9.21628E+00-5.09331E+00-1.58530E+01-1.59928E+01
 -1      1391 5.64810E+01-1.78966E+01-2.26278E+01 3.74490E+00-3.75126E+00 1.30405E+00
 -1      1392-1.29580E+01-7.30187E+01-2.36529E+01 1.56446E+01-3.75910E+00 4.88186E+01
 -1      1393 5.28421E+01-1.67140E+01-1.21004E+01-4.66386E+01 2.34613E+01 2.73446E+00
 -1      1394 1.23449E+01-1.95668E+01-2.89760E+01-1.83809E+01 1.71783E+01-1.11036E+00
 -1      1395-1.73272E+01 1.38202E+01-6.86810E+00-1.16992E+01 1.63612E+01-1.54011E+01
 -1      1396-6.68918E+01-4.50300E+01 1.81910E+01 2.21089E+01 2.15448E+00 7.68688E+00
 -1      1397-5.90598E+01-1.24854E+01-3.78407E+00-1.48814E+00 5.88010E+00-2.38581E+00
 -1      1398-3.58581E+02-5.38337E+01 3.63546E+01-7.45520E+00 3.80659E+00-8.28705E+00
 -1      1399 4.88500E+01 8.31704E+01-5.57488E+01 1.01068E+02 5.86983E+01-4.94138E+01
 -1      1400 2.39419E+02 2.39634E+02-8.58935E+01 1.96840E+02 5.12294E+01-5.58286E+00
 -1      1401 1.04503E+02 1.65523E+02-6.85129E+01 8.96304E+01-3.21602E+01 2.40376E-01
 -1      1402-1.13752E+02-5.09840E+01-7.58110E+01-7.49727E+01-5.59474E+01-3.78547E+01
 -1      1403-2.51761E+01 4.66604E+00 1.46014E+01 4.98687E+01 5.20197E+01-2.80537E+01
 -1      1404 6.72277E+01 1.15137E+02-4.86881E+01 9.17383E+01 2.94660E+01-1.49145E+00
 -1      1405-1.85111E+02-1.34911E+02-7.37844E+00-6.42909E+01-1.68411E+01-4.82738E+00
 -1      1406 7.03181E+01 6.26163E+01-4.49532E+00 7.10999E+01 2.74767E+01 3.13995E+01
 -1      1407-2.80638E+02-2.98961E+02 1.42002E+02-1.99397E+02 5.93791E+01-6.88075E+00
 -1      1408 2.99132E+01 5.03810E+01 4.66764E+01 4.37551E+01-1.16672E+01-1.23710E+01
 -1      1409 8.68371E+00-2.43557E+01-1.22480E+01-1.19587E+01 1.35612E+01 1.65826E+01
 -1      1410-7.78918E+00-1.67053E+01-9.47454E+00-5.16600E-01 5.24948E+00 1.01080E+01
 -1      1411-1.38688E+01-2.14504E+01-6.91435E+00-5.16966E+00-7.45530E+00-1.46869E+01
 -1      1412 4.22735E+00-2.32520E+01-1.76926E+01-2.91369E+01-1.57480E+01-2.98869E+01
 -1      1413-2.96329E+01-1.93127E+01-1.88161E+01-9.61189E+00 1.79082E+01 4.67866E+01
 -1      1414-8.81582E+00-8.88755E+00-6.27242E+00 4.65250E+00 4.74510E+00 1.83609E+01
 -1      1415 1.55148E+01-1.60689E+01 1.61598E+00-6.40810E+00 8.46872E+00-9.47365E+00
 -1      1416 5.47291E+00-1.51241E+01 1.05404E+01 4.56913E+00 1.23741E-01-5.05173E+00
 -1      1417-3.06312E+00-2.99947E+01-5.49005E+00-1.02223E+00 2.89046E+01-1.08645E+00
 -1      1418 4.73503E+00-1.27110E+01 2.96090E+00 3.41055E+00 6.60118E+00 7.89056E-01
 -1      1419 2.87748E+00-1.52749E+01 2.62341E+00 8.45371E-01 4.28798E-01-9.15574E+00
 -1      1420 2.24038E+01-5.40990E+00-6.20128E+00-1.28590E+01 2.97394E+00-8.97783E+00
 -1      1421-7.76215E+00-1.04509E+01-8.61618E+00 7.04608E-02 9.24251E+00 1.62314E+01
 -1      1422-1.23398E+01-1.22506E+01-3.24517E+01-1.35353E+01 1.38443E+01 4.55863E+01
 -1      1423 1.40606E+00-2.05526E+01-2.24600E+01-1.23950E+01 2.16037E+01 5.26543E+00
 -1      1424-8.50378E-01-1.81948E+01-4.74056E+00-3.54190E+00 7.89164E+00 5.14035E+00
 -1      1425-8.21059E+00-1.94185E+01-1.50976E+01-3.21191E+00 6.67138E+00 1.73161E+01
 -1      1426 3.30667E+00-3.81584E+01-2.91344E+01-2.07313E+01 2.95014E+01 3.46011E+01
 -1      1427-4.84591E+01-1.65302E+01 1.38554E+00-1.27393E+01 1.99182E+01 5.67321E+01
 -1      1428-3.47081E+00-5.10764E+00-1.19952E+01 2.39120E+00 8.73599E+00 2.32044E+01
 -1      1429-2.18309E+00 5.07564E+00-5.80490E-01-8.13320E+00 7.75466E-01-9.31507E-01
 -1      1430-1.23266E+01-3.81357E+01 5.12210E+00-2.78134E+01-2.62500E+01 1.31457E+01
 -1      1431-1.38863E+02-1.10690E+02-2.49082E+01-1.78449E+01 6.08775E+00 6.48308E+01
 -1      1432-1.00423E+02-2.98191E+01-2.29149E+01-1.58688E+01-3.67385E+00 3.25265E+01
 -1      1433-3.02268E+02-9.33484E+01-2.31775E+01 4.50766E+00 4.22657E+01-6.50386E+01
 -1      1434-1.04290E+02-2.22743E+01 3.30862E+01 1.42571E+00 1.04962E+01-1.25989E+01
 -1      1435-9.65419E+01-4.85742E+01-3.40032E+00-2.75706E+01 6.70805E+01-5.03578E+01
 -1      1436-6.18981E+01 4.81948E+00-7.77485E+00-1.50919E+01 1.57985E+01-2.89418E+01
 -1      1437-3.07223E+01-1.15895E+00 6.94737E+00-4.71845E+00 5.97153E+00 1.13969E+01
 -1      1438-7.10895E+01-1.42727E+02 4.28191E+01-2.13482E+01 1.45209E+01 1.12297E+01
 -1      1439-1.28242E+02-7.17679E+01-2.06932E+01-1.09477E+01 3.82834E+01 1.31526E+01
 -1      1440-3.46165E+02-1.36536E+02-1.24293E+01-2.11996E+01 7.98297E+01 3.99848E+01
 -1      1441-5.87184E+01-1.04789E+02 8.55612E+00-3.30678E+01 3.46858E+01 3.16444E+01
 -1      1442-2.86873E+01-6.91229E+00 4.78369E-02-1.54469E+01 6.02051E+00 1.56575E+01
 -1      1443-5.13744E+01-3.07746E+01 5.38853E+00-1.30155E+01 1.47557E+00-2.62520E-02
 -1      1444-8.36630E+01-1.14790E+02 6.16826E+00-3.96283E+01 2.03211E+01-2.88741E+01
 -1      1445-2.65665E+01 7.18565E+01-2.22120E+01-9.44671E+00 1.54935E+01 1.03387E+01
 -1      1446-4.90069E+01 1.17509E+01-1.62701E+01-2.02239E+01 3.41720E+01 1.77653E+01
 -1      1447-9.76130E+01-7.13639E+01 2.24987E+01-3.20376E+01-1.35381E+01-9.56095E+00
 -1      1448-4.62364E+02-3.79042E+02 9.80496E+01-2.42551E+02-6.96216E+00 2.94742E+01
 -1      1449 3.82476E+01-2.94461E+01-2.77738E+01 1.57057E+01 1.41831E+01-1.12697E+01
 -1      1450-1.09163E+02-1.31944E+02-1.07344E+01-4.84530E+01 2.63564E+00-1.01385E+02
 -1      1451 6.07983E+01-3.84867E+01-1.86372E+01 4.59289E+01 2.91980E+01 3.57224E+00
 -1      1452 3.36820E+01-9.59718E+01-2.57540E+01 2.01892E+01 3.56000E+01-7.86174E+00
 -1      1453-6.64312E+01-8.22859E+01-7.16156E+00-1.01337E+01-1.08163E+01-2.76999E+00
 -1      1454-1.60735E+02-1.35991E+02 1.57998E+00-6.16486E+01-6.43110E+01-3.02796E+00
 -1      1455-8.06703E+01-4.20933E+01-1.68265E+01 1.78199E+01-9.02784E+00-2.70862E+01
 -1      1456-1.75837E+02-1.42376E+02-6.51990E+01-2.84497E+01-5.04548E+01-1.42672E+02
 -1      1457-2.27640E+02-1.54256E+02-3.25965E+01 1.22922E+02 6.56364E+00-5.96862E+01
 -1      1458-3.86721E+02-1.94442E+02-6.65803E+01 2.13720E+02 3.67357E+01-1.38571E+02
 -1      1459-5.78796E+01-1.74979E+02-1.19235E+01-3.29042E-02-2.27573E+01 2.45519E+01
 -1      1460-1.36544E+02-2.28501E+02-4.28866E+01 5.73304E+00 1.77671E+01-8.49653E+00
 -1      1461-1.45706E+02-1.02765E+02 1.50173E+01-4.41696E+01 4.17284E+01-6.60713E+01
 -1      1462 3.11376E+01 8.16098E+01-7.82444E+00 8.56929E+01 1.74500E+01-2.71746E+01
 -1      1463 5.98868E+01 3.81430E+01-5.67075E+01 5.35904E+01-2.40128E+01-1.48136E+01
 -1      1464-1.07672E+02-1.91160E+02-1.30253E+02-9.95411E+01-2.44497E+01-1.39370E+01
 -1      1465 5.36248E+01 1.09160E+02-4.73559E+01 1.00159E+02-8.84966E+00-2.69851E+01
 -1      1466-7.09580E+01 5.40568E+01-5.96339E+01 5.07576E+01-5.89762E+00-4.10752E+01
 -1      1467 1.11342E+01 8.57335E-01-2.22888E+01-4.18493E+01-1.47557E+00 6.36121E+00
 -1      1468-2.59126E+01-1.94834E+01-1.01939E+01-6.57995E+01-2.81815E+01 3.33763E+01
 -1      1469 1.47560E+01-1.05004E+01 6.37589E+00-2.20816E+01-4.02816E+00-1.71554E+01
 -1      1470 1.26647E+01 9.91951E-01-5.13078E+00-1.09250E+01 1.66346E+00-1.36286E+01
 -1      1471-5.47846E+00-2.14096E+01 2.51827E+00-2.01992E+01-1.04117E+01-7.68693E+00
 -1      1472-1.51518E+01-5.68039E+01-1.24618E+01-4.14677E+01-3.30555E+01-1.16219E+01
 -1      1473-3.44394E+01-4.09913E+01-1.32451E+01-1.18867E+01 1.95919E+01 5.12973E+00
 -1      1474-5.95846E+01-9.69282E+01-2.05653E+01-4.88014E+00 4.72379E+01 1.43514E+00
 -1      1475-1.39095E+01-4.75860E+01-1.27389E+01-3.73749E+01-2.30704E+01-1.53899E+01
 -1      1476-8.01690E+00-2.42282E+01-5.16991E+00-9.71766E+00-7.64566E+00-5.99989E+00
 -1      1477 6.16951E+00-6.75997E+00 4.78270E-01 2.14171E+01 5.14851E+00-4.95821E+00
 -1      1478 4.07452E+01 3.77015E+00-1.66365E+01 3.79706E+01 2.01938E+01-1.40266E+01
 -1      1479-7.60846E+00-1.87172E+01-6.05436E+00 1.13244E+01-1.19791E+01 3.51659E+00
 -1      1480-1.53568E+01-3.88261E+01-4.92707E+00 4.37143E+01-2.33732E+01 1.89153E+01
 -1      1481-1.05139E+01-9.12991E+01 8.35759E-01 3.95219E+01 1.22999E+01-3.76083E+00
 -1      1482-2.91613E+01-1.85063E+02-7.58831E+00 9.43064E+01 3.61469E+01-1.49630E+01
 -1      1483-8.35587E+00-2.65874E+01 1.04283E+01 4.19790E+01-6.56661E-01 8.33738E+00
 -1      1484-1.49250E+01-5.17136E+01 5.30020E+00 6.92410E+01 4.63172E+00 2.01025E+01
 -1      1485 6.21208E+01-6.54849E+00-7.07074E-01 2.12391E+01 1.04138E+00 5.03400E-01
 -1      1486 3.38446E+01-9.00623E-01 1.60690E+00 1.41387E+01 4.14229E+00-8.00167E-01
 -1      1487 4.72467E+01-4.17042E+01-1.23014E+01 2.00100E+01 8.21672E+00-1.98840E+01
 -1      1488 2.73737E+01-2.66862E+01-1.01475E+01 1.42282E+01 6.80836E+00-1.08645E+01
 -1      1489-4.76627E+01-3.44714E+01-8.36839E+00 1.25703E+01-2.34789E+01-2.46412E+01
 -1      1490-9.35694E+00-1.28073E+01 4.27393E+00 1.01600E+01-1.61351E+01-1.18305E+01
 -1      1491-1.26170E+02-2.26934E+02 1.78988E+01 2.44498E+01 3.56019E+01-8.77861E+00
 -1      1492-4.54390E+01-6.95060E+01 1.20875E+01-1.27932E+01 4.69429E+01 3.39881E+00
 -1      1493 3.85200E+01-3.39867E+01-2.24833E+00-3.80291E+01-5.90345E+00-1.48065E+01
 -1      1494-2.64254E+01-7.78295E+01 5.82855E+00-7.70169E+01-2.49957E+01-3.05785E+01
 -1      1495 1.62933E+01-4.67532E+01-4.48792E+00-3.57702E+01-3.26130E+01 2.46833E+01
 -1      1496 3.01216E+01 4.44553E+00-1.08018E+01-3.08316E+01-1.20480E+01-5.37565E+00
 -1      1497-5.76746E+01-1.07615E+01-1.12017E+01 1.51580E+01-3.39689E+00 2.42606E+00
 -1      1498-2.45240E+02-3.98022E+01-4.17130E+00-4.49117E+00 1.54361E+01-4.66935E+01
 -1      1499 5.79835E+01-9.66344E+00 2.72591E+00-2.14042E+00-1.22444E+01-2.96073E+00
 -1      1500 3.96287E+01-5.31749E+01 3.03286E+01-3.36727E+01-1.22577E+01-5.98763E+01
 -1      1501-3.67740E+01-3.76018E+01-2.26181E+01 2.68079E+01 2.22608E+01-1.20622E+00
 -1      1502-7.36444E+01-5.13556E+01 1.27399E+01 6.44468E+01 1.66295E+01-4.47765E+01
 -1      1503-2.66726E+01-1.84970E+01-6.13350E+00-2.24425E+01-1.63331E+00-1.22191E+00
 -1      1504-2.15242E+02-8.01924E+01 2.42288E+01-5.01469E+01 1.32116E+01-1.71922E+01
 -1      1505-7.30959E+00-3.22806E+01 1.84751E+00-1.82270E+01 6.95629E+00-5.23069E+00
 -1      1506 3.00466E+01 2.06826E+00-1.41069E+00 4.06142E-01-3.77377E+00 2.95453E-01
 -1      1507-3.69274E+00-4.12719E+00-2.46205E+01-8.02114E+00 8.08084E-01 1.59064E+01
 -1      1508-9.07435E+01-6.63795E+01-3.82023E+01 3.45845E+01-2.24122E+01 8.94685E+01
 -1      1509-2.36942E+01-9.64343E+00-2.93249E+00 3.06735E+01 4.44609E+00-8.84457E+00
 -1      1510-5.81283E+01 4.42861E+00 8.33054E+00 5.17894E+01 2.18023E+01 4.38168E+00
 -1      1511-8.59992E+01-1.39790E+02-5.06156E+01 3.08603E+01 1.46706E+01 1.30206E+02
 -1      1512 5.87454E+00-7.39145E+01-3.28821E+01 1.52537E+01 2.12644E+01 5.11788E+01
 -1      1513-4.43078E+01-4.52937E+01-1.35627E+01-3.95502E+00-4.27463E+00-1.33732E+01
 -1      1514-2.61604E+02-1.32035E+02-2.03405E+01-1.49631E+01 6.21126E+00 3.20547E+01
 -1      1515-3.17584E+01 1.01470E+01-2.67462E+01 4.42926E+00 2.24062E+00 6.87331E-02
 -1      1516-9.58775E+01-8.95311E+01 1.86883E+00-4.15302E+01 3.34286E+00-1.29796E+01
 -1      1517-1.43585E+01-1.07777E+00-2.54151E+01 1.62043E+01-4.14407E-01-4.95697E+00
 -1      1518-1.11655E+02-1.84954E+01-6.57158E-01 9.53069E+00 1.80902E+01 3.04671E+01
 -1      1519-8.40625E+01-8.20551E+01 5.06669E-01-7.17492E+00 4.55280E+01 2.71785E+01
 -1      1520-2.78497E+01 7.72835E+00-3.51700E+00-2.26327E+01 9.45734E+00 1.50451E+01
 -1      1521-1.13054E+02-2.08666E+02-1.27641E+01 6.02934E+01-3.78702E+00-5.16241E+01
 -1      1522-3.66934E+01 8.18984E+00 4.51481E+00 9.45619E+00-1.66069E+00-1.64760E+01
 -1      1523-2.00493E+02-2.48405E+01-1.91603E+01-3.48941E+01 1.82840E+00-6.20507E+01
 -1      1524-3.54972E+02-1.09004E+02-3.32377E+01-8.90933E+01 1.33912E+01-1.18035E+02
 -1      1525-1.18342E+02-9.54607E+01-1.15506E+01-5.92904E+01 3.02369E+01 1.08879E+01
 -1      1526-1.86813E+02-1.87910E+02-1.13197E+01-8.12934E+01 5.06216E+01-5.60253E+00
 -1      1527-9.41702E+01-1.97349E+02-1.71094E+01 6.08697E+01 8.69219E+01 3.17362E+01
 -1      1528-2.26402E+01-1.42624E+01-1.54637E+00-7.16891E+00 2.28622E+01 1.54751E+01
 -1      1529-3.00534E+02-6.80511E+01-5.98163E+01-5.44093E+01 3.52169E+01-1.32133E+02
 -1      1530-1.30141E+02-2.59472E+01-4.33165E+01-2.49770E+01 1.22197E-01-3.61217E+01
 -1      1531-2.34812E+00 4.67171E+01-3.78858E+01-4.60137E+01 2.70136E+01 9.09271E-01
 -1      1532-4.49884E+01-1.43218E+02-2.55461E+01-1.76015E+01 4.72832E+01 1.16404E+01
 -1      1533-3.29119E+01 1.30689E+01-1.88488E+01 5.19364E+00-2.87219E-02 1.86579E+01
 -1      1534 1.16109E+00 3.47330E+01-2.13554E+01 1.12066E+01 2.27086E+00 2.60247E+00
 -1      1535-1.35813E+01-6.29701E+00-2.15087E+00 7.67443E-01-1.78461E+00-1.44378E+01
 -1      1536-8.86892E+01-5.72432E+01-1.45332E+01-3.08047E+01-3.00200E+00 1.18777E-02
 -1      1537 3.37266E+01-6.83560E+00-1.76607E+01 2.41197E+01 5.45115E+00-4.55875E+00
 -1      1538-3.65084E+01-3.27020E+01-1.78295E+01 2.67369E+01-7.48500E+00-3.15023E+01
 -1      1539-1.50065E+01-1.55457E+00-1.64936E+01-1.63700E+01 1.42576E+01-2.07745E+00
 -1      1540-3.83849E+01-1.22434E+02 6.38258E+00-1.37697E+01-1.57264E+01-2.13873E+00
 -1      1541-4.31868E+00 1.25805E+01 2.34385E-01-3.90688E+00-4.37427E+00-1.69432E+01
 -1      1542-9.01909E+01-1.94532E+01-1.41030E+01-4.41896E+01-2.24407E+01 8.12779E+00
 -1      1543 5.81423E+01-1.92627E+01 1.45954E+01-1.69378E+01 8.65371E+00-2.89933E+01
 -1      1544 4.10751E+01-3.73319E+01-1.92526E+00-1.51177E+01 1.80658E-01-1.57452E+01
 -1      1545 2.50006E+01-1.72809E+01-2.33499E+00-1.19655E+01-5.11896E+00 6.83435E+00
 -1      1546 8.28173E+00-7.07480E+00-4.74086E-01-8.75243E+00-5.70641E+00 4.35897E+00
 -1      1547 7.96432E+01-2.66161E+01-2.47576E+00-1.39618E+01 1.41705E+01-3.21801E+01
 -1      1548 4.84507E+01-1.78752E+01 6.27198E+00-1.19202E+01 1.14631E+01-2.47130E+01
 -1      1549 8.45416E+00-4.30411E+01-6.70839E+00-1.38934E+01-1.50474E+01-2.25659E+00
 -1      1550 1.77054E+01-2.81825E+01-4.43110E+00-1.61895E+01-1.22069E+01-3.43618E+00
 -1      1551 4.64355E+00-3.68825E+01 5.61942E+00-1.01492E+01-5.81309E+00-2.49863E-01
 -1      1552 1.65354E+01-8.61988E+01-7.55813E+00-2.09237E+01-2.56470E+01-8.08630E+00
 -1      1553 1.62192E+01-8.72292E+00-6.33380E+00-8.13873E+00-6.54398E+00 5.05098E+00
 -1      1554 2.31177E+01-1.46080E+01-1.08684E+01-9.56635E+00-1.44591E+01 1.92640E+01
 -1      1555-1.23154E+02-2.91099E+01-1.12053E+01-7.86978E+00 1.08702E+01 3.61289E+01
 -1      1556-2.11320E+01-7.34133E+00-4.70531E+00-9.48627E+00-3.09936E+00 2.06216E+01
 -1      1557-3.56896E+01-8.39335E+01 2.12077E+01 6.18149E-01-1.88108E+01-2.39237E+00
 -1      1558-1.02457E+01-1.80605E+01-1.20582E+00-3.05055E+00-8.07395E+00-1.62512E+00
 -1      1559-4.57617E+00-1.11925E+01 2.92266E+01 4.74746E+01 8.16584E+00-2.04408E+01
 -1      1560-2.78759E+02-1.72301E+02 1.00927E+02-5.25098E+01 2.14562E-01-9.44367E+01
 -1      1561 1.33617E+01-1.97982E+01-4.92282E+00 1.49262E+00 7.74181E+00 1.30891E+01
 -1      1562-9.93753E+01-1.17783E+02-3.03973E+01 5.72446E+01-2.14551E+01-8.18566E+00
 -1      1563-4.91296E+01-1.69647E+01-6.87850E+00 6.98299E+00-8.44995E+00 4.38543E+00
 -1      1564-9.14601E+00 1.92259E+01-1.00205E+01-7.06044E+00-3.62587E+00 3.19907E+00
 -1      1565-5.12188E+01-2.04446E+01 8.64345E+00 7.79823E+00-5.72555E+00 2.50328E+01
 -1      1566-2.02522E+02-9.03422E+01 2.60902E+01 7.66639E+01-1.01033E+01-3.24192E+01
 -1      1567-1.47087E+02-3.87499E+01-4.33127E+01 3.96933E+01-1.31753E+01-2.14998E+01
 -1      1568-1.88931E+00-1.22427E+00-3.34582E+01-6.45931E+00 1.73909E+00-1.47116E+00
 -1      1569-3.54491E+01-7.41469E+01 5.60602E-03-1.31511E+01-5.87593E-01-8.40188E+00
 -1      1570-5.14858E+01-2.59670E+02-1.43678E+00-3.94494E+01-3.17530E+01 1.48637E+01
 -1      1571-2.00133E+02-9.51445E+01-3.70008E+01 4.32934E+01-2.73646E+01-2.28325E+01
 -1      1572-1.48669E+01-1.30246E+01-2.85004E+01-1.05706E+00-5.36840E+00-5.81883E-01
 -1      1573 5.84947E+00-7.08462E+00-3.04801E+01 1.39261E+01-1.26296E+01 9.19606E+00
 -1      1574-2.28706E+01-6.10212E+00-6.13955E+01-1.06392E+01-3.21002E+01-4.59705E+01
 -1      1575-2.46820E+01-6.64600E+01-3.65892E+00 2.92852E+01 7.02056E+00 5.73247E+00
 -1      1576-1.04187E+02-1.88707E+02-2.69362E+01 1.08272E+02-4.24335E+00-1.34779E+01
 -1      1577-4.68688E+01-4.75922E+01 3.65968E+00-6.05474E+00 2.10755E+01 1.12658E+01
 -1      1578-2.30785E+01-2.24349E+01-1.60189E+00-7.01744E-01 1.24774E+01 7.04706E+00
 -1      1579-4.05644E+01-2.86109E+01 9.57573E+00-1.44721E+01 6.03683E+00 9.82956E+00
 -1      1580-1.40358E+02-8.31744E+01 4.84853E+01-6.55064E+01-1.26345E+01-9.16090E+00
 -1      1581-6.69941E+01-8.58883E+01-2.99735E+01 2.70481E+01 9.46417E+00 1.29485E+01
 -1      1582-1.07279E+01-1.12742E+00-1.47662E+01-1.01667E+01-3.23443E+01 8.36187E+00
 -1      1583-3.06826E+01-3.53545E+01-7.85029E+00 3.53733E+00 1.59408E+01 4.07515E+01
 -1      1584 3.21569E+01-3.67919E+00-1.37929E+01 1.91855E+01-5.78426E-01 8.92335E+00
 -1      1585-1.54091E+01-8.24345E+00-3.51950E+00 7.20477E+00 9.48660E+00 1.28719E+01
 -1      1586-7.17803E+01-1.00221E+01-2.49182E-01-4.48953E+00 7.26540E+00 3.38287E+01
 -1      1587-2.10179E+02-1.65386E+02-2.24742E+01-3.31994E+01-4.26486E+01-4.15479E+01
 -1      1588-5.95252E+01-4.94468E+01-1.47563E+01 6.25642E+00-9.91751E+00-6.24839E+00
 -1      1589-1.23734E+02-2.46183E+02 3.67485E+00-1.51106E+01-7.47339E+00-6.16135E+00
 -1      1590-1.57548E+02-2.17940E+02 2.89040E+00 1.81675E+01-3.16666E+01-2.04556E+01
 -1      1591 8.77995E+01-8.77806E+01-3.32161E+00 4.20000E+01 2.83275E+01 1.82017E+01
 -1      1592 5.76807E+01-3.84483E+01-2.66648E+01 4.07917E+01 2.41922E+01 9.47142E+00
 -1      1593-1.80963E+02-2.67241E+02-1.10631E+01-2.67446E+01-2.76314E+01 7.57635E+00
 -1      1594-6.93944E+01-1.32135E+02-6.20280E+00-1.68407E+01-1.09857E+01 1.24674E+01
 -1      1595-1.32650E+01-1.40483E+00 6.58608E-01 1.62392E+01-9.90136E+00 7.02483E+00
 -1      1596-3.79099E+01-5.85150E+01 5.09219E+01 1.46756E+01-1.76575E+01 2.16547E+01
 -1      1597-2.08213E+01-3.00703E+00-6.41928E+00-6.00532E+00 1.79876E+01 3.30048E+00
 -1      1598-4.33965E+01-1.26785E+02 1.20206E+01 1.14207E+01-3.37513E+00-6.12898E+00
 -1      1599-2.00831E+01-3.72922E+01-1.01830E+00 4.34443E+00 7.12016E+00-4.52226E+00
 -1      1600-4.53591E+01-1.73053E+02 2.02002E+01-7.36693E-01 1.82712E+01-1.14388E+00
 -1      1601-2.10352E+01 1.38788E+01-1.83147E+01-5.29850E+00-4.62563E+00-5.96040E+00
 -1      1602-5.89510E+01-2.44874E+01-1.25343E+00-4.43627E+01 1.55827E+01 2.32587E+00
 -1      1603-5.37502E+01-1.72646E+02-2.46518E+01-2.12525E+01 1.05545E+01-2.53009E+01
 -1      1604-3.42791E+01-7.20232E+01-1.48404E+01 9.28867E+00 2.56022E+00-9.68793E+00
 -1      1605-1.16467E+02-1.47263E+02 9.17243E+00-6.72458E+01 1.69485E+01-1.22821E+01
 -1      1606-5.07435E+01-4.73015E+01-1.06384E+01-1.74161E+01 2.35105E+00-9.66689E+00
 -1      1607-3.39454E+01-7.76816E+01-5.90613E+00-6.51541E+00-2.23504E+01-5.91776E+00
 -1      1608-3.02153E+00 2.04428E+01-2.09598E+01-1.46934E+01 2.38593E+00 1.42290E+00
 -1      1609-2.70695E+01-3.46613E+01-1.34571E+00-6.39929E+00-9.75219E+00-1.45598E+01
 -1      1610-7.96510E+01-9.97534E+01 2.60902E+00-3.87941E+01 1.16213E+01-1.91157E+01
 -1      1611-6.32789E+01-1.04821E+02-9.71891E+00-2.33778E+01-2.12212E+01 1.68042E+01
 -1      1612-2.49219E+01-2.36462E+01-2.97190E+00 3.38653E+00 2.63270E+00-2.90405E+00
 -1      1613-1.92094E+01-1.80504E+01 1.58715E+01 1.90397E+00 8.69695E+00-1.75736E+01
 -1      1614-2.03391E+02-5.90492E+01 5.16699E+01 5.10899E+01 1.35108E+01-1.09649E+01
 -1      1615-1.21711E+02-2.20104E+02-5.22782E+01-1.07573E+02 6.11099E+01 9.48306E+01
 -1      1616-5.30826E+01-1.15655E+02-4.01433E+01-3.92018E+01 3.14235E+01 4.25056E+01
 -1      1617-1.30791E+02-2.66380E+02-5.12909E+01-1.24648E+02 9.63959E+01 8.45566E+01
 -1      1618-6.14654E+01-1.25041E+02-1.44034E+01-6.81188E+01 3.11659E+01 3.74821E+01
 -1      1619 2.79559E+01-1.01988E+02 2.20870E+01-4.06099E+01 2.78756E+00-9.19921E+01
 -1      1620 4.37646E+01-4.83763E+01 7.65957E+00-1.75739E+01-8.70314E+00-2.52526E+01
 -1      1621-1.33748E+02-4.76755E+01 1.59163E+01-6.94872E+01 1.51284E+00-2.81804E+01
 -1      1622 2.62955E+01-3.16497E+01-6.08152E+00-5.14740E+01-9.45847E+00-2.25443E+01
 -1      1623-3.87412E+01-5.88202E+01-1.08741E+01-2.60231E+01 8.55957E+00 1.86529E+01
 -1      1624 4.13846E+01-2.17820E+01-1.27385E+01 4.51627E+00-4.69639E+00-3.02200E+01
 -1      1625-1.91456E+01-4.05149E-01-1.23002E+00 8.24044E+00-3.04429E-01 9.25185E+00
 -1      1626-5.12977E+01-8.50352E+01 2.80790E+01-2.05024E+00 1.10050E+01 2.24568E+01
 -1      1627-1.87988E+01 2.81860E+00-2.28334E+01 2.84337E+01 3.40596E+00-4.00743E+01
 -1      1628 2.22890E+00-1.28180E+01-1.21651E+01 2.02849E+01 8.75878E-01-4.42655E+00
 -1      1629-3.29972E+01-7.94915E+01-1.24446E+01 1.01839E+01 2.34781E+00-8.45290E+00
 -1      1630-8.27183E+01-2.11264E+02-2.33817E+01-2.82130E+01-2.80063E+01-4.69136E+01
 -1      1631-2.12576E+01-2.63983E+01-5.25472E+00-5.06159E+00-1.23019E+01 1.70357E+01
 -1      1632-2.64378E+01-3.95463E+01-1.16797E+01 9.87579E+00-8.22138E+00 2.28770E+01
 -1      1633-2.80119E+01-4.86333E+00-9.42846E+00-1.01175E+00-4.96285E+00 1.60264E+01
 -1      1634-8.30214E+01-6.98586E+01-1.69476E+01 3.78767E+01-2.19490E+01 4.08728E+01
 -1      1635-2.44058E+01-3.56641E+01 5.77594E+00-1.08957E+01 1.28842E+01-3.26520E+01
 -1      1636 1.03899E+01 1.27028E+01-6.51222E-01-1.35249E+01 4.47555E+00-8.56190E+00
 -1      1637-4.51973E+01-3.53613E+01-1.18654E+01 4.75219E-01 6.41244E+00 1.41929E+01
 -1      1638 9.20645E-01-9.02673E+00-6.51665E+00 8.28097E+00 8.86482E+00 2.28373E+00
 -1      1639-1.87759E+01-1.19894E+00-5.03991E+00-1.65659E+01-3.63809E+00-2.14111E+00
 -1      1640-4.74427E+01-7.33744E+00 2.49526E+00-1.57506E+01-4.35280E+00-1.03413E+01
 -1      1641-6.69949E+01-3.58265E+01 7.66121E+00-2.68588E+01 1.85172E+01 4.87395E+00
 -1      1642 2.53375E+01-4.42226E+00-1.22466E+01-2.27048E+01 6.07290E+00-3.82620E+00
 -1      1643-1.62735E+01-1.32556E+01-1.37414E+00-1.58611E+01-2.00764E+01 4.59660E+01
 -1      1644 1.42490E+01 6.29320E+00-8.14769E+00-1.58264E+01-1.26908E+00-6.61885E+00
 -1      1645-8.08648E+01-1.20095E+02-2.61313E+00-3.98845E+01-2.69928E+00-2.35267E+01
 -1      1646-2.20368E+01 1.02948E+00-1.18747E+01 2.82604E+00-2.59003E+00-1.44899E+01
 -1      1647-5.05867E+01-3.16640E+01-3.47885E+01 1.35299E+01 1.28210E+01 1.96907E+01
 -1      1648 1.95178E+01 3.12718E+00-2.33957E+01-8.49226E+00-6.59170E+00-3.02104E-01
 -1      1649-6.44810E+01-1.58137E+01 1.67385E+01-2.97105E+01 8.82105E+00 6.78190E+00
 -1      1650-1.84627E+01-5.23992E+00 1.13369E+00-1.43527E+01-4.73639E-01 3.92873E+00
 -1      1651-3.90704E+01-9.78180E+00 6.97449E+00-1.40942E+01 9.03546E-01 1.42340E+01
 -1      1652-8.38308E+01-1.60010E+01-1.15326E+01-1.78317E+01 3.42142E+00 3.74393E+01
 -1      1653-3.54042E+01-1.76245E+01-9.70591E+00-9.34954E+00-3.76448E+00 2.12917E+01
 -1      1654-3.01744E+01-1.98585E+01-1.42112E+01-7.80624E+00-3.43343E-01 2.10897E+01
 -1      1655-5.87820E+00 4.79274E+00-5.01379E+00-1.44306E+01-2.46151E+00-4.63421E+00
 -1      1656-1.62332E+01 1.22267E+01 3.35897E+00-1.71803E+01 4.98316E+00-1.96806E+01
 -1      1657-3.19127E+01-2.70089E+01-1.53876E+01 2.17190E+00-2.24592E+01-8.98152E+00
 -1      1658-1.40192E+01 9.41752E+00 3.45269E+00-7.93489E+00-9.94313E+00-7.85465E+00
 -1      1659-5.95320E+01-6.14233E+01 1.35689E+01 4.42043E+01-4.43530E+01 4.19595E+01
 -1      1660-1.65066E+01-9.59137E-01-2.47720E-01-9.06037E-01-7.43370E+00 1.58170E+01
 -1      1661 2.09640E+01 2.41496E+01 5.11854E-01-8.77538E-01 2.43146E+00-6.49181E+00
 -1      1662 1.05699E+00 8.25279E-01-1.52746E+00 1.55069E+00-2.08663E+00 3.84810E+00
 -1      1663 5.00837E+00 7.60844E+00 6.18388E+00 2.72469E-01-6.53895E+00-2.09535E-01
 -1      1664-1.36918E+00-7.71792E+00 8.68667E-01-9.76983E-01-4.48181E+00-2.33645E+00
 -1      1665 2.52439E+00 5.24186E+00 1.57262E+00-1.50213E+00 3.64193E+00-1.63680E+00
 -1      1666 3.52581E+00 2.59381E+00 3.22157E+00-1.05918E-02-5.15633E+00 4.07452E+00
 -1      1667-8.79512E+00 1.36027E+00-2.60882E+00 1.94862E+00-1.32537E+00 3.58884E+00
 -1      1668-5.17436E-01-1.41770E-01 2.05521E+00 1.36859E+00 3.31851E+00-5.35115E+00
 -1      1669 5.60086E+00 8.12847E+00 6.23523E+00 1.74735E-01-6.51634E+00-8.03967E-01
 -1      1670-1.58167E-01 7.34513E+00-2.44693E-01 1.11961E+00 7.48991E-01-2.36125E+00
 -1      1671-9.11098E+00-1.18807E+01-3.23575E+00 4.22058E+00-2.50362E+00 1.03256E+00
 -1      1672 1.39204E+00-1.92385E+00-6.24068E-01 1.36436E+00 3.34224E+00-2.08687E+00
 -1      1673-1.07073E+00 2.60562E+00 7.98713E-01 8.80269E-01-7.58564E+00-3.11093E-01
 -1      1674-3.81667E+00-2.77117E+00-2.11478E+00-1.57626E+00 3.79033E+00 5.92623E+00
 -1      1675 4.17786E+00 1.80546E+00 3.67581E+00-1.57877E+00 4.66179E+00-5.78115E+00
 -1      1676 3.43929E+00 3.42522E+00 1.37049E+00-1.81028E+00-1.49778E+00-2.26174E+00
 -1      1677-3.66188E-01-4.97611E+00-4.69249E-01 1.06166E+00-3.13005E+00 3.44922E+00
 -1      1678 2.92711E+00 3.29563E-01 1.22946E-01 7.77005E-01 1.70445E+00 4.67320E+00
 -1      1679-1.18757E+01-5.55881E+00-4.69055E+00 2.00338E-01-1.49167E+00 8.27493E+00
 -1      1680-1.03726E+01-1.00664E+01-1.68028E+00 4.33351E+00-3.74926E+00 2.61991E+00
 -1      1681-2.58513E+00-3.27949E+00-6.88689E-01-2.19508E+00-5.02473E+00-2.58612E+00
 -1      1682 4.58961E+00 4.38665E+00 5.23354E+00-1.92194E+00 4.32533E+00-4.34322E+00
 -1      1683 6.78311E+00 6.26473E+00 4.17209E+00-1.70686E+00 1.63969E+00-5.61276E+00
 -1      1684 4.87196E+00 4.26659E+00 6.82300E+00 6.56669E-03-5.81360E+00 5.11027E+00
 -1      1685-1.21818E+01-1.15700E+01-7.97191E+00 2.76404E-01 3.15351E-01-8.69262E-02
 -1      1686 3.94079E+00 4.16534E+00 4.14985E+00-1.92125E-01-4.62384E+00-1.65153E+00
 -1      1687 3.18848E+00 5.30054E+00 6.04180E+00 3.33481E-01-5.97143E+00-4.10676E+00
 -1      1688 7.22077E+00 5.50325E+00 5.97550E+00 1.42335E+00-2.96352E+00-5.93243E+00
 -1      1689 9.72977E+00 4.89714E+00 1.65845E+00 7.84392E-01-1.07952E+00-4.16273E+00
 -1      1690-1.63777E+00 1.01611E+00 1.54004E+00-6.86452E-01 7.36269E+00 3.35357E+00
 -1      1691-7.07122E+00-1.46109E+00 3.64108E-01-9.94400E-01-1.29747E+00-5.24970E+00
 -1      1692 7.56599E+00 1.10217E+01 8.93107E+00-1.03790E-01 7.58823E+00 3.28112E-01
 -1      1693 3.85748E+00 8.04903E+00 7.12147E+00 6.87165E-01-3.77978E+00-2.02820E+00
 -1      1694 7.29019E+00 5.29724E+00 3.45479E+00-1.30785E+00-3.99398E+00 4.38503E+00
 -1      1695 7.78144E+00 8.50388E+00 9.98252E+00 1.25820E+00 5.99661E+00 5.59915E+00
 -1      1696 2.70080E+00 2.16210E-02 2.16061E+00 9.02893E-01 3.70008E+00 2.51482E+00
 -1      1697 1.38471E+00 1.40652E+00 2.53338E+00 5.32789E-01-3.78934E+00-4.12445E+00
 -1      1698 3.20453E+00 9.60644E-01 3.09483E+00 1.61170E+00 4.01355E+00 2.07507E+00
 -1      1699-6.36998E+00-8.92458E+00-2.72020E+00 1.81255E+00 4.15507E+00-1.04956E+00
 -1      1700 5.29825E+00 4.90104E+00 5.01276E+00 1.77913E+00-9.94826E-02 6.44807E+00
 -1      1701 7.25637E+00 3.55098E+00 4.99183E+00 5.03784E-01 2.66187E+00 6.72005E+00
 -1      1702-7.08546E+00-1.75258E+00-1.61547E+00 4.87613E-02-1.40774E+00 4.86318E+00
 -1      1703 4.95107E+00 4.95852E+00 4.88503E+00-6.04520E-01-1.51371E+00 5.60358E+00
 -1      1704-1.50822E+01-1.16433E+01-6.79297E+00 2.80617E+00-6.33973E+00 4.14504E+00
 -1      1705-2.59256E-01 3.73507E+00 7.10105E-01 6.36768E-01 4.88708E+00 2.71736E+00
 -1      1706 5.73027E+00 2.67260E+00 1.55771E+00 5.08366E-01-1.37397E+00-7.73496E+00
 -1      1707 3.11514E+00 3.58325E+00 4.35577E+00-8.81130E-01-4.48852E+00 4.12092E+00
 -1      1708-2.80025E+00-6.65451E+00-4.49400E+00 6.26149E-01 7.11334E+00 4.57427E-01
 -1      1709-4.28947E+00-1.00195E+01-4.93840E+00-1.18530E+00-5.51259E+00-4.98863E-01
 -1      1710-4.92091E-01 1.50252E+00 5.94608E-01-8.32853E-01-5.53846E+00 1.58303E+00
 -1      1711 2.06163E+00 9.00475E-01 1.52391E+00-5.83523E-01 3.65824E+00 8.72497E-01
 -1      1712-3.55301E+00-6.44238E+00-2.28369E+00-8.48696E-01 7.56275E+00 2.82400E+00
 -1      1713-6.66295E-01 1.76755E+00-1.86076E+00 5.68630E-01-5.41194E+00 2.46242E-01
 -1      1714-3.09932E+00-9.74317E-01 4.32448E+00-1.88126E+00 6.43064E+00 5.54365E+00
 -1      1715-8.05016E+00-3.37055E+00-2.44099E+00-1.03656E+00 8.08616E-01 5.25508E+00
 -1      1716 2.74878E+01 2.54372E+01 5.33974E+00 2.33117E+00-4.91316E+00 2.68427E-01
 -1      1717 4.89868E-01 5.15274E+00 2.31440E+00-1.84120E+00-3.79514E+00 3.43563E+00
 -1      1718-4.57724E+00-8.81145E+00-5.08384E+00 3.14327E+00 4.87168E+00-6.28949E+00
 -1      1719-1.22482E+01-7.29974E+00-5.10183E+00 1.85428E+00 1.41674E+00-2.94704E+00
 -1      1720-6.45915E+00-1.00385E+01-5.82001E+00-3.19711E+00 6.22054E+00 3.06144E+00
 -1      1721-6.28047E+00-6.74419E+00-3.31166E+00-1.65390E-02-5.56120E+00-1.48272E+00
 -1      1722-7.15364E+00-1.10590E+01-1.65975E+00-2.55756E+00 3.45401E+00 1.54279E+00
 -1      1723 3.89074E+00 5.05953E+00 4.79392E+00-2.72933E-01 5.53596E+00-1.69694E+00
 -1      1724 2.20072E+00 2.05434E+00 4.10257E+00 2.71367E-01-4.50125E+00 5.79550E-01
 -1      1725 5.59495E+00 5.75027E+00 8.22369E+00-7.81439E-02-5.22694E+00 4.20381E+00
 -1      1726-3.05136E+00-1.26902E+01-2.42375E-02-8.91043E-01 3.82188E+00 1.76695E+00
 -1      1727 6.37632E-01 4.87593E-02 3.27494E+00 4.39598E-01 3.51752E-01 5.04102E+00
 -1      1728 5.72220E+00 4.41924E+00 6.74211E+00-7.34476E-02 3.18604E+00 5.92737E+00
 -1      1729 5.16063E+00 3.62270E+00 3.68713E+00-1.62971E+00 2.68791E+00-4.49002E+00
 -1      1730 2.93723E+00 2.91404E+00 2.75161E+00 1.04705E+00 1.59220E+00-1.80028E+00
 -1      1731 3.55803E+00 1.41339E+00 7.21378E-01 3.32803E+00-4.06597E+00-5.76586E+00
 -1      1732 9.96422E+00 3.82980E+00-9.40051E-01-7.44679E-01 1.02306E+00 5.45999E+00
 -1      1733-1.07947E+01-6.01015E+00-4.80107E+00-1.57194E+00-2.78755E+00-4.90144E+00
 -1      1734-5.43739E+00-8.69027E+00-5.80074E+00 1.60740E+00-5.92067E+00 1.00097E+00
 -1      1735 1.13592E+01 7.39922E+00 9.66230E+00-4.67085E-01 1.34542E+00 7.38077E+00
 -1      1736-4.37157E+00-6.40587E+00-2.37131E+00 2.53814E+00-2.51238E+00 1.39485E+00
 -1      1737 3.67706E+00 3.85080E+00 6.96088E+00-1.02430E+00-6.63344E+00-2.78532E+00
 -1      1738 5.77686E+00 2.77774E+00 2.12553E+00-3.03405E-01-3.07748E+00-3.69339E-01
 -1      1739 6.56702E+00 6.30384E+00 4.82914E+00 1.40786E+00 3.25995E+00 3.71701E+00
 -1      1740-3.39946E+00-6.18080E+00-2.85126E-01-1.80052E+00 3.23865E+00 3.36313E+00
 -1      1741-6.60995E-01-6.25991E+00-2.36770E+00-1.83588E+00-5.41002E+00-2.59543E+00
 -1      1742 8.45836E+00 1.29997E+01 5.69098E+00 7.53584E-01-3.08040E+00 7.61365E-02
 -1      1743-1.01535E+01-1.13564E+01-6.34534E+00-4.21855E+00-5.91333E+00-2.94659E+00
 -1      1744-1.80548E+00-2.70446E+00 1.62086E+00 8.76563E-01-4.97814E+00 1.59375E+00
 -1      1745 7.16408E+00 6.77611E+00 8.65781E+00-5.10270E-01 3.55281E+00-6.46937E+00
 -1      1746 2.80786E+00 4.48644E+00 4.16888E+00 4.73423E-01 4.51910E+00 2.02778E+00
 -1      1747-1.44141E-01 3.97546E+00 4.16024E+00-1.27110E+00-5.27448E+00 3.87015E+00
 -1      1748-1.20107E+00-1.70534E+00 3.44181E-01-1.20157E+00 3.70390E+00 1.87579E+00
 -1      1749 5.71485E+00 7.26170E+00 3.57637E+00 6.58943E-02 2.49668E-02 3.51412E+00
 -1      1750-7.35651E+00-5.13599E+00-4.34081E-01-2.75331E+00-3.50235E+00-4.83849E+00
 -1      1751-2.11219E+00 1.03025E+00 1.44542E+00-6.74158E-02-3.83963E-01 5.16751E+00
 -1      1752-8.62093E+00-9.92547E+00-6.14863E+00-2.70902E+00 3.37720E+00 4.48881E+00
 -1      1753-8.00253E+00-8.79970E+00-5.16972E+00-1.43790E+00-6.18525E+00-3.30157E+00
 -1      1754 4.19196E+00 1.54002E-01 2.72578E+00-2.37439E+00 3.49636E+00 1.41918E+00
 -1      1755-3.97736E+00-1.94913E+00-1.83031E-02 2.53137E+00-2.49371E+00 3.54815E+00
 -1      1756 2.53467E+00 2.33056E+00 5.20210E+00-6.14205E-01-1.85149E+00 2.35954E+00
 -1      1757-2.14211E+00-4.21574E+00 7.12692E-01-5.76239E-01-2.51640E+00 5.29168E+00
 -1      1758 1.33473E+00 4.95415E-01 2.98901E+00-1.26530E+00-2.59990E+00-1.24540E+00
 -1      1759 3.88473E+00 6.71809E-01 1.46449E+00-7.86686E-01-1.22810E+00 6.99020E+00
 -1      1760-2.24578E-01 2.62271E-01 5.74987E-01-1.50358E-01 4.08983E+00 4.50600E+00
 -1      1761 9.48551E+00 5.01430E+00 6.37417E+00-1.75239E-01 9.74244E-01-6.87182E+00
 -1      1762-5.05515E+00-4.43791E+00-3.92855E+00 2.17274E+00 9.95199E-01-5.75567E+00
 -1      1763-6.82728E+00-8.35847E+00-3.47816E+00 2.74344E+00 4.58992E+00-3.83616E+00
 -1      1764 8.23075E+00 7.54561E+00 1.07493E+01-3.99590E-01-3.37041E+00 6.01273E+00
 -1      1765-1.95946E+00-3.34645E-02 1.21130E+00 1.03546E+00 1.39939E+00-3.90396E+00
 -1      1766 4.76336E+00 1.89840E+00 2.31952E+00 1.80659E+00-2.49496E+00 1.42071E+00
 -1      1767-5.34294E+00-1.08781E+01-3.85730E+00 1.24780E+00-6.61252E+00-2.38364E+00
 -1      1768-8.68477E+00-1.24386E+01-4.18166E+00 2.57352E+00-3.85603E+00 3.04542E+00
 -1      1769 1.73023E+00 5.51037E-01 3.09557E+00 9.83551E-01 6.29085E+00 2.42982E+00
 -1      1770 7.39249E+00 4.83130E+00 2.03051E+00-2.12824E+00-1.98310E+00 3.30303E+00
 -1      1771-6.54532E+00-1.37025E+01-5.63885E+00-8.61294E-01 4.18355E+00 1.55214E+00
 -1      1772 1.61710E+00-6.96320E-01-6.07147E-02 1.20515E+00-6.29907E+00-4.24595E+00
 -1      1773 6.89911E+00 1.32585E+00 2.21656E+00 5.07453E-01 9.36345E-01-4.66298E+00
 -1      1774 6.76028E+00 1.46673E+00-3.82786E-01-8.65619E-02-2.50498E+00-3.20557E-01
 -1      1775-1.22258E+01-7.85770E+00-3.03154E+00-2.73257E+00-3.31324E-01-3.24284E+00
 -1      1776 1.64226E+00 9.68245E-01 3.37646E+00-1.88714E+00-4.53894E+00 3.69009E+00
 -1      1777-1.02246E+00-4.55740E+00 2.09071E-01-2.44505E-01-7.20126E-01 4.94116E+00
 -1      1778-1.49738E+00-6.66975E-01 3.67280E-01 3.54421E-02-3.92558E+00-1.66985E+00
 -1      1779-1.14505E+00-4.67792E+00 1.94835E+00 5.79305E-01-5.65268E+00 1.43936E+00
 -1      1780 7.47369E+00 7.40041E+00 1.02268E+01 7.49151E-01-1.88624E+00-5.61967E+00
 -1      1781 5.47409E-01 2.34112E+00 2.60162E+00 8.23786E-01-7.03116E+00-4.09774E-01
 -1      1782 7.62685E-01 2.20847E+00 2.07374E+00 2.09826E-02-3.70512E+00-1.59810E+00
 -1      1783 1.09825E+00 2.39614E+00 1.03274E+00-1.08029E-01 5.36784E+00 1.63392E-01
 -1      1784 4.72718E+00 5.35896E+00 5.42604E-01 6.63561E-01 4.03274E+00 8.13609E-01
 -1      1785 9.82897E+00 5.01383E+00 5.47323E+00 1.47129E-01-1.52445E+00-7.07586E+00
 -1      1786-9.68612E+00-1.05870E+01-5.69187E+00-3.07772E+00-4.38942E+00-4.67244E+00
 -1      1787-1.03578E+01-1.61792E+01-6.66347E+00-9.92381E-01 7.51082E+00 2.49406E+00
 -1      1788-1.63961E+01-1.07689E+01-1.09797E+01 2.23015E+00 1.92148E+00-5.68681E+00
 -1      1789 4.45552E+00 3.17439E+00 5.03571E+00-7.62130E-01-2.76821E+00 3.48039E+00
 -1      1790 5.86116E+00 4.35583E+00 3.11765E+00 1.48032E+00-3.13505E-01 4.78818E+00
 -1      1791-1.29613E+01-7.28146E+00-6.67373E+00-1.31046E+00-1.48327E+00-6.77214E+00
 -1      1792 1.76076E+00 2.82873E+00 1.75163E+00-5.62810E-01-8.08503E-01-1.90899E+00
 -1      1793 6.29747E+00 5.42024E+00 4.53266E+00-7.03328E-01 3.36886E+00-7.27468E+00
 -1      1794 4.21377E+00 4.27032E+00 4.84808E+00 2.08030E-01-1.99081E+00 1.43635E+00
 -1      1795 4.87964E-01 1.46142E+00 3.35329E+00-5.70204E-01 5.42866E+00 1.31691E+00
 -1      1796-2.55382E+00-3.82046E-01-1.80166E+00 4.29842E+00 3.71181E+00-4.48215E+00
 -1      1797-1.16138E+01-1.03396E+01-9.73982E+00 2.93274E+00 5.83757E+00-3.84434E+00
 -1      1798 3.40266E-01 2.64483E-01 1.91619E+00-3.63319E-01-3.61034E+00 4.70617E+00
 -1      1799-1.39128E+01-4.77185E+00-8.89343E-01-1.02096E+00 8.00341E-01-4.59248E+00
 -1      1800-1.35859E+01-8.62761E+00-2.96883E+00 3.58017E+00-2.92087E+00 3.19990E+00
 -1      1801 8.22135E-01 1.23512E+00 1.14948E+00 1.47702E+00-2.59900E+00 3.15885E+00
 -1      1802-1.14732E+00-9.20708E+00-2.18908E+00-3.27297E+00 3.31190E+00 1.32296E+00
 -1      1803 2.73377E+00 3.62778E+00 5.78039E+00-3.85520E-01-5.86874E+00-1.93507E+00
 -1      1804-4.22501E+00-5.22084E+00-1.79734E+00-4.31075E-01-3.10546E+00 9.95747E-01
 -1      1805 6.79366E-01 6.17070E-01-2.93687E+00 4.96980E+00 2.40692E+00 5.04620E+00
 -1      1806-2.57025E+00-1.35106E+00 5.30963E-01 2.18454E-01-2.92152E+00-1.36924E+00
 -1      1807-6.43531E+00-3.29883E+00-4.71498E-01 1.53462E+00 2.80766E+00 1.68319E+00
 -1      1808 9.48174E+00 5.14415E-01 1.37345E+00-3.28322E+00-3.01153E+00-1.11470E+00
 -1      1809-9.51592E+00-1.18224E+01-4.06904E+00-2.92416E+00-1.93985E+00 2.26706E+00
 -1      1810-2.40672E+00-2.43477E+00-3.90992E+00 1.06308E+00 2.65334E+00 3.49507E+00
 -1      1811 3.61803E+00 6.76009E+00 2.06097E-01 1.52929E+00 7.33402E-01-2.07181E+00
 -1      1812 1.11830E+00 9.45343E-01 1.60422E+00 2.81084E-01-2.20165E+00-1.90717E+00
 -1      1813 2.64544E+00 1.27231E+00-1.77030E-02-4.26323E+00-3.39929E+00-2.93372E+00
 -1      1814 1.17130E+01 1.00534E+01 1.32731E+01-1.51543E+00-6.47288E+00 3.08709E+00
 -1      1815-1.18197E+01-1.53033E+01-5.49844E+00 4.42775E+00-5.08912E+00 3.46876E+00
 -1      1816-2.06796E+00-4.48570E+00-1.48671E+00 1.86025E+00-5.40951E+00 2.58383E+00
 -1      1817-2.41820E-01 3.50946E+00 1.54867E+00-3.68430E+00 6.09955E-01 3.67502E+00
 -1      1818-1.28719E+00-1.11692E+00 9.80390E-01 1.57206E+00-2.72157E+00 1.80639E+00
 -1      1819 7.04044E+00 1.77393E+00 2.34919E+00 2.89310E+00-3.22723E+00 1.26111E+00
 -1      1820 3.97774E+00 6.05255E+00 2.41861E+00-1.63200E+00 5.38429E+00-3.03326E+00
 -1      1821 5.46567E+00 9.28866E+00 7.98179E+00-4.06266E-01 6.57836E+00 2.41414E+00
 -1      1822 1.93850E+00 3.23181E+00 3.90437E+00 9.42670E-01-7.44826E+00-4.67511E-02
 -1      1823 1.75181E+00-2.59472E+00 1.42288E+00-3.57673E-01-4.69536E+00-4.86286E+00
 -1      1824 5.20642E+00 3.67943E+00 6.12771E+00 2.32379E-01-4.68759E+00-4.81070E+00
 -1      1825 2.34905E+00 4.85466E-01 1.71122E+00-1.08607E+00-2.34498E+00-2.01081E+00
 -1      1826 9.78677E-01-4.89782E+00 1.42765E+00 3.91944E-01-5.31703E+00 1.76261E+00
 -1      1827 2.08659E+00 1.97933E+00 3.52646E+00-1.33687E+00-4.88382E+00 2.98164E+00
 -1      1828 1.77742E+00 4.09973E+00-4.58610E-01-1.98595E+00 3.19478E+00-1.70083E+00
 -1      1829 6.61136E+00 9.04045E+00 4.73039E+00-1.51719E+00 4.17479E+00-2.12895E+00
 -1      1830 1.85025E-01-5.31386E-02 5.66632E-01 8.71182E-01 1.47549E+00 3.70963E+00
 -1      1831-8.24228E+00-2.99840E+00-6.20639E+00-2.76270E-01 1.43028E+00 6.16012E+00
 -1      1832 1.11125E+01 1.10065E+01 1.36758E+01-1.56128E+00-5.58799E+00 4.50310E+00
 -1      1833 6.26534E+00 2.53241E+00 5.67545E+00 1.56186E+00-4.73126E+00-4.35644E+00
 -1      1834-1.07919E+01-5.33250E+00-3.78313E+00 7.94950E-01-2.82903E-01 5.33220E+00
 -1      1835-1.46452E-01-7.66735E-01 1.61076E-01-5.95269E-01 2.00108E+00-3.76077E+00
 -1      1836-6.47085E-01 3.12998E-01 3.73813E-01 1.49290E+00-3.18739E+00 5.72437E+00
 -1      1837-8.72890E+00-7.74935E+00-6.10392E+00 1.00169E+00-1.35596E+00 7.60278E+00
 -1      1838-4.54524E+00 1.11608E+00 2.66543E+00 1.69760E+00 3.13539E+00-4.76414E+00
 -1      1839-5.50192E+00-9.06826E+00-5.36479E+00-9.12588E-01-7.13604E+00-8.30188E-01
 -1      1840 1.53720E+00 3.48818E+00 3.55152E+00-2.48331E-01 7.91188E-01 2.96775E+00
 -1      1841 7.45368E+00 1.12093E+01 3.10020E+00-1.37273E+00 2.69160E+00 5.34048E-01
 -1      1842 1.53339E+00 5.47756E+00 4.41423E+00 1.53921E+00-8.54585E+00 6.69451E+00
 -1      1843-1.16663E+00-3.49329E+00-5.85305E-01-2.95994E+00-3.87872E+00-7.74071E-01
 -1      1844 8.56100E+00 1.29482E+01 8.72921E+00 8.71845E-01 7.71858E+00 2.32469E+00
 -1      1845 5.83607E+00 8.86376E+00 6.17695E+00-6.75669E-01-6.67424E+00 3.42747E+00
 -1      1846 1.47776E+00 5.44027E-01 3.57964E-01-2.12520E+00 2.85486E+00 1.48369E+00
 -1      1847 2.58330E+00 2.46930E+00 2.90885E+00-1.28408E+00 2.38846E+00-4.65472E+00
 -1      1848-7.09459E+00-7.89258E+00-5.20928E+00 1.63795E+00 6.46348E+00-2.76490E+00
 -1      1849 8.74961E+00 5.19752E+00 2.04631E+00-5.90968E-01 1.69661E+00 7.52914E+00
 -1      1850 7.09833E+00 7.73387E+00 2.02387E+00 2.87009E+00-3.87356E+00-2.53238E+00
 -1      1851 2.07390E+00 2.02938E-01 4.62999E+00 5.95135E-01 1.64536E+00-6.56182E+00
 -1      1852 1.31201E+01 7.97740E+00 9.63805E+00-7.71727E-01-1.82564E+00 6.44036E+00
 -1      1853 2.96409E+00 3.21803E+00-1.45466E+00 2.06682E+00-1.52085E+00 1.12961E+00
 -1      1854-5.52161E+00-8.38473E+00-5.64748E+00-3.55235E-01-8.67590E+00-2.09082E+00
 -1      1855-1.25982E+01-1.10847E+01-1.12656E+01-2.14897E+00-5.45693E+00-3.91291E+00
 -1      1856-6.23246E+00-7.40492E+00-4.23369E+00 5.11208E-01 1.32317E+00 2.38809E+00
 -1      1857-1.09184E+01-7.53913E+00-5.48037E+00 1.41061E-01-1.55597E+00-8.40729E+00
 -1      1858-4.39572E+00-8.70003E+00 1.15691E+00 3.59891E+00 4.27625E+00-3.27838E+00
 -1      1859-2.03125E-01-7.17085E+00-1.61532E+00-6.78272E-01-6.45406E+00-2.01268E+00
 -1      1860 1.47518E+00 2.01972E+00 8.67209E-02 4.14348E-01-5.79670E+00-3.64128E-01
 -1      1861-1.22205E+00 1.23456E+00 2.81827E+00 7.16391E-01 1.19613E-01 7.15278E+00
 -1      1862-6.07238E+00-1.07791E+01-3.40676E+00 2.58757E+00-4.30239E+00 2.04135E+00
 -1      1863 3.14630E+00 4.02826E+00 3.02753E+00-5.09645E-01 2.48767E+00 1.01505E+00
 -1      1864 4.23198E+00 3.41110E+00 2.80072E+00-1.31403E+00 1.98411E+00-1.78550E-02
 -1      1865 1.31516E+01 9.92137E+00 9.50478E+00 3.00555E+00 1.71433E+00 4.74990E+00
 -1      1866 8.37396E+00 8.87701E+00 4.93871E+00 1.55918E+00-6.27028E+00-4.90562E+00
 -1      1867 5.58646E+00 3.62523E+00 5.55304E+00 1.36873E+00 6.30581E+00 5.64001E+00
 -1      1868-9.92462E+00-1.32772E+01-9.60290E+00-2.34975E+00 5.82002E+00 1.51995E+00
 -1      1869 2.96981E+00 3.34984E+00 5.06187E+00-2.33632E-01-2.42547E-01 2.21910E+00
 -1      1870-2.91233E+00-8.13472E+00-3.38903E+00 3.48560E-01-6.13252E+00-1.89267E+00
 -1      1871-9.91173E+00-5.25662E+00-5.02475E+00 2.10667E+00-5.16464E+00 3.12044E+00
 -1      1872-5.47099E-01-1.96593E-01-2.81591E-02-2.10446E+00-4.13074E+00 3.57603E+00
 -1      1873-8.17224E+00-1.23688E+01-3.89626E+00-4.35780E+00-4.40290E+00-5.95008E+00
 -1      1874-9.72011E+00-1.31910E+01-5.71652E+00-2.54788E+00-6.90126E+00-2.25774E+00
 -1      1875-1.06323E+01-1.00762E+01-6.35907E+00-2.97901E+00 8.95181E+00 3.42544E+00
 -1      1876-5.59264E+00-8.44093E+00-3.08856E+00 2.70958E+00-5.39883E+00 2.86764E+00
 -1      1877-7.81269E+00-8.82132E+00-8.70000E+00-7.53634E-01-6.03710E+00-3.82844E+00
 -1      1878-8.86425E+00-3.89557E+00-3.01058E+00 1.26352E+00 1.31481E+00-5.52746E+00
 -1      1879-3.44655E+00-2.94536E+00-1.56961E+00-1.08177E+00-2.87848E+00-5.28249E+00
 -1      1880-1.31129E+01-9.05604E+00-9.14458E+00 1.21184E+00 7.80099E-01 4.84666E+00
 -1      1881-5.81690E+00-4.82686E-02 1.07795E+00 2.23433E+00 1.28396E+00-4.58311E+00
 -1      1882 3.76581E+00 4.08543E+00 5.95488E+00-9.95116E-01 2.45164E+00-4.67226E+00
 -1      1883-1.01442E+01-5.83279E+00-3.54544E+00-1.23900E+00 2.25457E+00 5.55706E+00
 -1      1884 7.08665E+00 6.85953E+00 7.42917E+00 1.77766E+00 4.45912E+00 5.53596E+00
 -1      1885-2.47795E+00-4.08123E+00-6.36713E-01 1.12846E+00-3.12264E+00 1.68534E+00
 -1      1886 3.41535E+00 2.61194E+00 3.06495E+00 3.33791E-01-2.32155E+00-4.67350E+00
 -1      1887 5.50948E+00 4.24132E+00 4.45091E+00-6.13611E-01 4.21239E+00-4.60620E+00
 -1      1888 5.00271E+00 8.69223E+00-2.12340E+00 1.32770E+00-9.11414E-01 3.21709E+00
 -1      1889 5.25274E+00-6.18429E-01 1.65641E+00-5.80191E-01 4.09404E+00-6.10736E-01
 -1      1890 4.73140E+00 8.11512E+00 4.21864E-01 1.77186E+00-1.37388E+00 1.95368E+00
 -1      1891 9.79222E-01 4.59770E-01 1.81616E+00 7.32530E-01 1.91369E+00 5.53529E+00
 -1      1892 1.01327E+01 8.36541E+00 1.06708E+01-7.83477E-01 5.25770E+00-4.55975E+00
 -1      1893 3.70622E+00 2.43113E+00 5.22303E+00-1.95095E+00-4.45633E+00-8.78559E-01
 -1      1894-1.79471E+00-3.20625E+00-2.14153E+00-2.82941E+00-4.89035E+00-5.00831E+00
 -1      1895-2.18476E-01 4.74733E+00-4.44876E-01 2.80131E+00 1.49432E+00-2.21971E+00
 -1      1896-1.10126E+01-6.27401E+00-4.42306E+00 1.55048E+00-5.24202E-01-4.49461E+00
 -1      1897-2.26291E+00-2.78083E+00-1.03008E+00 1.99409E-02-1.31492E+00-4.38347E+00
 -1      1898-1.09168E+01-8.96456E+00-5.15685E+00-2.39747E+00 3.94980E+00 5.70178E+00
 -1      1899 2.33881E+01 2.56444E+01 4.65708E+00 3.10610E+00-2.47276E+00-6.11881E+00
 -1      1900 5.08272E+00 4.25365E+00 5.85323E+00 1.22986E+00-1.90205E+00-4.99649E+00
 -1      1901-5.08795E+00-1.01014E+01-2.32555E+00 2.64541E-01 6.37968E+00-4.70513E-01
 -1      1902-1.99118E+00 6.60866E-01-1.20665E+00 2.22147E+00-9.01768E-01 3.93083E+00
 -1      1903-8.49844E+00-2.52488E+00-7.85989E-01 2.55901E+00 3.43773E+00-6.04847E+00
 -1      1904 1.09744E+01 7.00214E+00 8.43479E+00 4.25983E-01 2.48280E+00 5.93338E+00
 -1      1905-1.65905E+01-1.11001E+01-7.27919E+00 2.75550E+00-4.58396E+00 3.94185E+00
 -1      1906-6.22459E+00-1.38211E+00 7.93638E-01-3.73393E+00-4.17397E+00-2.96895E+00
 -1      1907-3.88969E+00 8.14501E-01 1.95929E+00-2.44955E-01-7.64790E-01 5.40247E+00
 -1      1908 5.22899E+00 6.09832E+00 6.01836E+00-9.23742E-01 4.24889E+00-4.37953E+00
 -1      1909 2.32079E+00 2.60286E+00 3.61735E+00 3.28762E-01-2.46898E+00 7.34667E-01
 -1      1910 2.29532E+00 2.22886E-01 1.54032E+00 2.31569E+00 3.28914E+00-2.90272E+00
 -1      1911-1.32102E+01-2.35422E+01-1.42730E+01-1.50154E-01 7.06434E+00 1.98831E+00
 -1      1912-3.14826E+00-9.87891E+00-5.17435E+00-9.75069E-01-7.26630E+00-2.85329E+00
 -1      1913 7.45002E+00 4.33246E+00 5.15104E+00 1.28446E-02-3.43703E+00-6.85874E+00
 -1      1914 6.69231E+00 7.72679E+00 8.12340E+00 1.22459E+00 5.73581E+00 3.19774E+00
 -1      1915-5.07675E+00 2.22192E+00-1.66956E+00-2.37192E+00-2.10663E+00-4.42088E+00
 -1      1916 5.07352E+00 5.32031E+00 7.15961E+00-4.11107E-01 1.16373E+00-5.11826E+00
 -1      1917 1.87622E-01 9.11446E-01 1.67908E+00-1.25133E+00 1.10243E+00 2.42167E+00
 -1      1918 8.31007E+00 8.37044E+00 1.18120E+01 1.53298E+00-7.22538E-01-8.17305E+00
 -1      1919-1.53191E+01-1.45372E+01-1.10351E+01-3.48988E+00 1.28592E+00 5.24530E+00
 -1      1920-3.17716E+00 2.64964E+00 2.04025E+00-6.33763E-01 1.74558E-01-5.42695E+00
 -1      1921-4.62149E+00-2.44569E+00-4.94701E-01-2.85287E+00 2.29005E+00 4.87645E+00
 -1      1922 1.13544E+00 2.04169E+00-5.08897E-01 2.39274E-02-7.46697E-01-5.81167E+00
 -1      1923 7.68430E+00 3.58793E+00 1.63218E+00-1.76399E+00 2.23719E+00-4.64228E+00
 -1      1924 9.78773E-01-9.50730E-01 4.57201E-01 1.49597E+00 1.97362E+00-2.79916E+00
 -1      1925 4.66862E+00 3.79895E+00 2.79493E+00-7.94839E-01 7.46132E+00 1.28363E+00
 -1      1926 2.02309E+00 2.42881E+00 2.42991E+00-1.94054E+00-3.00813E+00-2.67239E+00
 -1      1927 3.77656E+00 2.66114E+00 2.38974E+00 2.73321E-01 2.04813E+00-5.63542E-01
 -1      1928 1.35025E+01 1.31372E+01 2.97297E+00-3.60492E+00 9.95407E-01 3.60849E+00
 -1      1929 2.56107E-01-2.63683E+00 1.04932E+00 8.05599E-01-4.31103E+00 1.00935E+00
 -1      1930 1.00675E+00 1.88174E+00 1.88159E+00-3.32340E-01-1.97376E+00-7.83892E+00
 -1      1931 1.21005E-01-4.13476E+00-1.03311E+00 1.56136E+00-5.41471E+00 9.20219E-01
 -1      1932-6.90384E+00-3.90771E+00-1.41868E+00-1.90659E+00 2.66775E+00 5.47111E+00
 -1      1933-5.47021E+00-4.76793E+00-1.19972E+00 8.43691E-01-5.80050E+00 6.03936E+00
 -1      1934-2.22037E+00 7.95785E-01 1.42113E+00-1.08161E+00-5.69062E-01-3.69638E+00
 -1      1935-4.45200E-01 1.05389E+00 9.05180E-01 1.90510E+00 5.44286E+00-5.25438E+00
 -1      1936-2.44962E+00-2.74615E+00-3.36836E-01 5.56661E-01 2.77462E+00-2.28958E+00
 -1      1937-1.66398E+01-1.12650E+01-8.51849E+00-1.49177E+00-2.54827E+00-6.45260E+00
 -1      1938 6.20424E-01 3.17011E+00-5.10621E-01 1.82915E+00-1.96543E+00 2.11508E+00
 -1      1939-7.23974E+00-3.52537E+00-4.88333E+00-1.58858E-01 3.06435E+00-4.90956E+00
 -1      1940-1.54493E+01-2.40140E+01-9.90825E+00-4.14901E+00 1.04357E+01 4.46670E+00
 -1      1941-8.08672E+00 2.34182E-01 3.39265E-01 1.24177E+00-1.03412E+00 6.10975E+00
 -1      1942 5.78511E+00 3.88452E+00-1.05095E+00-1.12395E+00-2.59065E+00-2.78100E+00
 -1      1943-5.36658E+00 4.95313E+00 3.59759E+00 4.52016E+00 2.57674E+00-4.50006E+00
 -1      1944-1.19629E+00 4.25541E+00 3.44899E-01-4.37306E-01 3.17823E-01-4.54548E+00
 -1      1945-1.19115E+01-2.00465E+01-8.55361E+00 4.23611E-01-5.49182E+00-2.65076E-01
 -1      1946 2.37499E+01 3.04450E+01 5.76720E+00-9.52991E-02 4.80267E+00 2.27370E+00
 -1      1947-5.90228E+00 2.99294E+00 2.91591E+00-1.81012E-01 3.52767E-01 5.00628E+00
 -1      1948 4.23050E+00 7.00761E+00-1.19938E-01 1.92953E+00-9.74718E-01 2.53457E+00
 -1      1949-9.47876E-01-5.57559E+00-4.17341E+00-2.06957E-01 5.08423E+00-2.62119E-01
 -1      1950-7.79570E+00-1.25039E+01-7.77796E+00 9.86689E-01 7.06845E+00-8.22882E-01
 -1      1951 6.44689E-01 9.07980E-02 1.52914E+00-5.15193E-01 2.97239E+00 2.24373E+00
 -1      1952-2.79210E+00 1.26786E+00 1.05948E+00-7.29249E-01 1.09531E+00 4.90713E+00
 -1      1953-2.02464E+00 7.13734E-01 4.59896E-01-1.61268E-01 1.78096E-01 4.67067E+00
 -1      1954 2.64599E+00 3.00058E+00 3.67355E+00 8.74382E-02 1.76206E+00 5.24392E+00
 -1      1955-6.17176E+00 1.18880E+00 1.77383E+00-8.28167E-01 3.31967E+00 6.11155E+00
 -1      1956 7.98204E+00 9.81558E+00 8.02038E+00-1.09415E+00-6.17212E+00-5.38755E-01
 -1      1957 9.26570E-01-9.17976E-01 1.69349E+00 2.24739E-02 3.53819E-01 4.49451E+00
 -1      1958-9.03195E+00-5.61786E-01 1.13776E+00 3.92288E+00 1.69887E+00-3.47173E+00
 -1      1959 9.46835E+00 7.03978E+00 3.14929E+00-2.05402E+00-3.68618E+00-4.48900E-01
 -1      1960-9.30762E-01 1.09511E+00-7.31193E-01 1.21648E-01-9.01689E-01 3.21577E+00
 -1      1961-5.74072E+00-9.09478E+00-3.40542E+00-3.18893E+00 5.96959E+00 2.68691E+00
 -1      1962-5.45390E+00-4.39414E+00-5.66210E-01 1.94670E+00 4.89890E+00-4.86542E+00
 -1      1963-3.87751E+00-3.06086E+00 1.51460E-01 3.18483E+00 2.73058E+00-3.02651E+00
 -1      1964 4.55563E+00 5.17185E+00 7.39985E+00 9.09322E-02 2.38845E+00 7.53849E+00
 -1      1965 2.45925E+00 3.61925E-01 6.46677E-01 7.81063E-01-1.37026E+00 6.15880E+00
 -1      1966 2.44174E+00 7.28920E+00-1.84201E+00 6.05372E-01-1.59812E-01 2.79483E+00
 -1      1967 8.85334E-01-5.09775E+00 2.75793E+00-1.27149E+00 5.49473E+00 1.18598E+00
 -1      1968 3.76801E+00 5.52672E+00 3.29139E+00-1.25405E+00 1.94405E+00 1.27318E+00
 -1      1969 3.23869E+00 9.89907E+00 2.24248E+00-9.50137E-01-2.53409E-01 2.15391E+00
 -1      1970 2.80598E+00 3.42015E+00 9.55659E-01-1.48661E+00 4.82667E+00 8.08271E-03
 -1      1971 1.43314E+00 1.32055E+00 1.69297E+00 7.54360E-01-1.93372E+00 1.90924E+00
 -1      1972-1.18063E+00 4.61906E+00 3.10948E+00 5.40333E-01 5.83463E+00-9.76449E-03
 -1      1973 5.74359E+00 2.99683E+00-6.16067E-01 1.52164E+00-1.66456E+00 1.25463E+00
 -1      1974 6.92718E+00 3.87001E+00 4.12644E+00 2.47979E-01-2.78118E+00 8.22940E-01
 -1      1975-8.51748E+00-6.35743E+00-6.98058E+00-5.17313E-01 8.83301E-01 7.34793E+00
 -1      1976 2.55518E+00-3.10043E+00 1.33785E+00-7.10261E-01-4.50096E+00-1.15484E+00
 -1      1977-7.63910E+00-9.27304E+00-6.57774E+00 1.62861E+00-7.12987E+00 1.41922E+00
 -1      1978 2.99409E+01 2.79442E+01 9.42477E+00 3.01928E+00 6.11734E+00-2.12828E+00
 -1      1979 3.63554E+00-1.55773E+00 5.89062E+00-6.39046E-01 4.62853E+00 3.17193E+00
 -1      1980-7.91382E+00-5.29669E+00-4.90793E+00-1.39636E+00 1.05921E+00 6.06888E+00
 -1      1981 1.59362E+00-2.22827E+00 8.01548E-01-2.44368E+00 4.58112E+00 1.68633E+00
 -1      1982 7.87999E+00 2.70110E+00 1.45816E+00-2.16416E+00 2.59235E+00 8.02380E-01
 -1      1983-4.87218E+00-7.91822E+00-8.92524E-01 5.46894E-02 3.75375E-01 2.40900E+00
 -1      1984 2.44168E+00 2.34032E-01 1.79068E+00 5.22895E-01-3.60119E+00-1.24204E+00
 -1      1985 5.03459E+00 2.23381E-01 1.61565E+00-1.36519E+00-3.49474E+00-1.71607E+00
 -1      1986 5.77975E+00 2.31358E+00 2.00840E-01-2.87084E-01-2.23833E+00 4.10405E-01
 -1      1987 8.30519E+00 4.72496E+00 2.25266E-01 1.66760E+00-2.92983E+00 7.20096E-01
 -1      1988-5.37890E+00-2.70981E+00-8.92037E-02-1.94555E-01-3.72239E+00 6.18178E-01
 -1      1989 1.00620E+01 1.26248E+01 1.15288E+01 1.30616E+00-7.10842E+00-1.98490E+00
 -1      1990-5.78609E+00-4.73505E+00-2.63723E+00 1.30176E+00 3.59448E+00 1.59666E+00
 -1      1991 8.30416E+00 1.02481E+01 1.23481E+01 9.23713E-01 1.88149E+00 4.53351E+00
 -1      1992 4.29156E+00 5.95012E+00 3.35081E+00-6.12932E-01-1.23920E-01 3.50364E+00
 -1      1993 1.31990E+01 1.19280E+01 4.13658E+00 2.80156E-02-1.25839E-01-1.71816E+00
 -1      1994 2.55256E+00 7.08216E+00-7.73857E-01-2.75018E-01-2.69432E-01-2.24687E+00
 -1      1995 2.77936E+00 7.64174E+00 1.59319E-01-1.29379E-01-1.96155E-02 2.41421E+00
 -1      1996 2.98963E+00 1.34835E+00 2.32311E+00-4.19526E-01-2.54360E+00-5.68471E-01
 -1      1997-3.83040E+00-1.25118E+00 3.05868E-01-9.15065E-01 9.42683E-01 4.54984E+00
 -1      1998-2.14129E+01-1.49323E+01-8.93278E+00-3.66329E+00 2.00883E+00 4.10343E+00
 -1      1999-6.35985E+00-6.25654E+00-3.08166E+00 8.16547E-01-1.89430E+00-3.92398E+00
 -1      2000-7.84414E+00-2.79214E+00-2.55040E+00 1.05273E+00-1.48330E+00 6.64872E+00
 -1      2001 6.59356E-01-5.00526E-01 1.09246E+00 1.59536E-01 5.11099E+00 2.02140E+00
 -1      2002 4.81414E-01 2.93806E+00 5.36045E+00-5.26692E-01 3.73713E-01 4.67664E+00
 -1      2003-6.53009E+00-4.81887E+00-2.86174E+00 7.78990E-01-2.99800E+00 3.42177E-01
 -1      2004 3.43197E+00 6.12487E+00 2.07128E+00 6.33883E-01 3.98307E-02 2.44020E+00
 -1      2005-2.47694E+00-3.74348E+00-9.65053E-01-4.77977E-01-1.39781E+00 3.09062E+00
 -1      2006 1.00457E+01 9.58877E+00 2.85115E+00-2.08897E+00 8.82804E-01 3.64359E+00
 -1      2007-1.41462E+01-1.51803E+01-1.28896E+01-2.93982E+00 5.99089E+00 6.52189E+00
 -1      2008-7.06187E+00-6.93206E+00-3.12962E+00-3.82593E+00 6.29761E+00 4.94638E+00
 -1      2009-2.09918E+00-3.86371E-01 3.30780E+00 1.23865E+00-6.36338E-01 2.51985E+00
 -1      2010 6.08724E+00 2.29601E+00 1.05628E+00 4.17540E-01 2.45013E+00-1.65405E-01
 -1      2011 8.62683E+00 1.17742E+01 5.10487E+00 5.34729E-01 1.81208E+00 3.62617E+00
 -1      2012-3.95580E+00-3.66941E+00-7.42698E-01-2.76049E+00-3.62521E+00-1.97287E+00
 -1      2013-3.09021E+00-3.14849E+00 1.42525E+00 3.82980E-01-2.77624E+00-1.70714E+00
 -1      2014 3.40152E+00 3.78493E+00 3.01024E+00 1.18426E+00-2.51326E+00 1.45778E+00
 -1      2015 3.32758E+00 3.49074E+00-2.15896E+00 1.98619E+00-1.86507E+00 1.10421E+00
 -1      2016 2.69865E+00 5.41201E+00-8.97421E-01-1.11812E+00 1.23672E+00 1.67886E+00
 -1      2017 1.12971E+00-2.92718E+00-9.30107E-01 5.48185E-01 3.90626E+00-8.23262E-01
 -1      2018 1.75994E-01 1.62570E-01-2.39205E-01-4.43680E+00 2.03317E+00 1.69628E+00
 -1      2019 2.09561E+00-2.71796E+00-6.51008E-01-3.37307E-01 3.87154E+00 1.95564E-02
 -1      2020-7.74892E+00-1.08384E+01-9.20116E+00-7.18520E-02 5.79586E+00 9.68216E-01
 -1      2021 5.77739E+00 6.73878E+00 6.64848E+00-7.27682E-01 6.57678E+00 1.25725E+00
 -1      2022-8.30363E-02 1.36333E+00 1.04474E+00-1.75095E+00 2.36604E+00 4.19907E+00
 -1      2023-1.52996E+01-8.94324E+00-6.86219E+00 1.18717E+00 1.85046E+00-7.36241E+00
 -1      2024 6.75925E-01 3.01116E+00-7.72536E-01-5.36777E-01 1.73517E-01-2.71604E+00
 -1      2025 1.02062E+01 7.55949E+00 7.36310E+00 1.38254E+00 4.20029E+00 7.39304E-01
 -1      2026-7.42714E+00-9.90411E+00-6.20707E+00-6.33914E-01-8.36693E+00 1.57239E-01
 -1      2027-3.80043E+00-7.74719E-01 6.44381E-01 6.57790E-01 1.57344E+00-4.57990E+00
 -1      2028-7.85565E-01 3.06422E+00 3.14227E+00 4.25120E-01 8.53159E-01-4.25114E+00
 -1      2029-1.46523E+01-1.24892E+01-8.29168E+00-3.28264E+00-3.14739E+00-3.63943E+00
 -1      2030-1.23706E+01-1.02403E+01-9.58801E+00-1.73909E+00-2.26929E+00-5.63329E+00
 -1      2031-4.34958E+00-5.60557E+00-2.59587E+00-1.79444E-01-5.30214E-01 2.52974E+00
 -1      2032-3.36579E+00-4.98795E+00-4.27766E+00 4.65013E-01 4.37002E+00-5.38286E+00
 -1      2033 2.32306E+00 7.83483E+00 2.57079E+00-2.89191E+00-1.39013E+00-2.68555E+00
 -1      2034 4.84560E+00 4.09418E+00-5.97790E-01-2.10927E+00-1.39079E+00-2.02217E+00
 -1      2035 2.99437E+00 2.87872E+00 4.31949E+00-1.17930E+00-2.83265E+00-1.09915E+00
 -1      2036-7.20858E-01 9.86472E-01 7.15538E-02 5.88942E-01-7.84399E-01 2.73489E+00
 -1      2037 1.00358E+01 6.14559E+00 8.65410E+00-3.37744E-01-2.33012E+00-6.20717E+00
 -1      2038-2.82548E+00-2.02417E+00 4.50139E-02-1.33437E-01 3.60444E+00-6.96211E-01
 -1      2039 7.31755E+00 2.12997E+00-1.68302E-01 1.65162E+00-1.60723E+00 9.95933E-01
 -1      2040-5.40373E+00-9.54235E-01 1.01184E+00-1.61243E+00-1.58524E+00-3.38332E+00
 -1      2041 2.52352E+01 2.34486E+01 5.08569E+00-8.60015E-01 3.87532E+00 4.87381E+00
 -1      2042 1.99346E+00 3.68581E-01 9.84927E-01 1.65814E+00 2.36429E+00-7.97614E-01
 -1      2043 1.18335E+00 6.57738E-01 8.73290E-01-2.35428E+00-2.33763E+00-3.25224E+00
 -1      2044-1.42836E+01-1.03243E+01-9.69998E+00 1.18415E+00 5.87437E+00-5.69019E+00
 -1      2045 7.67772E+00 3.17736E+00 3.22130E+00-6.79286E-01 2.03912E+00 6.64282E-01
 -1      2046 8.76248E+00 9.01512E+00 2.71601E+00-2.03153E+00-1.67671E+00-2.93425E+00
 -1      2047 7.79973E+00 8.42987E+00 5.77917E+00 6.81673E-01 1.15993E+00-3.19087E+00
 -1      2048 1.79892E+00 2.43465E+00 2.29303E+00 1.16166E-01 1.09467E+00-2.23281E+00
 -1      2049-3.57946E+00-3.02172E+00-2.43001E+00 1.37859E+00-2.89131E+00 4.67884E+00
 -1      2050 2.14979E+00 4.69877E-01 2.71495E+00 3.87299E-01-4.95874E+00-1.73787E+00
 -1      2051-1.52926E+01-1.58422E+01-1.05990E+01 4.52941E+00 7.13893E+00-4.43908E+00
 -1      2052-2.80493E+00-2.15469E+00-1.44712E+00 1.50365E+00 2.41637E+00-2.27372E+00
 -1      2053 1.08059E+00-1.14313E-01-1.87167E+00-1.58899E-01 2.48643E+00 6.62003E-01
 -1      2054 1.14675E+00 2.63042E+00 1.74859E+00-1.62289E+00-1.07185E+00-3.83283E+00
 -1      2055-1.16571E+01-1.07132E+01-7.51796E+00-2.94719E-01 1.16307E+00-1.23284E+00
 -1      2056 3.48018E+00 6.33970E+00 2.02457E+00-6.33971E-01-1.26061E+00-2.18809E+00
 -1      2057 1.71506E+01 1.47177E+01 4.04427E+00 4.58284E-01 3.27170E-01-1.37854E+00
 -1      2058-5.93129E+00-7.02293E+00-3.57974E+00-1.27835E+00 1.95673E+00-2.67088E+00
 -1      2059-1.62202E+00 6.38603E+00 8.84554E-02-1.69414E-01-6.75674E-01 3.83867E+00
 -1      2060 1.70008E+01 1.26587E+01 4.30424E+00 2.16736E-01-3.41389E+00-2.08750E-01
 -1      2061 4.87486E+00 2.15516E+00-5.29796E-01-5.08998E-01-2.13275E+00-1.64479E+00
 -1      2062-1.18260E+00 3.70811E-01 2.42661E-01 1.10846E+00 1.31126E+00-2.90939E+00
 -1      2063-6.30388E+00-6.12539E+00-6.84566E-01-1.83237E+00-3.09315E+00 8.71243E-01
 -1      2064-3.37980E+00-2.83250E+00-9.31842E-01 2.26474E+00-2.16608E+00 4.28537E+00
 -1      2065 1.31687E+01 1.48019E+01 9.00788E+00-1.98087E+00 2.06676E+00 2.39054E+00
 -1      2066 1.03892E+01 4.00160E+00 1.21857E+00 3.07666E+00 2.29499E+00-9.68876E-01
 -1      2067-9.44987E+00-3.93225E+00-3.09494E+00 4.05450E-01-1.44361E+00-7.14978E+00
 -1      2068-5.46758E-01 2.32065E-01-8.16721E-01-1.69384E-02 2.17496E-01-3.76676E+00
 -1      2069 6.78766E+00 5.20930E+00 1.23364E+00-1.14258E+00 3.38083E+00 8.19377E-01
 -1      2070 1.14969E+01 8.37094E+00 7.61074E+00 8.74548E-03 1.95968E+00-6.03417E+00
 -1      2071-5.73320E+00-8.31856E+00-3.79303E+00 1.39396E+00 7.43799E+00-2.49739E-01
 -1      2072-5.45953E+00-4.27173E-01-6.68845E-01 7.60447E-01-1.45032E+00 4.08782E+00
 -1      2073 2.07839E+01 1.79222E+01 1.42556E+00 4.32979E-01 4.42925E+00 1.21227E-01
 -1      2074-3.99467E+00-4.00388E+00-2.89330E+00 6.36823E-02-4.28398E-01-3.61310E+00
 -1      2075 1.80269E+00 2.81874E+00 6.57824E-01-1.51265E+00 1.45314E+00 1.91236E+00
 -1      2076 5.92613E+00 6.52683E+00 2.56883E+00-2.60968E+00 1.67301E+00 1.16459E+00
 -1      2077 8.21390E-01 1.52728E+00 2.65830E+00-8.12212E-01-2.34813E+00-3.48007E+00
 -1      2078-7.10699E+00-5.73849E+00-2.47008E+00 6.56755E-01 2.54430E+00-1.03077E+00
 -1      2079 5.20271E+00 8.62210E+00-1.77133E+00-1.33650E+00 1.37481E+00 3.40754E+00
 -1      2080 1.51520E+00 5.17634E+00 2.05344E+00-2.61958E-01 5.37691E+00-4.08751E+00
 -1      2081 1.38428E+01 1.49499E+01 3.54058E-01 1.51805E+00-6.99448E+00-6.04196E-01
 -1      2082 1.48384E-01 3.36190E+00-7.55189E-02-6.18216E-01-4.90681E-01-3.77992E+00
 -1      2083-1.24287E+01-9.76130E+00-1.14532E+01 1.04834E+00 3.68070E+00-8.68077E+00
 -1      2084 1.21340E+01 1.19207E+01 5.47207E+00 3.55686E-01 2.00963E-01-9.53679E-01
 -1      2085 3.73031E+00 2.60848E+00 2.74435E+00-3.96276E-01-4.45819E+00 3.56466E+00
 -1      2086 4.33662E+00 2.83896E+00 3.63695E+00 9.17085E-02 2.72293E+00 5.40092E-01
 -1      2087-7.13029E+00-1.15012E+01-3.62854E+00-1.20868E+00-2.58367E-01 2.24763E+00
 -1      2088 7.61954E+00 1.02793E+01 9.31901E+00 1.73846E-01 5.49391E+00 5.03819E+00
 -1      2089-7.90323E+00-5.98683E+00-1.67979E+00 8.74972E-01 2.79859E+00 8.43106E-01
 -1      2090-4.64068E+00 1.95791E+00-9.95892E-01 7.67094E-01 4.41862E+00 1.80501E+00
 -1      2091 3.49995E+00 3.70360E+00 3.28599E+00-6.26614E-02-2.71425E+00-1.13381E+00
 -1      2092 4.07556E+00-2.87351E+00-3.57115E-01 1.94516E+00 4.44961E+00-1.81151E+00
 -1      2093-1.49637E+00-1.54910E+00-1.81722E+00 1.42651E+00-6.89552E+00-2.38136E+00
 -1      2094-1.16062E+00 5.86054E-01 1.07973E+00-1.70093E+00 1.33410E+00 3.54228E+00
 -1      2095-7.30023E+00-1.12748E+01-4.43777E+00-1.04413E+00 5.43991E-01-2.54079E+00
 -1      2096-6.37067E+00-6.63613E+00-4.60226E+00 9.00523E-01 2.04542E+00 1.30316E+00
 -1      2097 8.87324E+00-1.92613E+00 7.48023E-01 2.11705E+00-2.57822E+00 1.25967E+00
 -1      2098 3.07929E+00 2.36473E+00 1.34520E+00-5.13851E-01-2.48988E+00 2.72963E+00
 -1      2099 4.06027E+00 2.63500E+00 2.87329E+00 3.79654E-01-2.08614E+00 1.01355E+00
 -1      2100 9.44792E+00 1.43034E+01 1.01224E+01-8.48927E-01-7.25995E+00 2.28715E+00
 -1      2101 2.08175E+00 3.46248E+00 4.60593E+00 5.30196E-01-1.60827E+00 5.69362E+00
 -1      2102-2.86223E+00-5.37549E+00 7.75021E-01-6.13314E-01-1.67820E-01-3.76161E+00
 -1      2103 1.65291E+00 2.19995E+00 1.10994E+00-2.27012E-01-2.38672E+00-1.84763E+00
 -1      2104 4.52287E+00 6.84843E+00 5.10556E+00 4.99136E-01 6.92927E+00-5.58645E-01
 -1      2105-6.90934E+00-5.41581E+00-8.45570E+00 7.93858E-01 1.82585E-01 6.96773E+00
 -1      2106 7.13843E+00 2.91280E+00-1.21819E+00 3.90783E-01-2.13279E+00 4.00015E-01
 -1      2107-6.98034E+00 6.14205E-02-2.08788E-01-1.34974E-02-5.57016E-01 5.04585E+00
 -1      2108-1.00450E+01-6.16642E+00-4.96516E-01 3.51122E+00-1.29838E+00 3.22140E+00
 -1      2109 1.22444E+01 1.41943E+01 6.76795E+00 1.55565E+00 6.49367E-01-1.16128E+00
 -1      2110 6.92915E+00 7.94592E+00 2.51732E+00-2.07723E+00-2.95159E-01-1.58111E+00
 -1      2111 3.22074E+00 4.54593E+00 1.94445E+00 1.21263E+00 1.25500E+00-2.24113E+00
 -1      2112 4.59221E+00 2.13044E+00-1.14456E+00-1.08516E+00-2.62869E+00-2.22475E-01
 -1      2113-9.15134E+00-6.27541E+00-5.89353E+00-3.66760E-01 1.30401E+00 7.16026E+00
 -1      2114-3.55579E-01 3.44139E+00 5.48747E-01-1.17835E+00 2.82969E+00-3.14468E+00
 -1      2115 2.50928E+00 6.31333E+00 7.62443E-01 1.31116E+00 1.40734E+00-1.77064E+00
 -1      2116 6.76554E+00 3.60916E+00 5.37318E+00-5.79523E-01-5.12737E+00-6.59890E+00
 -1      2117 7.38329E+00 1.19178E+01 9.12201E+00-9.88791E-01-7.65025E+00 2.67789E-02
 -1      2118-7.95345E+00-4.03734E+00-1.37675E+00 1.56147E+00 2.25456E+00-5.95075E+00
 -1      2119 2.30628E+00 3.21075E-02 5.78533E-01 5.17210E-01-2.92669E+00 1.29068E+00
 -1      2120-7.19276E+00-7.81605E+00-6.36380E+00-1.67457E+00-5.42045E+00-3.18693E+00
 -1      2121 9.74547E+00 7.93196E+00-2.31899E-01 1.21729E+00 3.14705E+00-4.76325E+00
 -1      2122-2.50776E+00-4.00846E+00-1.30168E+00-2.05486E+00-3.10749E+00-2.25684E+00
 -1      2123-9.47299E+00-1.01769E+01-9.29452E+00 1.59075E+00-6.22018E+00 3.09946E+00
 -1      2124 3.05945E+00-1.73149E+00 9.39362E-01 3.31117E+00 3.57314E+00-3.02029E+00
 -1      2125-1.08155E+01-9.02458E+00-6.38830E+00-2.49451E+00 5.04918E+00 4.74988E+00
 -1      2126 8.73712E+00 8.32854E+00 1.29369E+00-7.82387E-01 2.62212E+00 1.91256E+00
 -1      2127 1.93946E+01 1.75223E+01 4.32296E+00 3.87690E+00 4.24961E+00 1.29505E-02
 -1      2128 2.39722E+01 2.66338E+01 5.13463E+00 6.15616E-02-4.49968E+00 5.56144E+00
 -1      2129 4.64471E+00 2.89689E+00 6.29944E+00 1.28330E+00 6.44796E+00-4.13874E+00
 -1      2130-1.16682E+01-1.34587E+01-1.06079E+01-3.78058E-02-2.47381E+00-2.67676E-01
 -1      2131 1.04293E+01 9.36155E+00 5.02464E+00 1.55384E+00-2.86302E+00 4.00381E-01
 -1      2132 2.23703E+01 2.31659E+01 5.99717E+00-1.15348E-02 5.14812E+00-3.26229E+00
 -1      2133-4.77990E+00 9.71037E-02 5.52756E-01-1.03887E+00-1.69729E+00-3.73567E+00
 -1      2134 3.24482E+00 3.53138E+00 3.57679E+00-5.57529E-01-1.80736E+00-1.54597E+00
 -1      2135 1.43017E+01 2.00093E+01 2.95290E+00 9.47134E-02 6.45089E-02-4.49368E+00
 -1      2136 4.99375E+00 7.16702E+00 2.79352E+00 3.71135E+00 1.72718E+00-1.80782E+00
 -1      2137-2.15774E+00-8.29726E+00 8.44870E-01-5.06211E-01-3.93183E+00-1.20817E+00
 -1      2138 6.91263E+00 6.84588E+00 2.73224E+00-4.47232E-01-1.00320E+00-2.81255E+00
 -1      2139 2.61392E+01 2.61870E+01 3.16486E+00 1.50564E+00-9.12320E+00-3.23370E-01
 -1      2140 4.49531E+00 1.05860E+00 2.80633E+00-3.63243E-02-2.02941E+00 5.62820E+00
 -1      2141 3.70893E+00 4.55185E+00 5.39755E+00-4.95566E-01-1.88478E-01-1.53192E+00
 -1      2142-5.09203E+00-8.54891E-01 1.96511E+00-2.72314E+00 2.07844E+00 5.18946E+00
 -1      2143-1.67877E+01-1.35793E+01-5.83016E+00 3.75347E+00 2.59174E+00-2.03992E+00
 -1      2144 5.10198E+00 2.56398E+00 1.02789E+00 1.86249E-01 2.20905E+00 1.95866E-01
 -1      2145 7.07103E+00 3.68536E+00 2.37589E+00-8.63619E-01-2.91057E+00-1.48900E-01
 -1      2146 9.61713E+00 9.69280E+00 7.91865E+00 2.61151E+00 5.46005E-01 1.94680E+00
 -1      2147 2.73037E+01 2.29513E+01 3.61862E+00-1.33723E+00 1.51545E+00-6.71998E+00
 -1      2148 5.80366E+00-4.17165E+00 3.05991E+00-1.03934E+00-3.30257E+00-3.98571E-01
 -1      2149 1.18698E+01 1.18725E+01 9.20630E+00-3.77614E-01-1.31623E+00 1.57908E+00
 -1      2150 2.16308E+01 2.44318E+01 2.21078E+00-8.52537E-01-1.59189E+00-5.29214E+00
 -1      2151 1.96369E+01 1.71089E+01 1.15588E+01 9.89647E-01-4.09096E-01-1.06238E+00
 -1      2152-2.71079E+00-3.64880E+00-4.55683E-01 3.39087E-01 5.33321E-01 4.32842E+00
 -1      2153 1.92645E+01 1.62345E+01 3.14632E+00-3.02185E+00-5.47214E-01-4.57116E+00
 -1      2154 2.77989E+01 2.70632E+01 3.32504E+00 5.44123E-01-2.26981E+00-5.80283E+00
 -1      2155-1.56459E+00-3.97633E+00 1.27537E+00-6.38097E-01-5.31808E+00-1.35201E+00
 -1      2156-1.13102E+01-9.72266E+00-5.86231E+00 1.57473E+00 8.26162E-01 2.57261E+00
 -1      2157-3.98587E+00-3.95099E+00-1.66961E+00 1.59290E+00 3.39760E+00 1.43143E+00
 -1      2158-1.89436E+01-1.65491E+01-6.96607E+00-1.58971E+00-1.66665E+00 4.35851E-01
 -1      2159-1.81332E+01-2.16255E+01-1.18529E+01 1.61888E+00 4.74188E-01-6.84860E-01
 -1      2160 2.08860E+01 2.21304E+01 7.40667E+00 3.55155E-01-3.72422E+00 2.77761E+00
 -1      2161 5.21823E+00 4.06214E+00 2.33279E+00 2.54100E-01 7.88910E-01-2.63195E+00
 -1      2162 4.32257E+00 5.01135E+00-1.45089E+00 1.89046E+00 1.90209E+00-1.32498E+00
 -1      2163 5.02555E+00 4.89961E+00 2.28495E+00 1.05810E-01-6.75096E-01 3.75477E+00
 -1      2164-1.90317E+01-1.06111E+01-6.47886E+00-7.52533E-01-1.12195E-01 5.10799E+00
 -1      2165-6.60214E+00-9.49405E+00-4.06941E+00 1.00475E+00-7.42972E-01-2.77614E+00
 -1      2166 6.20273E+00 6.85283E+00 6.00885E+00-7.65969E-01 4.06026E+00-4.90426E+00
 -1      2167 2.50769E-01 4.41437E+00 2.88452E+00 6.77443E-01 1.25684E+00-3.20545E+00
 -1      2168-5.92846E+00-4.18809E+00-1.00942E+00 1.79544E+00-4.72836E-01 3.21259E+00
 -1      2169 9.38566E+00 7.23019E+00 3.00413E+00-1.45665E-01 2.91070E+00-1.01923E+00
 -1      2170 1.72833E+01 9.50792E+00 2.25192E+00 3.04600E+00 1.89434E+00-1.05881E+00
 -1      2171-2.86905E+00-7.16579E+00-1.06451E+00 8.69111E-01 4.95379E+00-1.79490E-01
 -1      2172-8.45372E+00-6.35869E+00-8.70791E+00-7.41277E-01 1.78731E+00-7.20614E+00
 -1      2173-1.08202E+01-1.15955E+01-3.56370E+00-6.46304E+00 4.16536E+00 4.50042E+00
 -1      2174 4.98774E+00 6.91552E+00 8.88091E-01-1.00058E+00 1.83980E+00 2.37695E+00
 -1      2175 3.65691E+00-2.43736E+00 5.94852E-01 6.88341E-01 3.46567E+00 2.72507E-01
 -1      2176-4.43269E+00-3.42796E+00-3.38105E+00 2.92376E+00-4.40368E+00 4.44481E+00
 -1      2177 6.04725E+00 8.35609E+00 5.18388E+00 2.30414E-01 7.76321E-02-2.47226E+00
 -1      2178 2.05664E+00 7.74572E+00-7.39606E-01-1.63767E-01 7.91948E-01-2.36263E+00
 -1      2179 4.17887E+00 3.13669E+00 1.87924E+00 7.66047E-01 1.70715E+00-7.61870E-01
 -1      2180-2.14908E+01-2.25297E+01-1.05168E+01-3.27803E-01 1.02434E+00 8.79068E-01
 -1      2181-1.57718E+01-1.66063E+01-8.93986E+00 1.07446E+00-2.02120E-01-1.47972E+00
 -1      2182 1.13612E+01 9.63076E+00 5.96288E+00-6.61241E-01 1.49007E-01 2.11278E+00
 -1      2183-5.62558E+00-6.38147E+00-2.79249E+00-1.00107E+00 1.05428E+00-2.49667E+00
 -1      2184 3.98078E+00 2.64297E+00 1.95309E+00 1.43422E+00 2.67090E+00-1.08092E+00
 -1      2185 1.51595E+01 1.60239E+01 3.37269E+00-5.52291E+00 2.14409E+00 4.10713E-01
 -1      2186 4.80298E+00 4.48430E+00 7.55744E-01-1.21999E+00 1.83916E+00 8.15386E-01
 -1      2187 4.97875E+00 3.11865E+00 8.55461E-01-9.43874E-01 1.86998E+00 7.69545E-01
 -1      2188-6.28961E+00-8.28580E+00-4.43751E+00 4.14212E-01-1.95342E-01-2.93778E+00
 -1      2189 3.24746E+01 3.13460E+01 3.66347E+00-4.57656E-01 4.59593E+00 1.96896E+00
 -1      2190 3.07034E+00 3.84143E+00 1.92583E+00-1.00325E+00 1.59089E+00 2.08092E+00
 -1      2191-2.46426E+00-2.28399E+00-1.52265E+00-8.96231E-01-5.03959E+00-5.05811E+00
 -1      2192 8.83856E+00 8.25692E+00 5.51687E+00-5.84525E-01 2.29295E+00 4.74423E+00
 -1      2193 1.98762E+00 2.05224E+00 1.39337E+00 1.11704E+00 1.41998E+00-2.73273E+00
 -1      2194 1.24610E+01 9.91630E+00-2.60481E+00 8.51430E-01-1.04141E+00 4.44038E+00
 -1      2195 1.30332E+01 1.27123E+01 3.94474E+00 1.61931E-01-4.88514E+00-3.20477E+00
 -1      2196 3.34515E+00 5.66821E+00 4.11936E+00 2.16083E-01 1.43801E+00-1.70051E+00
 -1      2197 6.12032E+00 6.61357E+00 1.27445E+00 8.20799E-01-4.79184E+00-1.81747E-01
 -1      2198 1.28815E+01 9.63520E+00 1.18790E+01-3.16507E-01-3.71706E+00 7.12914E+00
 -1      2199 1.78709E+01 1.71253E+01 4.51963E+00 6.09616E-01-2.22020E+00 6.41732E+00
 -1      2200 4.88018E+00 2.65605E+00 3.12263E+00 1.41759E+00-1.66354E+00 6.13125E-01
 -1      2201 5.28787E+00 1.00098E+01 5.29421E+00-4.01355E-01 6.35377E+00 1.67335E-01
 -1      2202 4.44950E+00 2.82523E+00 1.59470E+00 2.56726E-01 1.91015E+00-1.57237E+00
 -1      2203 1.51337E+01 9.08045E+00 2.96462E+00 3.60391E+00 2.67466E+00-1.01831E+00
 -1      2204 1.15326E+01 1.47521E+01 4.64914E+00-1.37781E+00-2.04379E+00 1.33779E+00
 -1      2205-1.97749E+00-1.75528E+00-1.85725E+00 1.29391E+00 3.27432E+00-3.78761E+00
 -1      2206-1.49088E+01-1.20231E+01-1.07594E+01-4.35211E-01 1.17057E+00-2.29695E+00
 -1      2207 2.87570E+01 3.02724E+01 6.07353E+00-2.85665E+00-3.85830E+00 3.33781E+00
 -1      2208 1.16312E+01 8.54497E+00 5.87719E+00 2.23890E+00 2.43410E+00-1.99372E-01
 -1      2209 8.15130E+00 8.58417E+00 2.31532E+00 1.79321E+00 3.48483E+00-1.86098E+00
 -1      2210 3.45736E+00 6.12086E+00-1.15124E-01-1.34812E+00-8.42175E-01-1.73035E+00
 -1      2211 5.35698E+00 7.31281E+00 3.61864E-01-1.50231E+00-2.14635E+00-1.89395E+00
 -1      2212 8.84909E+00 1.00151E+01 1.27731E+01-6.73020E-01 4.31796E+00-5.35436E+00
 -1      2213 9.12496E+00 8.88354E+00-1.70633E+00 2.06302E+00 2.08762E+00 2.60600E+00
 -1      2214-1.19164E+01-1.75830E+01-6.20988E+00-3.90998E+00-1.89819E+00-2.55775E+00
 -1      2215 3.56949E+00 2.55357E+00 2.34610E+00-1.19851E+00 2.00296E+00 1.55157E+00
 -1      2216-5.10836E-01-2.29628E+00 4.49032E-01-8.51975E-01 3.81738E+00 1.80816E+00
 -1      2217-1.59481E+01-1.31444E+01-6.31673E+00 1.12404E+00-2.99853E+00-1.13724E+00
 -1      2218 2.54787E+00 4.72552E+00-8.13839E-01 1.41938E+00 1.19011E+00-2.35269E+00
 -1      2219-2.17961E+01-2.16917E+01-1.10190E+01 3.39033E+00 1.03991E+00 1.89542E-01
 -1      2220 3.44876E+01 3.16978E+01 1.02310E+01 1.08275E+00 4.66379E+00 7.44573E+00
 -1      2221 2.02734E+01 2.31232E+01 4.14250E+00 1.30577E-01 1.67059E-01 5.88958E+00
 -1      2222 6.89848E+00 7.22104E+00 9.73616E+00 1.63959E+00-5.49730E-02 1.99189E+00
 -1      2223 7.15687E+00 9.12224E+00 6.34551E+00 3.26925E-01-1.35772E+00 7.26912E-01
 -1      2224 7.89220E+00 8.55025E+00 1.08316E+01 1.71543E-01-5.55658E+00-3.17848E+00
 -1      2225 5.64878E-02-3.12790E+01-2.39533E+00-1.70926E+01-1.04944E+01-5.80634E-01
 -1      2226 2.40642E+01-1.35673E+02 5.01523E+00-3.06534E+00-7.05153E+00-2.11131E-01
 -1      2227-3.20315E+01-5.43236E+01 5.87615E+00 1.13985E+01-8.67013E+00-1.19552E+00
 -1      2228-1.67100E+02-1.97681E+02 5.98133E+01 1.17748E+02-1.45672E+01-1.42747E+01
 -1      2229-1.77468E+02-3.94103E+01 7.93392E+00 1.98756E+01 3.32186E+00 2.87602E+01
 -1      2230 3.38335E+01-4.39905E+01-2.24279E+01-2.14488E+01-6.51612E+00-5.77717E+01
 -1      2231-5.88899E+01-2.02796E+01-1.90555E+01-2.07577E+00 7.26212E+00-2.92819E+00
 -1      2232-3.73274E+02-2.08299E+01 5.00649E+01-6.83366E+00 2.64077E+01-1.88926E+00
 -1      2233-7.49670E+01-6.65661E+01 8.38779E-01-2.58673E+01 1.37534E+00-2.91976E+01
 -1      2234 2.95971E+01-1.77898E+01-2.43152E+01 7.67371E+00 9.61695E+00 5.29842E+00
 -1      2235 4.60542E+01-1.50021E+00-3.38123E+01-4.38661E+01-9.77422E+00-1.67218E+00
 -1      2236-5.88923E+01-6.58912E+01-1.54341E+01 2.84379E+00-3.16821E+01 3.06360E+01
 -1      2237-6.26642E+01-1.49988E+02 3.17312E+01-6.70581E+00-1.41287E+01 2.80389E+01
 -1      2238 3.93110E+01 3.53579E+01 1.48074E+01-8.37077E+01-1.54553E+01 2.02832E+01
 -1      2239-1.78346E+02-7.48978E+01 1.99886E+01-1.42722E+01 1.17969E+01 3.18586E+01
 -1      2240-1.62144E+01-4.88045E+01 6.22135E+00 7.92197E-01 8.54176E+00-2.12644E+00
 -1      2241-1.66532E+02-6.06298E+01 7.74939E+00-3.89423E+01 4.43039E+00-5.84353E+01
 -1      2242 1.00025E+01-3.50543E+01-1.92054E+01-5.13319E-01 6.48520E+00 5.96272E+01
 -1      2243-8.49724E+00-4.16667E+01-1.77097E+01-1.25368E+01 6.02512E+00 2.58632E+00
 -1      2244-7.88749E+00-3.32280E+02 7.73210E+01-8.92931E+00-1.38253E+00 4.76749E+00
 -1      2245-1.39583E+01-4.10051E+01-4.99579E+00 1.27499E+00 1.14184E+01-4.23224E+00
 -1      2246-1.31146E+02-1.15769E+02 2.93136E+01 9.72394E+01 2.60285E+00-4.42621E+00
 -1      2247 4.04556E+00 4.68389E+00 6.43021E-01 1.54890E+00 1.39700E+00-1.63698E+00
 -1      2248-1.52550E+02-7.81860E+01 3.28097E+01 1.01506E+01-5.70993E+00 5.65102E+01
 -1      2249-9.83793E-02-2.62374E+01-3.62407E+00 7.11130E+00-8.18007E+00-2.68386E+01
 -1      2250-3.63341E+01 5.32376E+00-1.73065E+01 3.31173E+00-1.37443E+00 9.86437E+00
 -1      2251-2.02190E+02-7.10423E+00 4.37240E+01 7.56791E+00-5.02046E+00-4.86548E+00
 -1      2252-5.64192E+01-8.53660E+01 6.16187E+00-9.68875E+00 1.14564E+01 1.24838E+01
 -1      2253-4.46691E+00 5.05498E+01-2.41565E+01 2.32967E+01-8.76344E+00 2.98744E+00
 -1      2254-4.07697E+01-9.16580E+01-4.71521E+01 4.07109E+01-5.87907E-01 2.19343E+01
 -1      2255 1.55869E+01 3.00540E+01-2.51226E+01-2.41477E+01-2.07027E+00 3.15185E+00
 -1      2256 3.15299E+01-1.44000E+01 3.48263E+01 4.15513E+01 1.67388E-02 4.02752E+01
 -1      2257-1.25900E+02-1.04607E+02-1.15013E+00-2.97994E+01-1.27547E+01 3.79395E+01
 -1      2258-3.96689E+01-3.13493E+00 1.65811E+00 1.26853E+01-5.63727E+00 6.07763E+00
 -1      2259-2.53544E+02-3.79954E+01 6.40879E+01 1.10828E+01 3.62808E+00 8.23805E+00
 -1      2260-5.99724E+01-4.14570E+01-4.93032E+00-3.31383E+00 3.69674E+01-1.91191E+01
 -1      2261-2.69899E+01 9.72125E-01-1.09487E+01-1.68174E+01 3.89599E+00 1.81931E+00
 -1      2262-3.20744E+01-4.94174E+01-5.85785E+00 1.60929E+01-6.63546E+00-2.48165E+01
 -1      2263 8.20588E-01-2.15790E+01 5.05064E-01 1.66747E+01-3.31467E+00-6.65204E+00
 -1      2264-1.52277E+01-2.97128E+01-1.96584E+01 8.14797E+00-9.52929E+00-1.29809E+01
 -1      2265-1.84684E+02-8.19828E+01-9.28015E+00-6.62798E+01 2.06415E+01 7.22213E+01
 -1      2266-1.49069E+02-6.83285E+01 1.16375E+01 3.11216E+01-4.46013E+01 2.20880E+00
 -1      2267-2.76901E+01 7.55001E+01 2.64588E+01-2.90865E+01-2.88477E+01-1.40862E+00
 -1      2268 2.01158E+01 1.78863E+00-2.99994E+00-1.01283E+01-8.57540E+00 1.59542E+00
 -1      2269-4.87653E+00-4.13509E+01 5.57294E+00 2.51860E+00-1.56070E+01 1.23227E+01
 -1      2270-1.18277E+02-6.67862E+01-1.25355E+01 2.04407E+00-1.01543E+01 8.40351E+00
 -1      2271-4.00138E+01-3.48701E+01-1.82397E+01 2.00042E+01 1.68848E+01-8.72345E+00
 -1      2272 3.28892E+00-7.67876E+00 2.15635E+00-5.91415E+00-1.33972E+01 1.53117E+01
 -1      2273-7.51986E+01-5.85896E+01-1.70570E+00 2.89624E+01 7.26561E+00 3.47975E+01
 -1      2274-3.67060E+00-1.55811E+01 4.22512E-01 2.04325E+01-4.04506E+00-1.02915E+01
 -1      2275-2.78571E+01-9.45970E+00-1.23242E+01 4.32477E+00-4.82515E-01-1.20164E+01
 -1      2276-1.74556E+01-1.32868E+01-9.05378E+00 8.22536E-01-8.11829E-01-2.54604E+00
 -1      2277 2.51595E+01 2.77841E+01 7.49191E+00-2.57068E+00 2.78257E+00-4.50364E+00
 -1      2278-3.31712E+00-5.15732E+01 3.97360E+00 1.23158E+00 1.75380E+01-5.30707E+00
 -1      2279-5.92307E+00 9.44661E+00-4.53540E+00 7.90462E+00 2.25937E+01 2.32533E+00
 -1      2280-6.01599E+01-2.05846E+01-1.10374E+01-1.68195E+01-1.32205E+01 3.25021E+01
 -1      2281 4.84874E+00 1.38792E+00-5.25747E+00-1.55097E+01-2.91784E+00 6.20986E+00
 -1      2282-1.52215E+02-1.34815E+02 2.47077E+01 3.47167E+01 4.88949E+01-2.69436E+01
 -1      2283-5.20395E+01 5.08296E+01 1.04772E+01-1.61104E+01 5.92222E+00-3.08537E+00
 -1      2284-7.68038E+00-7.28450E+01 4.94475E+00-1.22630E+01-1.18976E+01-1.69442E+01
 -1      2285-1.88859E+01-3.78091E+01-4.24306E+00 1.24369E+00-7.44747E+00 3.26955E-01
 -1      2286-3.42635E+01 1.50635E+01-3.87710E-01 5.47083E+00-4.00643E+01-1.86160E+01
 -1      2287-2.27852E+02-1.28893E+02 7.15579E+01-1.09263E+02-2.71901E+01-1.29923E+01
 -1      2288-1.85230E+01-1.42907E+01-5.97552E+00 4.41961E+00 2.20357E+01 3.22077E+01
 -1      2289-9.93104E+01-6.38508E+01 4.40854E+01-3.81709E+01 1.21743E+01 4.45988E+01
 -1      2290-1.54135E+02-5.58573E+01-2.46877E+01-1.50875E+01 5.69283E+00-5.11816E+00
 -1      2291 7.99712E+01-2.78194E+01-9.88878E+00-1.25002E+01-1.48603E+01-4.86198E+00
 -1      2292 5.22700E+00 2.15581E+01-2.18168E+01-2.24964E+01-2.85939E+01 4.56117E+01
 -1      2293-6.60000E+01-1.48871E+02-5.09954E+00 1.11416E+02 4.94229E+01-3.82880E+01
 -1      2294-8.07497E+01-5.38107E+01-1.98761E+00 1.00115E+01-1.32429E+01 1.40426E+01
 -1      2295 3.98835E+01-2.96975E+00-4.98859E+01-2.68057E+01-2.35880E+00 2.86607E+00
 -1      2296-5.78111E+01-4.94449E+01-2.40232E+01 3.76092E+01-7.96016E+00 4.46277E+00
 -1      2297 2.90425E+01 3.57824E+01-3.23528E+01-3.70080E+01 7.17452E-01 7.57264E+00
 -1      2298 1.63149E+00-4.52333E+01-5.42160E+00-5.46722E+00-4.78926E+00-1.09407E+01
 -1      2299 1.10350E+01-2.10660E+01 9.51860E-01-8.07149E-01-6.69831E+00-3.08482E+00
 -1      2300-9.02167E+01-1.42905E+02 2.35350E+01 3.94597E+01 1.84810E+01-1.30201E+01
 -1      2301-7.84300E+00 1.03345E+01 1.61865E+01-2.07092E+01-2.09821E+01 6.82446E+00
 -1      2302-1.09821E+02-1.95553E+02-7.31299E+00 2.90556E+01 4.78668E+01-1.39478E+01
 -1      2303-4.65696E+01 7.30175E+00-9.95922E+00 2.48158E+01-5.06715E+01-1.06575E+01
 -1      2304-4.17405E-01-1.65034E+01 3.06991E+00 3.11246E+01 1.04177E+01-2.73110E+00
 -1      2305-2.51314E+02-2.05109E+02 2.11065E+01-1.26025E+02-4.33564E+01-1.15949E+02
 -1      2306 8.52366E+00 1.02291E+01 2.99266E+00-2.69827E+00-2.53268E+00-2.80236E+00
 -1      2307-8.89415E+01-7.57783E+01 7.60906E+00 8.90790E+00 1.69346E+00-2.59216E+01
 -1      2308 2.41692E+00-4.03900E+01-6.53156E+01-2.34056E+01-4.04676E+00-3.89301E+00
 -1      2309-2.15611E+02-1.27948E+02 2.17116E+01-1.20985E+02 5.20111E-01 2.08351E+01
 -1      2310 5.76251E+01 3.00846E+01 5.35078E+00 2.51041E+01 1.88551E+00 1.52990E+01
 -1      2311-1.10421E+02-1.77785E+02-3.10580E+01-7.73342E+01 1.25551E+01 1.10296E+01
 -1      2312 7.65276E+01-4.95789E+01-3.20343E+01 2.09811E+01 4.08105E+00 6.05268E+00
 -1      2313-3.46639E+01-4.19641E+01 7.32581E+00 2.22329E+00 3.80098E+00-2.41128E+01
 -1      2314-2.20829E+00-2.25917E+01-2.56324E+00 8.77074E-01 4.19623E+00-1.18858E+01
 -1      2315-2.19181E+01-1.89478E+02-1.93170E+01 4.70515E+01-6.38586E+01 2.06746E+01
 -1      2316-1.04397E+01 6.67862E+00-1.49364E+01 3.29057E-01 2.06811E+01 1.71883E+00
 -1      2317-2.27543E+01-1.57411E+01 3.33980E+00-2.16444E+00-2.37363E+01 1.43473E+01
 -1      2318-5.12355E+00 1.20276E+01 2.50169E+00-8.57958E+00-6.28332E+00 1.85537E+00
 -1      2319 1.78302E+01 4.68614E+01-5.16403E+01 4.25547E+01-4.45703E+00-4.26068E+00
 -1      2320-6.85425E+01-4.55787E+01-1.82260E+01-3.36337E+01-3.07091E+01-1.92443E+01
 -1      2321 1.25055E+00-6.14138E+01 9.29429E-01-1.62759E+01 1.00074E+00-1.43559E+01
 -1      2322-1.47110E+02-2.15161E+02 3.37131E+01 1.18596E+02-8.37772E+00-1.10254E+01
 -1      2323-2.26919E+01-4.04804E+01 3.20018E+00 1.05481E+01 3.30124E+00 9.50666E+00
 -1      2324-7.42845E+00-2.27758E+01 4.36988E+00 8.69573E+00 1.49746E+00 6.86733E+00
 -1      2325-4.20670E+00-9.65531E+01-1.67223E+01 9.24856E+00-2.30460E+01 3.30453E+00
 -1      2326 9.78377E+00 5.78550E+01-2.55129E+01-1.49082E+01-1.19137E+00-2.26745E+00
 -1      2327-9.38298E+01-5.19036E+01 1.98215E+01-4.35532E+01-8.45600E+00-2.23161E+01
 -1      2328-6.95173E+00-1.96754E+01-1.38683E+01 9.22061E+00 2.25616E+01 4.29763E+01
 -1      2329-1.37553E+02-1.10109E+02-3.56622E+01-4.84492E+01-3.68294E+01-7.47613E+01
 -1      2330-2.67793E+01-1.20103E+00-8.62977E-01 9.54732E+00-1.30310E+01 3.32134E+00
 -1      2331 2.23187E+00 6.88499E+00-1.12489E+00 9.90011E-02-3.47103E-01-2.52161E+00
 -1      2332-3.13187E+01-3.09451E+01-2.07044E+01 2.13638E+00-7.89457E-01 1.43214E+00
 -1      2333-3.66455E+01-4.64989E+01-7.09021E+00-1.11568E+00 1.21522E+01-6.63795E+00
 -1      2334-4.48117E+01-2.11629E+02 2.34645E+01-1.45807E+01 6.74904E+00-1.47117E+01
 -1      2335-6.94270E+01-1.17489E+02 1.22422E+00 2.50188E+01-6.08332E+00-1.10979E+01
 -1      2336-4.39130E+01-2.39046E+01-1.92586E+01 3.69220E+01-4.64195E+00 2.35488E-01
 -1      2337-2.23078E+01-2.20126E+01 3.45512E+00-8.49962E-01-1.58537E+01-3.19847E+00
 -1      2338-2.55883E+01-1.91284E+00-2.53068E+00-5.34985E-01-1.40720E+01 1.34119E+00
 -1      2339-5.52652E+01-1.66187E+01-3.12750E+01-2.36608E+01-1.50179E+01-1.70346E+01
 -1      2340 3.29856E+01 6.74556E+00-1.07398E+01 1.37352E+01-6.79204E+00 3.71656E-01
 -1      2341-7.97528E+01-1.39374E+02 3.65311E+00-5.53013E+01-2.36186E+01-2.78363E+01
 -1      2342-1.83269E+01-7.38266E+01-2.76368E+00 1.92530E+00-3.34831E+00 2.01182E+00
 -1      2343-9.65567E+01-1.43667E+02 4.37287E+01-1.92816E+01 1.29100E+01-2.47335E+01
 -1      2344-5.49559E+01-1.04916E+01 2.95744E+01-2.48219E+01 2.19630E+01-1.48267E+01
 -1      2345-5.12783E+01-7.76142E+01 6.25308E+00 3.68697E+00-3.55011E+01 5.63492E+00
 -1      2346-2.28379E+00 4.46805E+01-4.05774E+01-3.16489E+01 7.85433E+00-9.94742E+00
 -1      2347-6.45782E+01-1.35397E+01-2.76691E+01-1.40557E+01 4.53196E+00-2.78799E+01
 -1      2348 1.39913E+01-8.60062E-04-5.14767E+00 6.04460E+00-1.56971E+00-8.83543E+00
 -1      2349-1.45978E+02-8.88397E+01 1.03266E+01-5.51368E+01 1.72086E+01 3.24354E+01
 -1      2350 4.69002E+00-3.53302E+01-1.11388E+01 2.20666E+00-1.08550E+01-8.26507E+00
 -1      2351-9.92852E+01-2.54827E+02 3.89331E+00 5.41339E+01 1.56456E+01 1.67572E+01
 -1      2352-6.14904E+00-2.38600E+01 1.25210E+01-1.15201E+01-2.35169E+00 5.31812E+00
 -1      2353-7.65002E+01-1.40594E+02-5.14597E+00 5.34339E+01-2.09325E+01 6.90575E+00
 -1      2354 3.48724E+01-2.25665E+01-1.43037E+01-3.02361E+01-2.10875E+00 1.76926E+01
 -1      2355-2.71998E+01-2.35189E+01-2.01906E+01-1.74287E+00-1.55112E+00 4.40735E-01
 -1      2356-1.61145E+01-5.64278E+01 9.49901E+00-1.93611E+01 1.93353E+00-8.99100E+00
 -1      2357 6.80446E+00 6.63565E+00 1.52491E+00 1.99293E+00-1.74355E+00 1.65685E+00
 -1      2358-1.71383E+02-1.81731E+02 8.24279E+01 8.20324E+01 3.08097E+01-3.66368E+01
 -1      2359-1.18604E+01 1.00703E+01-2.74400E+00 1.86564E+00-5.60012E+00-6.97458E-01
 -1      2360-1.90189E+00 6.54418E-01-9.27472E-01-2.10409E-01-6.64565E+00 1.55097E+00
 -1      2361-1.89985E+01 2.66643E+00-3.79146E-01 2.44348E+00-2.48815E+00-2.83991E+00
 -1      2362-4.15340E+01 2.27520E+01-1.86437E+00 1.66170E+01 7.57186E+00 1.13209E+00
 -1      2363-9.93249E+00 9.95512E-01 2.78101E+00 4.10067E+00-1.09108E+01 3.70984E+00
 -1      2364-6.59221E+00 5.24606E+00-2.32785E-01-1.12305E+00-4.86342E+00 4.47768E+00
 -1      2365-5.01255E+01 2.53304E+01-5.23683E-01 8.79442E+00 1.88781E+00 3.58987E+00
 -1      2366-7.72151E+00 1.61967E+01-5.80321E+00 3.35375E+00-1.21259E+01 4.86030E+00
 -1      2367-3.36779E+01 2.23358E+01 1.52998E+00 1.31382E+01 1.43121E+01 2.39568E+00
 -1      2368-3.06010E-01 2.86020E+01 1.05527E+00 1.75667E+00-6.34329E+00 6.47064E+00
 -1      2369-3.89742E+00-6.30030E+00-1.49323E+00-1.17907E+00-7.89387E+00 9.55482E-01
 -1      2370-1.21666E+01 5.73903E+00-6.61782E+00-9.34390E-01-1.14875E+01 5.52078E+00
 -1      2371-3.91307E+01 1.67198E+01-4.72467E+00 2.74069E-02 3.66889E+00 5.17579E+00
 -1      2372-6.84721E+00-6.02576E+00 3.56084E+00-4.47884E+00-1.49422E+01 1.30119E+00
 -1      2373-1.90294E+01 1.24528E+01-4.45185E+00 3.53598E+00-2.56905E+01 5.60051E+00
 -1      2374-1.55949E+01 5.47544E+00-5.73186E+00-3.83860E+00-1.03329E+01 1.37333E+00
 -1      2375-3.57701E+01-1.14357E+02-3.80621E+00-1.28883E+01-4.18469E+01-8.00137E+00
 -1      2376-3.42397E+01-2.71686E+01-4.25822E+00-2.42198E+00 9.36672E+00 5.94320E-01
 -1      2377-6.07845E+01-6.21598E+01 2.06225E+00-8.27652E+00-7.94764E+00-5.04113E+00
 -1      2378-9.19150E+01-1.49219E+02 1.46638E+01-5.21275E+01 4.72351E+00-3.81397E-01
 -1      2379-7.40772E+01-9.94705E+01-1.35975E+01-2.76562E+01 8.09115E+00-8.05654E+00
 -1      2380-2.87363E+01 1.42305E+01-2.66560E+01 1.61805E+01 5.53787E+00-6.27251E+00
 -1      2381 1.55154E+01-3.24051E+01-2.20371E+01 4.54108E+00-1.17397E+01 1.08023E+01
 -1      2382-1.03239E+02-4.84947E+01 2.27768E+01 2.05648E+01 1.06315E+01-7.00567E+01
 -1      2383-8.21981E+01-1.89806E+02 5.40592E+01-1.04775E+01-1.62746E+00 2.11722E+01
 -1      2384-4.27372E+01-3.25371E+01 3.27573E+01-1.18697E+01-1.73854E+01 7.35079E+00
 -1      2385-1.18623E+02-1.22401E+02 4.94809E+00 4.18858E+00 1.37451E+01 1.26165E+01
 -1      2386-4.46327E+01-3.65717E+01-1.67445E+00 1.29098E+01-1.11715E+00 3.59085E+00
 -1      2387-1.46167E+02-5.80636E+01 2.08390E+00-2.28456E+01 5.55605E+00 5.19238E+01
 -1      2388 1.65320E+01-2.87915E+01 7.11759E-01 5.80751E+00-2.13203E+01-6.38432E+01
 -1      2389-9.78876E+01-1.77433E+02 5.95836E+01 4.19596E+01 1.12009E+01-9.27023E+00
 -1      2390-1.64973E+01 6.79512E+00 3.87161E+01-2.46982E+01 2.19419E+01-1.31767E+01
 -1      2391-2.44561E+00 2.92646E+00 9.18917E-01 4.47939E+00-1.19791E+00-9.18156E+00
 -1      2392-1.03668E+02-2.11530E+01 1.25813E+01 3.96450E+01 6.86933E+00-6.69294E+00
 -1      2393-1.23220E+01-2.74018E+01-5.56934E+00-2.09583E+01 4.39518E+00-4.31709E+00
 -1      2394-1.75141E+02-6.10601E+01 4.10635E+01-1.03616E+02 5.62368E+00-5.36299E+00
 -1      2395 1.18103E+01 1.04387E+01-1.21203E+00-1.54046E+00-2.29982E+00-1.41719E+00
 -1      2396-3.35843E+01-2.92571E+01 5.71351E-01-2.77872E+00 1.40712E+01-1.89570E+01
 -1      2397-8.76866E+01-1.20855E+02 4.34780E+01 5.83278E+01 3.78889E+01-4.16747E+01
 -1      2398-2.94775E+01-3.41936E+01-1.46763E+01 2.95210E-01-7.96521E-01-2.02867E+00
 -1      2399-2.55518E+01-9.79283E+01-4.26382E+00 3.83187E+01-5.23954E+01 1.85019E+01
 -1      2400-6.93032E+00 1.10097E+01-7.57614E+00 3.92453E+00 6.56818E+00-1.32488E+00
 -1      2401-7.48667E+01-7.59292E+01 1.67895E+01-5.05347E+01 3.76292E+00-7.13782E-01
 -1      2402-1.99580E+01 3.43053E+01 2.87558E+00 4.27499E+00 2.64647E+01 1.05046E+01
 -1      2403 1.92619E+01 1.55316E+01-7.88340E+00-7.14545E+00 9.21080E-01-3.30178E+00
 -1      2404-4.10216E+01-1.23241E+01-1.61282E+01 2.82884E+01 4.44512E+00-1.26889E+01
 -1      2405-6.62299E+01-1.72048E+01-1.11524E+01 6.92624E+00-1.82246E+00-1.46867E+01
 -1      2406 1.43135E+01-1.51310E+00-2.59101E+00 9.47295E+00-9.44555E+00-9.58609E-01
 -1      2407-7.86348E+01-4.84680E+01-4.17211E+00-2.86923E+01-1.71065E+01-3.11376E+01
 -1      2408-2.56995E+01-1.90843E+01 1.96141E+00 8.69240E+00-1.45700E+01-2.17776E+01
 -1      2409 1.93367E+01 2.37852E+01 1.99713E+00 1.54726E+00 5.20145E+00 6.32933E+00
 -1      2410-3.36436E+00 5.38361E+00 1.12419E+00-8.76080E-02 5.04093E-02-4.20785E+00
 -1      2411-9.39979E+01-5.76298E+01 3.22119E+01-1.56706E+01 7.20081E+00 6.95730E+00
 -1      2412-3.14918E+02-9.60974E+01 7.06922E+01-2.57356E+01 8.14528E+00 7.56181E+00
 -1      2413-1.60512E+01-1.60506E+01-7.59100E+00-3.09001E-01-1.79377E-03-1.95324E+00
 -1      2414-1.28350E+02-7.84309E+01 4.26743E+01-5.17177E+01-7.25433E+00 1.60374E+01
 -1      2415 8.40319E+00-4.62170E+01 1.38985E+01-5.85708E+00 9.57331E+00 4.06381E+01
 -1      2416-1.35419E+01-1.70172E+01 5.21550E+00 6.68747E+00-6.88213E+00-1.18768E+01
 -1      2417-4.39112E+01-3.81091E+01-2.98920E+00 1.33550E+01 8.34896E+00-3.56407E+01
 -1      2418-6.50708E+01-1.36447E+02-3.26403E-01-1.22744E+01-1.45773E+01-1.66861E+01
 -1      2419-2.73892E+01-5.96133E+01 8.13605E+00 1.50048E+01 8.86402E+00-7.42293E-01
 -1      2420-4.35417E+01-3.76401E+01-1.79264E+00 1.45552E+01 1.41777E+01 4.98927E+00
 -1      2421-6.67442E+01-2.65941E+02 3.44694E+01-1.79581E+01 1.24354E+01 6.80002E+00
 -1      2422-9.16459E+01-1.50690E+02-3.50201E+01-3.38841E+00 1.14834E+01-9.43945E+00
 -1      2423-4.85841E+01 3.46195E+01-9.01409E+00 6.61454E+00-2.04983E+00 1.84262E+01
 -1      2424-1.10327E+02-8.55977E+01-3.59594E+00-5.96170E+01-1.16533E+01-2.74044E+01
 -1      2425 4.82200E+00-4.86833E+01-1.44813E+01-5.96484E+01-6.96094E+00-4.78653E+00
 -1      2426-1.30926E+02-1.16670E+02-1.60804E+01 3.42182E+01 1.74645E+01-6.78238E+00
 -1      2427 5.25136E+00 4.62663E+01-2.46517E+01-6.37206E+01-1.87098E+01 3.03695E+00
 -1      2428-3.29499E+01-5.34646E+01-2.00727E+01 1.39674E+00 4.84478E+00 1.89744E+00
 -1      2429-3.54919E+01-2.66177E+02 4.21057E+01-1.50839E+01 1.41658E+00-2.20786E+00
 -1      2430-2.39543E+01-4.04159E+01 7.44406E+00 2.86432E+00-1.67138E+01 2.77615E+00
 -1      2431 2.39287E+00 6.39108E+00 5.46786E+00-1.02290E+01-1.30857E+01 3.24547E+00
 -1      2432-5.88942E+00-3.66901E+01 2.85232E+00-2.93710E+01 1.74444E+00-1.24637E+01
 -1      2433-1.24685E+02-1.00362E+02 5.62725E+01 4.13037E+01-3.88784E+01 3.72674E+01
 -1      2434-3.16917E+01-5.36785E+01-8.20138E+00-2.86935E+00-6.45689E+00 2.79464E-01
 -1      2435-1.39508E+02-1.08882E+02 3.08614E+01 3.21849E+01 1.80360E-01-1.08807E+01
 -1      2436-4.24739E+01-2.51895E+01-1.01779E+01 3.66725E+00-2.33210E+01 1.40143E-02
 -1      2437-4.99114E+01-1.90725E+02 2.35745E+01 1.45247E+01-1.24110E+01 1.43541E+01
 -1      2438-2.13201E+01-3.60593E+01-5.43760E+00-2.23163E-01-4.23319E+00-1.10182E+01
 -1      2439-4.15255E+01-4.06469E+01 1.05539E+01-1.17636E+01 2.99783E+00-2.47555E+00
 -1      2440-4.73950E+01-4.93960E+01-4.01657E+00-2.77914E+01 4.92557E+00 1.09296E+00
 -1      2441-6.83854E+01-1.53150E+02 2.75458E+01-7.85758E+01 1.39498E+01 5.68924E+00
 -1      2442-1.43612E+01-6.82045E+00 2.54646E+00 8.04495E+00-4.51704E+00-4.69087E+00
 -1      2443-1.53472E+02-6.94076E+01-2.18140E+00-4.08361E+01-1.67074E+01-9.12713E+00
 -1      2444-4.27154E+01-1.19162E+02-4.40842E+00 1.95283E+01-9.63360E+00-1.22304E+01
 -1      2445-3.12073E+01-3.87535E+01 9.73880E+00-8.66374E-01 1.09637E+01-3.03370E+01
 -1      2446-5.65123E+01-9.46862E+01-9.98637E+00 3.74795E+01 1.32900E+01-1.69362E+01
 -1      2447 1.89309E+01-4.06034E+00-4.26773E+00-2.50164E+01 1.74392E+01-7.57653E+00
 -1      2448-1.56649E+02-9.53294E+01 6.58376E+00-4.73679E+01-3.21857E+01-8.36343E+00
 -1      2449-1.77259E+01 4.90037E-01 5.36382E+00 7.13470E+00-1.48837E+01-1.12253E+01
 -1      2450-1.95980E+01 6.40234E+00-5.38321E+00-4.40737E+00 8.29843E+00-2.25126E+00
 -1      2451-5.52030E+01-2.32874E+01-9.87426E+00 1.05541E+01 2.29309E+01-2.18200E+01
 -1      2452-2.28418E+01-3.31735E+01 2.05515E+01-4.78228E+00-2.19087E+00-1.32712E+01
 -1      2453-1.20820E+02-8.36299E+01 4.40758E+01-3.81576E+01 1.73745E+01-2.88498E+01
 -1      2454-8.89019E-01 4.82041E+00 2.43462E+00 1.33047E+00-5.45056E+00-2.21973E+00
 -1      2455-2.42744E+01-4.75939E+01-1.85159E+00-5.15018E+00-8.56613E+00-4.67003E+00
 -1      2456-1.97339E+01-3.33192E+01-9.43143E+00 7.43299E+00-1.17173E+01-7.45940E+00
 -1      2457-3.67653E+01-1.03908E+02-7.94864E+00 1.11355E+01-1.51268E+01 3.68103E+00
 -1      2458-4.26219E+00 3.48008E+01-2.05507E+00 1.90864E+00-1.01918E+01-6.63631E+00
 -1      2459-4.46708E+00 4.02096E+00 9.07186E+00-1.36782E+01-1.15426E+01 4.97255E+00
 -1      2460-7.77413E+01-2.49533E+02 3.44186E+01 6.67200E+01-7.27978E+01 6.54265E+00
 -1      2461-4.44125E+01-3.56214E+01 1.04784E+01-9.67205E+00-1.11098E+00-6.20767E+00
 -1      2462-8.49581E+01-8.70663E+01 1.37903E+01-2.38021E+01-2.47485E+01 1.07712E+01
 -1      2463 1.52060E+01-2.34443E+00 9.15515E+00 1.79845E+01 1.32358E+01 3.08258E+00
 -1      2464-7.65173E+01-1.73639E+02 7.22123E+01-5.95751E+01 6.50882E+01 2.45395E+01
 -1      2465-1.62589E+02-9.09954E+01-3.58494E+01 7.98610E+01 9.22567E+00-3.43567E+01
 -1      2466-5.16258E+01-3.24833E+01-3.26912E+01 6.40647E+00-1.15462E-01 5.76773E+00
 -1      2467-4.33841E+00-1.32943E+01 2.67603E+00-3.85206E+00-3.57480E+00 1.15612E+01
 -1      2468-9.53029E+00-2.07400E+01-9.84990E-01-6.30601E+00 3.24172E-02 1.27895E+01
 -1      2469-1.21111E+01-7.49128E+00 6.23567E+00-2.06595E+00 7.92964E+00-7.11484E+00
 -1      2470-7.52790E+01-4.86933E+01-5.03568E+00 2.34324E+01 5.48137E+00-2.56991E+01
 -1      2471 1.51348E+01 1.95962E+01 3.37565E+00 1.07971E-02 4.64347E+00 1.57228E+00
 -1      2472-5.31452E+00-1.16835E+01-6.15648E-01-1.46645E+01-1.32983E+01 2.32035E+01
 -1      2473-4.55856E+01-3.22166E+01 9.32867E+00 9.48922E-01 1.05959E+00 1.84450E+01
 -1      2474-4.94356E+01-4.55075E+01-1.36363E+01-1.23422E+00 5.95294E+00 2.18373E+01
 -1      2475 1.38959E+00-1.92035E+01-1.61102E+01 2.02858E+01 4.49942E+00 2.22561E+00
 -1      2476-4.01898E+01-1.51847E+01 5.85515E+00-6.49844E+00-5.85160E-01-5.32340E-01
 -1      2477-1.25866E+01 6.17857E+00-1.03478E+01 2.94773E+01-1.11690E+00-8.60927E+00
 -1      2478-2.88866E+01-1.76279E+01 7.57433E+00 7.51834E+00 3.35049E+00-9.89286E+00
 -1      2479-3.01634E+01-1.97537E+01 3.85751E+00 3.29996E+00-1.36319E+00 8.92456E+00
 -1      2480-2.63836E+01 2.03938E+01 3.18744E+00 3.77238E+01 1.57107E+01-1.94427E+00
 -1      2481-4.23041E+01 1.81033E+01 9.40620E+00 1.57452E+01 1.05348E+01 6.02430E+00
 -1      2482-4.30462E+01-1.39409E+01 8.33078E+00-7.68182E-01-7.76993E+00 5.26087E+00
 -1      2483-6.02256E+01-3.12326E+01-9.62314E-01-1.41170E+00-1.83464E+01-2.31772E-01
 -1      2484-4.29802E+01 9.01767E+00 4.86733E-01 9.31750E+00 4.17670E+00-8.67494E+00
 -1      2485-5.57214E+01-9.56873E+01-3.07035E+00 1.64651E+00-3.72119E+01-8.27983E+00
 -1      2486-3.82992E+01 7.14853E+00 5.30246E+00 8.34002E+00 4.50356E+00-7.18851E+00
 -1      2487-1.86017E+01 3.78040E+01-6.23780E+00 4.86113E+01 8.01591E+00-1.66583E+00
 -1      2488-5.45136E+01-6.61308E+01 1.23348E+00-7.82581E+00-1.68523E+01-1.07643E+01
 -1      2489-3.74194E+01 5.69345E+01 1.47877E+00 6.18319E+01 2.09403E+01 1.70226E+01
 -1      2490-1.05209E+01 2.65941E+01-3.95028E-01 1.13984E+01 8.74843E+00 4.25905E+00
 -1      2491 2.31452E+01 6.03717E+01-1.97666E+01 4.38727E+01 7.44110E-01 3.07837E+00
 -1      2492 1.37270E+01 1.16663E+01 2.07983E+00 1.55497E+00 1.43008E+00 4.40177E+00
 -1      2493-1.67195E+00-3.51098E+00 1.11135E+01 1.19235E+01 2.55685E+00-3.61751E+01
 -1      2494-1.83086E+02-1.61222E+01 9.66434E+00 2.15893E+01 1.94841E+01-3.65399E+01
 -1      2495-1.68984E+02-1.82272E+02 3.76674E+00-5.55527E+01-2.71415E+01-6.92669E+01
 -1      2496-6.06498E+01-1.34561E+02 7.72569E+00-4.39157E+01-1.24928E+01-8.30090E+00
 -1      2497-1.58193E+02-2.53840E+02 1.25354E+01-1.77353E+01 1.66761E+00-4.43910E+01
 -1      2498-4.56968E+01-9.92736E+01 7.15269E+00-5.37178E+01-2.49712E+00-1.37369E+01
 -1      2499-1.16709E+02-2.10370E+02-1.39359E+01 1.58122E+01 3.70118E+01-4.48489E+01
 -1      2500-9.93503E+01-1.81940E+02 2.61324E+00-3.37894E+01-2.28579E+01-4.25273E+01
 -1      2501-1.45388E+02-1.59643E+02 2.29787E+01-7.25856E+01 4.67784E+01-5.06831E+01
 -1      2502-5.60760E+01-1.40782E+02 1.31367E+01 1.48154E+00 9.88579E+00-1.85490E+01
 -1      2503-1.39672E+02-1.12825E+02 6.25599E+01-7.77543E+01 1.70434E+01-6.52716E+01
 -1      2504-3.82024E+01-9.32288E+01 7.00436E+00-8.55804E+01 2.08645E+01-5.55954E+01
 -1      2505 1.96946E+01-8.92132E+01 4.36952E+00-3.02910E+01 8.49304E+00 1.79700E+01
 -1      2506-1.33788E+02-1.02506E+02 2.68078E+01-6.31972E+01 5.71290E+00-3.23939E+01
 -1      2507 5.23655E+00-6.31940E+01-1.67245E+01-6.92352E+01-1.04819E+01-3.30306E+01
 -1      2508-4.90250E+01-2.98321E+01-1.44562E+00 4.35118E+00-1.27975E+01 6.24378E+00
 -1      2509-1.21389E+01-8.46813E+00-3.96336E+00-8.59500E+00-1.32501E+01 4.27941E+00
 -1      2510-7.40876E+01-7.32422E+01-7.90514E+00-6.25373E+00-9.80435E+00 4.00232E+01
 -1      2511 3.17040E+01-2.60543E+01-4.12364E+00 1.90473E+01-1.36337E+01-2.15088E+01
 -1      2512-2.11550E+01-2.28182E+01 8.08627E+00 1.43515E+00 8.75452E+00-1.01804E+01
 -1      2513-2.38093E+02-9.04866E+01 9.40646E+01 7.82331E+01 4.21443E+00-7.32349E+00
 -1      2514-1.38352E+02-1.07790E+02 8.62726E+00-2.79662E+01 2.58594E+01 5.46671E+01
 -1      2515-3.76438E+01-4.96517E+01 3.14805E+00-2.77313E+00 1.29689E+01 2.07521E+01
 -1      2516-1.43581E+02-8.39382E+01 3.66913E+01-4.18159E+01-5.27623E+00 1.84099E+01
 -1      2517 3.23067E+01-2.84390E+01 2.51493E+01-1.58560E+01-1.34111E+01 9.98268E+00
 -1      2518-5.11036E+01-9.12917E+01 5.60272E+00-2.24220E+00 1.75024E+01 5.10763E+00
 -1      2519-1.32016E+02-2.42600E+02 1.65046E+01 3.30031E+01 1.30153E+01 1.60032E+01
 -1      2520-1.50572E+02-1.78202E+02 6.21093E+00 5.18827E+01 4.70116E+00 5.80023E+01
 -1      2521-4.07999E+01-6.37418E+01 6.91710E+01-3.68655E+01 2.16784E+01 4.88682E+01
 -1      2522-3.18987E+01-3.81635E+01 1.17279E+01-5.74369E+00 2.37633E+01 7.76552E+00
 -1      2523-6.33469E+01-1.90091E+02-2.48658E+00 1.36600E+01 3.47095E+01 1.38765E+01
 -1      2524-1.98942E+02-8.78079E+01 3.48000E+01-4.75478E+01 3.27647E+01 2.41921E+01
 -1      2525-6.22943E+01-7.82858E+01 7.77289E+00 2.63724E+01 1.06897E+01 5.50554E+01
 -1      2526-1.04748E+02-6.41048E+01 1.39830E+01-4.90154E+01 3.02579E+01 5.91534E+00
 -1      2527-1.11343E+01-5.33119E+01 5.25964E+00 8.38688E+00 9.16765E+00 1.11025E+01
 -1      2528-2.71489E+01-7.70627E+01-1.31431E+01-1.67034E+01-8.72236E+00 3.74864E+01
 -1      2529 4.50632E+01-2.78813E+01 2.26008E+01 6.10917E+00-6.15607E+00 2.08486E+01
 -1      2530-4.32390E+01-8.41069E+01-6.87517E+00-3.28218E+00-1.85864E+01 5.29961E+00
 -1      2531-3.77747E+01 2.02211E+01-4.17415E+00-3.40286E+00-1.18377E+01-8.53709E+00
 -1      2532-3.28955E+01-3.22393E+01-2.81087E+00 9.19298E+00-2.96045E+00 1.99536E+01
 -1      2533-1.51709E+02-6.54018E+01 3.17888E+01 3.11985E+00 8.67943E+00 1.60296E+01
 -1      2534-1.91304E+01 2.39937E+01 1.59523E+01 7.24072E+00 4.00350E+01 3.86455E-01
 -1      2535-6.69828E+01-1.20461E+02 1.43882E+01 3.66729E+00 1.69268E+01-2.41743E+01
 -1      2536-4.86939E+00-2.09439E+01-1.02401E+00 1.37915E+01 4.72389E+00 6.67858E+00
 -1      2537-1.92290E+00-1.10454E+01 3.05039E-02 9.67699E+00 5.70310E-01 1.90426E+00
 -1      2538-2.88325E+00-1.23018E+01 4.46249E+00 3.98950E+00 4.00198E+00 8.32614E+00
 -1      2539 7.89275E+00-1.34238E+01 3.52957E+00 8.26157E+00-2.96491E+00 7.13245E+00
 -1      2540 5.27566E+00-1.82892E+01-1.01194E+00 1.98510E+01 4.34034E+00-2.46412E+00
 -1      2541-1.79119E+01-1.57930E+01-2.14393E+00 5.88174E-01 8.21481E+00 1.58395E+00
 -1      2542-4.65218E+00-2.18299E+01 2.42857E+00 1.49769E+01-7.64190E-01 1.27881E+01
 -1      2543-6.42742E+00-1.56120E+01 3.77606E+00 5.66408E+00 3.91891E+00 5.97897E+00
 -1      2544-2.64649E+01-2.79610E+01 2.29977E+00 1.28981E+01 1.46442E+01 8.69642E+00
 -1      2545 1.51963E+01-1.78575E+01 2.26949E+00 2.71985E+01-3.85441E+00 4.38704E-01
 -1      2546-1.59021E+01-2.10047E+01-2.57138E+00 5.67686E+00 1.06067E+01 2.95665E+00
 -1      2547 6.92077E+00-1.82428E+01-1.57464E+00 9.88725E+00 4.02525E+00-2.89489E+00
 -1      2548-1.93294E+01-1.37191E+01 1.42325E+00 5.83390E+00 1.31195E+01 3.22547E+00
 -1      2549 1.48205E+01-1.41602E+01-1.56522E+00 2.00038E+01-3.90294E-01 1.10199E+01
 -1      2550 1.11130E+01-1.48376E+01-2.66161E+00 1.72562E+01-9.77191E+00 1.67067E+00
 -1      2551 1.79673E+00-1.60240E+01 4.12319E+00 1.12493E+01-5.13504E+00 1.03858E+01
 -1      2552-8.11974E+00-3.89207E+01-1.04613E+00 2.48968E+01-1.05979E+01 1.54890E+01
 -1      2553-3.49875E+00-2.53884E+01 1.97849E-01 1.62268E+01-7.60366E+00 1.17062E+01
 -1      2554-1.34728E+01-3.17908E+01-3.66827E-01 1.41996E+01-3.59944E+00 1.48792E+01
 -1      2555-3.23345E+01-2.31064E+01 3.02024E+00-6.87847E+00 8.34611E+00 1.15356E+01
 -1      2556 3.25552E-01-1.38616E+01 4.25980E+00 1.22157E+01-8.19508E-01 1.33794E+01
 -1      2557-8.00452E+01-4.34999E+01 1.15687E+01-2.77496E+01 5.50486E+00 3.90420E+00
 -1      2558-1.13270E+02-1.81075E+02 6.23483E+01-7.31820E+01 2.40117E+01-4.36776E+00
 -1      2559 7.33405E+01-3.05749E+01 1.02794E+01 4.56337E+01 2.44812E+01 2.85418E+01
 -1      2560 1.71958E+01-2.50820E+01 5.36004E+01 3.07060E+01 2.48026E+01 4.13542E+01
 -1      2561-2.73222E+01-4.51347E+01-9.01242E+00 2.55342E+01 1.13506E+01-1.30496E+00
 -1      2562-2.22665E+02-1.54144E+02-8.57477E-01-5.58156E+01-3.22421E+01-1.32334E+01
 -1      2563 8.35243E+01-2.64648E+01 2.51765E+01 1.36546E+01 5.82922E+00 6.22487E+00
 -1      2564 9.18877E+01-4.84912E+01 1.54795E+01 3.74861E+01 3.11102E+01 9.83599E+00
 -1      2565-7.00018E+01-1.17248E+02-1.18764E+01-6.21491E+01-4.66641E+01 2.80945E+01
 -1      2566-8.48065E+01-1.36007E+02-4.11833E+01 1.38389E+00-3.19425E+01-4.12810E+01
 -1      2567-1.75011E+02-1.45882E+02 8.89305E+01-5.18605E+01 3.50209E+01 6.12673E+01
 -1      2568-3.43692E+01-5.87905E+01 1.28125E+01 7.95942E+00 2.05410E+01 1.61105E+01
 -1      2569-2.33094E+02-1.80029E+02-9.05000E+00-6.81111E+01 8.83836E+01 5.63378E+01
 -1      2570-2.21358E+02-1.38834E+02 2.39831E+01-7.05532E+01 3.84022E+01 7.12042E+01
 -1      2571-9.12349E+01-5.94779E+01-4.28907E+01 5.30997E+00 1.03388E+02 7.16016E+01
 -1      2572-6.18251E+01-2.91576E+02 5.32148E+01-1.60174E+02-1.94389E+01-1.11228E+02
 -1      2573 1.12035E+01-2.79028E+01-4.60248E+01 8.90129E+00-2.57779E+01-1.09188E+01
 -1      2574-5.16663E+00-4.02183E+01-1.51727E+01 2.70472E+01 2.22049E+01 2.98020E+01
 -1      2575-1.16342E+01-3.52350E+01 4.10562E-01 1.98511E+01-3.47802E+01-2.30276E+01
 -1      2576-6.72629E+01-8.90688E+01-2.07931E+01-3.12742E+01 8.72796E+00 1.57293E+00
 -1      2577-1.37933E+02-1.47031E+01 5.08900E+01 2.44286E+01-5.42949E+01-3.85972E+01
 -1      2578-7.96367E+00-1.62668E+01 1.45541E+00 1.20926E+01-8.04819E+00-1.50127E+01
 -1      2579-2.10326E+02-8.61432E+01-5.02001E+00-4.61852E+01-1.18692E+01-3.71322E+01
 -1      2580-3.80518E+01-4.44244E+01 1.02734E+01 2.31695E+01 7.30915E+00 4.28284E+00
 -1      2581-2.19662E+02-1.52138E+02 1.74941E+01-2.30427E+01 2.79604E+01 3.96550E+01
 -1      2582-2.04285E+02-1.48962E+02 1.38039E+01-5.13620E+01 1.47048E+01 3.42869E+01
 -1      2583 1.68603E+01-1.96923E+01 1.79933E+01 1.87395E+01 3.74827E+00 5.15546E+00
 -1      2584-5.56291E+01-9.92673E+01 1.06976E+01 1.15504E+01 2.12690E+01 1.63710E+01
 -1      2585 6.67931E+00-2.47960E+01 5.11160E+01 2.42839E+01 3.31417E+01 7.93114E+01
 -1      2586-2.25066E+01-7.38786E+01 2.19485E+01-9.53092E+00 1.38862E+01-5.33368E-01
 -1      2587-1.65990E+02-1.08118E+02 3.11094E+00-2.10257E+01 9.98918E+00 5.78003E+00
 -1      2588-1.46566E+02-1.58966E+02-1.16920E+00 1.70894E+01 3.20059E+01 4.87870E+01
 -1      2589-1.36414E+02-9.31473E+01 4.01599E+01-4.73926E+00 7.80229E+01 1.45842E+02
 -1      2590-1.12618E+02-1.54515E+02 2.45991E+01-3.29962E+01 2.88496E+01-8.35094E+00
 -1      2591-6.49242E+01-7.25569E+01 2.62373E+01 2.02668E+01 1.15349E+01 1.60921E+01
 -1      2592-2.28336E+01-5.47463E+01-7.41588E+00-6.38455E-01 7.30936E+00 5.12257E+01
 -1      2593-9.77503E+01-1.09103E+02-1.84371E+01 1.56750E+01 1.12273E+01 5.65254E+01
 -1      2594-1.85815E+02-1.03346E+02-6.39413E+01-3.73497E+01 1.25949E+01 6.72769E+01
 -1      2595-1.78873E+02-1.78943E+02-4.75050E+00-3.29798E+01 2.36324E+01 1.64296E+01
 -1      2596-1.08723E+00-2.65931E+01 8.44216E+00 3.11182E+01 7.91624E-01 2.97379E+01
 -1      2597-5.03111E+01-4.85355E+01-2.05576E+01 3.60889E+01 3.50432E+00-2.37376E+01
 -1      2598 4.57757E+01-1.95629E+01-1.56915E+01-7.60948E+00-2.06220E+00 7.04425E+00
 -1      2599-1.89190E+01-2.51652E+01-8.14471E+00 3.00437E+00-1.48617E+00-2.44082E+00
 -1      2600-8.01501E+01-2.09696E+01 4.39202E+00 3.70055E+00-2.91966E+00 1.82358E+00
 -1      2601 3.86906E+01 9.00798E+00-3.45321E+01-2.81617E+01 5.76055E+00-1.49862E+01
 -1      2602 2.04249E+00 3.58078E-01 2.33007E+00-1.52219E+00-2.96155E+00-2.20492E+00
 -1      2603-5.78082E+00-1.70350E+01-5.49416E-01-1.23540E+01 5.09886E+00-5.18495E+00
 -1      2604-7.24919E+00-1.39394E+01-6.58522E-01-4.07784E+00 2.57660E+00-4.17935E+00
 -1      2605-9.06606E+01-1.50789E+02-1.17023E+01 6.22218E+01-1.85874E+01-6.94824E+00
 -1      2606 6.52697E+00 1.77478E+00-9.09635E+00-2.99611E+01 2.28161E+00 1.39344E+01
 -1      2607-7.72467E+01-1.24758E+02 1.41958E+00-3.27760E+01-6.92312E+00-2.08955E+01
 -1      2608-2.10102E+01-2.60104E+01 4.02541E+00 6.92535E+00 5.13359E+00 2.88969E+00
 -1      2609-1.15264E+02-1.80948E+01-6.78593E+00 1.73957E+00 3.57990E+00 4.69877E+00
 -1      2610-3.31373E-01-3.00405E+00-2.99545E+00 1.25989E+01-1.81798E+00 5.48456E+00
 -1      2611-6.83096E+01-7.31431E+01-1.09337E+01-2.85059E+01 6.05383E+00-2.40517E+00
 -1      2612-5.72554E-01-4.63857E+01-5.45777E+00-5.54905E+00-1.03792E+01 3.08856E+00
 -1      2613-6.30274E-02-3.05342E+01 2.52500E+00-7.94640E+00 8.41850E+00-1.15701E+01
 -1      2614-3.41175E+01-5.48516E+01 1.16333E+01-7.20423E+00 1.22136E+01-4.65245E+00
 -1      2615 1.82983E+01 1.73448E+01 6.54571E+00-4.37881E+00-3.12544E+00-9.82523E-01
 -1      2616 2.50363E+01 2.95432E+01-1.84154E-01-1.33514E+00 4.83793E+00-1.39696E+00
 -1      2617-2.81647E+01-2.72327E+01-5.88898E+00-2.10920E+00-2.27729E-01 1.99951E+01
 -1      2618-8.71881E+00-1.53299E+01-4.75332E+00 6.09725E+00 2.06451E+00 1.26436E+01
 -1      2619 2.07602E+01 1.52420E+01 3.54831E+00 1.15913E+00-2.70962E+00-3.54842E+00
 -1      2620-3.13249E+01-1.24525E+01 2.45507E+01 2.15040E+01 1.26371E+01-7.63317E+00
 -1      2621-2.36580E+02-1.99756E+02 1.05339E+02-6.77145E+01-4.34181E+01-7.27493E+01
 -1      2622-7.81695E+01-2.03297E+02-8.03753E+01-6.94768E+01 1.52236E+01 1.39818E+01
 -1      2623 1.17192E+02 1.27902E+01-5.77780E+01 5.46520E+01 2.74847E+01 2.98230E+01
 -1      2624 1.71434E-01 6.19419E+00 2.18614E+00-1.99421E+00 1.20875E+00 4.47233E+00
 -1      2625-9.35730E+01-3.26569E+01 1.88287E+00 2.31192E+00-8.78555E+00 9.20125E+00
 -1      2626 3.93920E+01-1.21344E+01-2.06883E+01-1.53971E+01 1.04612E+01 5.92036E+00
 -1      2627-1.17559E+02-1.59578E+02 8.16004E+00 2.39183E+01-3.75391E+01 3.15908E+01
 -1      2628-3.98872E+01-4.54259E+01 8.11019E-01-1.11357E+01-1.66481E+01 2.12414E+01
 -1      2629-1.07684E+02-2.60253E+02 3.75461E+01 6.77002E+01-6.90686E+01 5.28114E+01
 -1      2630-2.24456E+01-2.77589E+01 2.28051E+01-2.35475E+01-4.79521E+01 1.52510E+01
 -1      2631-6.84164E+01-1.82958E+02 6.51925E+01-9.16263E+00-4.90196E+01-9.36657E+00
 -1      2632-4.86895E+01-3.66572E+01 1.18097E+01-2.41300E+01-2.67672E+01-1.51951E+01
 -1      2633-8.78805E+01-6.76865E+01 4.62808E+00-1.06998E+01-4.20575E+00 5.79235E+00
 -1      2634-2.87793E+02-1.22450E+02 3.04615E+01-5.38305E+01-1.06783E+01 2.68021E+01
 -1      2635-1.52580E+02-1.98734E+02-1.50372E+01 4.86302E+01-3.65924E+01-9.26755E+00
 -1      2636-6.53550E+01-7.16144E+01-1.42377E+01 1.29194E+01-1.65624E+01-1.68409E+00
 -1      2637-2.20015E+02-2.23825E+02-1.89298E+01-7.95606E+01-6.97233E+01-2.67106E+01
 -1      2638-1.18539E+02-1.29258E+02-9.59745E+00 2.25309E+01-6.76461E+01-1.61446E+00
 -1      2639-2.93931E+01-4.65992E-01-2.64977E+01-1.54195E+01 8.96930E+00-6.11314E+00
 -1      2640-2.61841E+01-1.71959E+01 1.85404E+01-2.10694E+01 3.39283E+00-1.53278E-01
 -1      2641-1.79661E+02-5.06010E+01-4.33058E+00-2.73383E+01-3.48091E+00 4.83274E+01
 -1      2642-1.03243E+02-1.41121E+02-3.44385E+01 2.34950E+01-2.14972E+01 5.86031E+00
 -1      2643-1.60914E+02-1.01914E+02 7.09593E+00-6.76162E+01-8.45450E+00-1.72133E+01
 -1      2644-7.42034E+01-2.30438E+02 1.79778E+01 8.46106E+00 1.17629E+01 8.87852E+00
 -1      2645-2.69252E+01 6.24301E+01 3.87160E-02-1.99016E+01-4.40338E+01-2.04757E+01
 -1      2646-1.08474E+00 8.87441E+00 7.66014E+00-2.82070E+01-1.95622E+01 3.14728E+01
 -1      2647-5.83282E+01-3.78031E+01 3.54670E+01-1.57053E+01-9.23560E+01-2.21905E+01
 -1      2648-7.70009E+01-1.93221E+02-5.37525E+00 3.12526E+01 1.81908E+01 3.96965E+01
 -1      2649-1.08320E+01 2.56584E+00 2.76082E-01-2.31693E+01-2.21592E+01-1.90698E+01
 -1      2650-3.89034E+01-3.92572E+01 3.08908E+00-9.81146E+00 1.49176E+00 2.25877E+01
 -1      2651-1.36476E+02-3.23531E+01 3.13502E+01 2.22834E+01 3.30943E+01-2.33686E+01
 -1      2652-7.16886E+01-1.49165E+02 2.26375E+00 2.32080E+01-9.86992E+00 1.74223E+01
 -1      2653-4.07662E+01-3.12902E+01 2.73080E+01 4.42293E+00 1.28028E+01-1.68371E+01
 -1      2654-3.07532E+01 6.66394E+01 1.67168E+01-2.59642E+01 9.59906E+00 2.55070E-01
 -1      2655-7.57308E+01-1.72904E+02 2.85083E+01 8.96149E+00-3.66885E+01 3.70277E+01
 -1      2656-2.51419E+01-2.26774E+01 2.17573E+01-1.34146E+01-2.67480E+01 3.19112E+01
 -1      2657-1.19185E+02-1.29549E+02 1.70651E+01 5.34883E+01 1.67935E+01 3.10118E+01
 -1      2658-3.19871E+01-3.49893E+01 2.59830E+00-1.92421E+01-2.18222E+01 1.86955E+01
 -1      2659-5.62269E+01 4.49687E+01 2.06154E+00 2.64305E+00-1.93781E+01 5.24534E-02
 -1      2660-7.77514E+01-7.11790E+00 2.79072E+01-2.74893E+01-3.86614E+01-9.74354E+00
 -1      2661-6.74514E+01-1.23855E+02 4.57378E+01 2.42985E+00 3.50087E+01-1.25844E+01
 -1      2662-3.14379E+01-5.62343E+01 7.95926E+00-1.72298E+01-1.20708E+01 2.56800E+01
 -1      2663-2.75298E+01 3.48009E+01 1.30717E+01-4.70192E+01-8.73699E+00-1.90299E+01
 -1      2664-8.67578E+01-1.17324E+02 1.92613E+01 4.31701E+01 2.69400E+01-1.04829E+01
 -1      2665-7.05242E+01-1.14238E+02 1.53748E+01 1.76048E+01-1.22260E+01 2.40692E+01
 -1      2666-6.55678E+00 4.95512E+01-1.55967E+01-2.14398E+01 1.42495E+01-1.25390E+01
 -1      2667-3.90521E+00 2.81707E+00-2.56933E+00-1.54336E+01-1.73497E+01-3.90731E+00
 -1      2668-1.64498E+01 2.45132E+01 6.87011E+00-3.61787E+01 7.20599E+00 4.08895E+01
 -1      2669-1.04636E+02-1.28175E+02-8.94599E+00 4.55750E+01 6.31552E+01-4.67711E+01
 -1      2670-1.19498E+02-5.82217E+01-2.63949E+01 4.78427E+01-1.19884E-03-2.93412E+01
 -1      2671-1.93537E+01 1.62750E+01 2.78955E+01-1.89025E+00 2.01775E+01-2.08439E+01
 -1      2672-1.18166E+02-1.49231E+02-3.55928E+00 1.96056E+01 4.57940E+01 1.54082E+01
 -1      2673-1.17328E+02-1.44523E+02 2.80769E+01-9.13029E+00-8.04281E+00 6.67461E+01
 -1      2674-8.52150E+01-1.94275E+01-1.71166E+00-1.55965E+00 1.10077E+00 2.61693E+01
 -1      2675-2.83149E+01 5.35858E+01 1.52894E+01-1.07439E+01 1.16265E+01-2.97405E+01
 -1      2676-1.52808E+02-1.21477E+02-3.28089E+00 2.40703E+01-1.86021E+01-2.12201E+01
 -1      2677-4.08517E+01-5.90676E+01-7.00760E+00-1.87550E+01-3.87589E+00 1.74388E+01
 -1      2678-9.99139E+01-3.90677E+01-1.19602E+01 8.82531E+00-3.63972E+00-1.18806E+00
 -1      2679-2.00017E+02-9.53329E+01-2.25255E+00 4.47746E+01 5.83687E+01-8.53954E+00
 -1      2680-8.23577E+01 2.41368E+01-1.92015E+01-2.61826E+01 3.66394E+01 1.39235E+01
 -1      2681-1.07004E+02-2.39359E+02-3.15783E+01 1.07173E+01 1.87839E+01 1.89770E+01
 -1      2682-7.27800E+01-6.59730E+01 8.92498E-01-1.67529E+01 5.95019E+01-1.51707E+01
 -1      2683-1.80685E+01 1.10504E+01-5.26798E+00-2.49852E+01 1.40624E+01-1.16697E+01
 -1      2684 2.13569E+01 3.78091E+01-8.64384E+00-7.07203E+01-9.56256E+00 8.94152E+00
 -1      2685-1.18955E+02-5.61627E+01 1.39578E+00-9.82783E+00 2.03468E+01-3.07628E+01
 -1      2686-7.68606E+01-9.62749E+01-2.11577E+01 3.69201E+01-1.19936E+01-1.06124E+01
 -1      2687-9.12138E+00-2.43264E+01-8.13236E+00-1.62335E+00-2.06036E+01 1.33774E+01
 -1      2688-1.94388E+02-6.94996E+01-2.34953E+01-4.85438E+01-6.03439E+01-5.09873E+00
 -1      2689 2.43094E+01 9.43453E+01-4.98562E+01 9.44785E+01-5.68100E+00-1.51936E+01
 -1      2690-4.29667E+00-4.80351E+00-2.34481E+00-2.02549E-01 1.80661E+00 2.75363E+00
 -1      2691-4.09846E+01-1.27067E+02-2.98329E+01-6.40787E+00-1.20440E+01 3.73524E+00
 -1      2692-3.35451E+01-1.14309E+00-6.70438E+00-6.79211E+00-1.47588E+00 1.08766E+01
 -1      2693-8.10916E+01-9.47608E+01 1.52217E+01-3.30751E+01 3.50403E+01 2.57994E+01
 -1      2694-3.76308E+01 3.85649E+00-1.03042E+01 8.42985E+00-3.35969E+01-1.07581E+01
 -1      2695-3.81446E+01-6.42139E+01 2.35801E+00-6.25377E+00-1.15288E+01-8.18371E+00
 -1      2696-6.06348E+01-1.73416E+02 2.91341E+01-3.64584E+01 2.70602E+01 2.49048E+01
 -1      2697-6.97446E+01-7.17840E+01-2.34651E+01-1.25802E+01 2.43396E+01 1.87792E+01
 -1      2698-1.37452E+01-2.04854E+01-2.99872E-02-6.25552E+00 8.79092E+00-1.06372E+01
 -1      2699-4.92939E+01-2.24452E+01-4.45814E+00-2.40943E+01 1.58622E+01 9.77634E+00
 -1      2700-2.67343E+01 4.49865E+00 1.58531E-01-1.07763E+01 5.91901E+00 4.59618E+00
 -1      2701-3.95635E+01 1.73928E+01 2.24869E+01 1.16763E+01-5.17213E+01-1.66397E+00
 -1      2702-7.65842E+01-2.05735E+02 3.04085E+01-8.84237E+00 2.79100E+01 2.73872E+01
 -1      2703-9.76896E+01-8.70785E+01-6.99881E+00 2.57097E+01 1.68791E+01-8.20907E+00
 -1      2704-1.65385E+01 2.79750E+00 5.12032E+00-1.78880E+01-9.36811E-01-6.83938E+00
 -1      2705-1.86763E+02-1.16138E+02 2.83247E+01-3.46928E+01-4.95568E+00 1.62886E+01
 -1      2706-4.16581E+01-7.65960E+01 9.37289E+00-3.45976E+01-1.20622E+01-1.75173E+01
 -1      2707-9.78989E+01-5.93309E+01-2.66280E+01 6.42086E+00 7.19919E+00 4.75284E+00
 -1      2708 3.75131E+01 1.24292E+01-8.44320E+00-9.81143E+00 4.90652E+00 1.02670E+01
 -1      2709 3.10558E+00 4.13390E+00 2.46555E+00 9.37391E-01-2.02593E+00-4.28662E+00
 -1      2710-6.07700E+01-1.14507E+02-9.14487E+00-7.23508E+00 1.57429E+01-4.77506E+00
 -1      2711-2.12118E+01 1.22166E-01 1.85843E+00-8.60732E-01 1.65554E+01 3.57763E+00
 -1      2712-9.21033E+01-7.16542E+01-1.19339E+00-3.97238E+01 3.45969E+00-5.45615E+00
 -1      2713-7.17028E+01-3.02466E+01-9.22835E+00-1.10925E+01-5.32021E+00 1.33744E+01
 -1      2714 2.08260E+01 1.37117E+01 4.89156E+00 5.67992E+00 2.12432E+00 4.65886E-01
 -1      2715-4.35624E+01-5.86925E+01-1.06326E+01 2.46003E+01-4.01937E+01 1.13113E+01
 -1      2716-2.79661E+01-4.24458E+00-1.74151E+00 2.91358E+00-2.00052E+01 9.60428E-01
 -1      2717 9.95480E-01 6.56125E+00 1.44606E-01-1.91194E+00 8.45918E-01 2.45377E+00
 -1      2718-2.70047E+01-2.02878E+01-1.61423E+00-6.36198E-01 1.36588E+01 2.86696E+00
 -1      2719-2.16634E+01 2.65391E+00-2.04526E+00 1.04090E+00 7.90766E+00-2.26267E+00
 -1      2720-2.99453E+01-1.48073E+01-4.26499E+00 1.36865E+01 4.80724E+00-1.98262E+00
 -1      2721-6.85470E+01-1.15522E+01 4.23766E+00 4.63961E+01-1.30536E-01-4.90158E-01
 -1      2722-5.96181E+01-4.56028E+01-4.60375E-01 1.56583E+01 3.00188E+00 1.28988E+01
 -1      2723-4.39544E+01-1.85143E+01-2.35027E+00-1.57539E+01 1.69339E+01 4.73746E+00
 -1      2724-3.82401E+01-2.65053E+01-1.26154E+00 1.31393E+01 2.58655E+00 1.30940E+01
 -1      2725-2.08540E+01-2.28940E+01-2.76410E+00 3.73497E+00 8.20242E+00 6.58036E+00
 -1      2726-2.91305E+01-4.26762E+01-3.36414E+00-2.46946E+00 2.72221E+01 1.97140E+01
 -1      2727-1.87174E+01-3.75758E+00 5.80899E+00-8.89245E+00 1.09196E+01 1.11907E+00
 -1      2728-4.53203E+01 6.05501E+00-4.94546E-01 3.59421E+01 3.89076E+00-6.13137E+00
 -1      2729-2.11949E+01-2.16805E+00-2.86836E+00-9.38685E+00 9.77343E+00 3.23760E+00
 -1      2730-7.92803E+00 2.02868E+01-2.20374E+00 9.73272E+00 9.30985E+00-4.10149E+00
 -1      2731-3.28945E+01-1.05215E+01-1.09392E+00-1.60967E+01 2.82877E+01 1.02023E+01
 -1      2732-7.24271E+00 1.22183E+01-2.48541E+00 2.71442E+00 6.51521E+00 1.19284E+00
 -1      2733-6.20499E+00 1.74078E+01-1.18819E-01 6.86420E+00 6.30651E+00-4.69509E+00
 -1      2734-2.86922E+01-2.11640E+00-5.77445E+00-1.76973E+01 9.24669E+00 9.46163E+00
 -1      2735-2.32518E+01 5.89251E+00-6.64993E+00-8.78089E+00 7.15888E+00 4.62580E+00
 -1      2736-4.25111E+01-1.94703E+01-5.72046E+00-1.71789E+01 9.74008E+00 5.26485E+00
 -1      2737-2.21174E+01 4.47182E-01-2.82482E+00 3.53245E+00 5.12928E+00 4.88502E+00
 -1      2738-7.19714E+01-6.51162E+01 1.90140E+01-4.00784E+01 5.68677E+00 1.70466E+00
 -1      2739-3.35308E+01 1.38290E+01 1.51996E+01-5.16148E+00 1.11451E+01 4.91707E+00
 -1      2740-2.25695E+01-1.45585E+01 1.94589E+01-6.53032E+00 1.47215E+01 5.50211E+00
 -1      2741-3.75535E+01-4.75134E+01-4.45227E+00-1.19448E+01 2.41194E+01 6.41779E+00
 -1      2742-7.26155E+01-2.82427E+01 9.91833E+00-3.13432E+01 2.10245E+01 1.24665E+01
 -1      2743-7.47191E+01-8.45010E+01 3.80430E+01-4.77066E+01-8.00056E+00-1.31826E+01
 -1      2744-2.56599E+01 1.97435E+01 1.27107E+01-4.54314E+00 2.75147E+01 5.04867E+00
 -1      2745-2.13498E+01 3.83641E+01 1.14284E+00-7.32418E+00 2.08551E+01 7.78837E+00
 -1      2746-5.15865E+01 1.92106E+01 3.38130E-01-2.63098E+01 3.87794E+01 1.90536E+01
 -1      2747-2.24570E+01-4.49714E+01-3.75387E+00 1.00333E+01 1.28518E+00-2.26883E+01
 -1      2748 1.21413E+01-2.02709E+01 3.56535E+00-5.37577E+00 6.29154E+00-1.71354E+01
 -1      2749-3.01460E+01-2.42589E+00 5.88589E+00-4.45642E+00-8.58618E+00 1.84145E+01
 -1      2750-1.42721E+02-3.46438E+01 2.97726E-01 6.73741E+00-1.67375E+00 4.45320E+01
 -1      2751-2.12239E+01-2.96080E+01 1.68800E+00-1.00623E+01 5.75718E+00-3.02852E+00
 -1      2752-1.81277E+02-1.04631E+02-5.43069E+00 3.24556E+01-1.43135E+01-1.35915E+01
 -1      2753-8.78535E+00-8.13223E+00-3.10343E+00-1.03001E+00 2.51260E+00-1.05506E+00
 -1      2754-6.96802E+01-4.08766E+01 2.77320E+00 7.04114E+00-6.68656E-01 4.33674E+01
 -1      2755-1.70428E+01-1.69482E+01 1.31825E+00 7.24497E+00-6.53780E+00 1.33478E+01
 -1      2756-2.49826E+01-3.43529E+01 2.23652E+00-2.35364E+01 1.39089E+01-9.12873E+00
 -1      2757-1.72477E+01 1.87310E+00 3.20864E+00-2.25784E+01 4.28405E+00-5.09607E+00
 -1      2758-2.47978E+00-1.50865E+01 5.20737E-01-1.79454E+01 3.51462E+00-2.73581E+00
 -1      2759-4.18898E+00-4.06561E+01 4.26201E+00-2.78729E+01 1.15804E+01-1.87441E+00
 -1      2760-5.34167E+01 4.14652E+00-2.41386E+00-3.89724E+00 1.36916E+01-1.38769E+01
 -1      2761-2.02558E+01-4.09591E+01 7.06820E+00-2.04868E+01-3.85276E-01-5.00791E+00
 -1      2762-2.92359E+01-4.69835E+01-3.40710E+00-9.04268E+00 5.66344E+00-1.30083E+01
 -1      2763-4.98510E+01-8.27776E+01 1.13750E+01-2.03947E+01 1.56019E+00-1.24134E+01
 -1      2764-1.53365E+01 2.43569E+01 2.43617E-01-9.65780E+00 9.69734E+00-1.18594E+01
 -1      2765-5.59334E+00-1.14368E+01-1.05671E+00-1.76813E+01 4.24178E+00-1.35676E+01
 -1      2766-3.95739E+01-5.27483E+01-2.98713E+00-3.11983E+00 3.03052E-02-1.00508E+01
 -1      2767 6.69933E+00-1.11237E+01 2.69353E+00-2.21248E+01 1.25065E+01-4.61905E+00
 -1      2768-1.58395E+01-2.78628E+01 5.52100E+00-3.01604E+01 8.19473E+00-2.70372E+00
 -1      2769-5.65759E+01-2.50751E+01 2.41248E+00-2.44331E+01 8.05533E+00-5.31858E-01
 -1      2770-1.57231E+01 1.12674E+01-8.23155E-01-2.67783E+01 7.54068E+00-6.23757E+00
 -1      2771-3.89982E+01-4.25213E+00-1.22963E+01-1.80489E-01 3.00535E+01-2.42917E+01
 -1      2772-1.02274E+02-7.91276E+01-1.93292E+01-3.37640E+01 3.63470E+01 4.19867E+01
 -1      2773 1.47054E+01 2.56709E+01-1.27490E+01 3.92299E+01 2.84823E+01 4.53745E+00
 -1      2774-6.30425E+00-1.13055E+01-4.86766E+00-3.33199E+00-4.21196E+00-4.29922E+00
 -1      2775-3.17658E+01-7.96850E+01-7.68422E+00 2.13752E+00 2.28020E+01-9.47785E+00
 -1      2776-1.75447E+01-8.08280E+00-5.17287E+00 3.62227E+00 1.95263E+01 7.03802E+00
 -1      2777 1.64377E+00-2.26241E+01 8.50449E+00-1.62529E+01-6.70070E+00 1.50440E+01
 -1      2778-3.01728E+02-9.11364E+01 3.81250E+01 8.09323E+01-6.64278E+00-5.07345E+01
 -1      2779-5.09316E+00-3.97981E+01 2.22241E+01 7.04054E-01-9.66904E+00-6.84240E+00
 -1      2780-3.66438E+02-9.98100E+01 4.08061E+01-7.44295E+00 3.59478E+01 4.70823E+01
 -1      2781-1.60701E+02-1.80560E+02-2.55007E+01-7.51086E+01 1.95125E+01 4.46318E+01
 -1      2782 8.41744E+01-2.14800E+01 9.05693E+00 2.74905E+01-1.62657E+01-2.24217E+01
 -1      2783 1.25549E+01 1.72250E+01 8.35242E+00 1.97270E-01-1.25703E+00 4.55664E+00
 -1      2784-7.01508E+01-9.49026E+01 1.61294E+01-3.18995E+01-1.06922E+01-1.88894E+01
 -1      2785-1.05441E+02-1.45137E+02 1.56795E+01-3.52007E+01-4.06492E+00-5.18039E+01
 -1      2786-2.03366E+02-8.88054E+01 6.41992E+00 3.28566E+01-3.38360E+01 1.40089E+01
 -1      2787-9.81057E+01-5.97829E+01-7.44634E+00-3.68334E+01 2.69525E+00 3.91558E+00
 -1      2788-1.19790E+02-6.09405E+01 6.34916E+00 1.11154E+00-4.78440E+00-3.06445E+00
 -1      2789-2.57870E+02-7.54881E+01-1.29834E+01-3.70494E+01-1.23712E+01 8.44154E+01
 -1      2790-1.92420E+02-1.54325E+02 5.52158E+01-1.09097E+01 1.26144E+01 2.98503E+01
 -1      2791-2.58714E+02-1.08255E+02 4.24256E-01 3.07162E+01-3.13416E+01 1.19544E+01
 -1      2792-1.62049E+02-5.83571E+01-1.59176E+01 2.76398E+01-9.25576E+00 4.29388E-01
 -1      2793-1.22638E+02-7.60991E+01-3.93052E+00-1.74011E+01-2.53484E+01-7.24474E+00
 -1      2794-7.18017E+01-1.49299E+01-2.36687E+00-3.45677E+01-2.13920E+00 4.15496E+01
 -1      2795-1.30818E+02-7.61140E+01 1.25072E+01-9.10580E+00-3.69631E+01 1.30500E+01
 -1      2796-3.01104E+02-1.14104E+02 2.78053E+01 5.42238E+01-4.61909E+01 5.26099E+01
 -1      2797-8.46774E+01-7.05172E+01 1.27420E+01-1.97543E+01 2.18209E+01-2.81993E+01
 -1      2798-1.59453E+01-1.95392E+01 7.79114E+00-5.99975E+01-1.81058E+01 3.92400E+01
 -1      2799-6.64236E+01-4.94184E+01 1.95240E+01-9.90817E+00-1.14130E+01 2.24703E+01
 -1      2800-1.23731E+02-8.66337E+01 6.06877E+00 1.98662E+01-2.64011E+01-2.51762E+01
 -1      2801-1.73405E+01-2.71758E+01 2.22707E+01-6.43237E+01-1.97633E+01 1.69575E+01
 -1      2802 1.71387E+01 1.67256E+01 1.40784E+00-1.00470E+00 2.87411E+00-6.24354E+00
 -1      2803-5.98961E-01-7.78559E+00-3.15353E+00-1.37193E+00-6.51739E+00-1.71909E+00
 -1      2804-5.85297E+01-5.99631E+01 1.56849E+01-3.94236E+01-1.93426E+01 7.73711E+00
 -1      2805-2.72541E+02-8.53714E+01 3.20381E+01-2.29593E+01 2.35136E+00-1.56734E+01
 -1      2806-1.05738E+01-1.19375E+01-1.84631E+00-4.27133E+00 3.13957E+00-1.25561E+01
 -1      2807-9.02260E-01-1.54408E+01-4.31166E-01-1.15260E+01 2.01295E+00-1.56758E+01
 -1      2808-6.56344E+01-3.71625E+01-3.86527E+00-1.00644E+01 1.00636E+01-1.97687E+01
 -1      2809-3.80858E+01-1.71395E+01-3.42763E+00-9.47198E+00 6.21317E+00-1.12997E+01
 -1      2810 2.93262E+01-1.68856E+01-3.47763E+00 2.30376E+00-3.92601E+00-1.12045E+01
 -1      2811-5.72593E-01 4.43564E+00-4.97916E-01-5.04904E-01 3.91947E-01-2.34659E+00
 -1      2812-3.96362E+01-3.39801E+01-3.76957E+00-2.89157E+00 9.16885E+00-1.96749E+01
 -1      2813 1.17750E+01-1.10778E+01-1.31385E+00-2.77088E+00-1.79434E+00-7.85790E+00
 -1      2814-2.76346E+01-1.10400E+01-1.55536E+00-5.76170E-01 4.58851E+00-8.38008E+00
 -1      2815 3.84941E+01-2.21403E+01-1.23660E-01-5.62404E+00-7.79915E+00-2.58728E+01
 -1      2816-3.31927E+01-1.99373E+01-6.06206E+00-6.38680E+00 1.36482E+01-5.10317E+00
 -1      2817 4.67786E+01-2.41658E+01 1.57990E+00-7.63186E+00-3.89857E+00-1.36999E+01
 -1      2818-2.05307E+01-2.28546E+01-6.60807E+00-4.88665E+00 9.85429E+00-2.44386E+00
 -1      2819 4.12716E+01-2.11461E+01 3.02330E-01 1.49209E+00-4.21399E+00-1.24026E+01
 -1      2820-1.46818E+01-6.66442E+01-3.34538E+00-2.03244E+01 1.49885E+01 7.48118E+00
 -1      2821 4.57469E+01-3.13539E+01-5.47076E+00-7.13615E+00-2.59767E+00-5.76142E+00
 -1      2822 2.73599E+01-2.53703E+01-7.80571E-01-1.76961E+01-9.16148E+00-1.58780E+00
 -1      2823-4.64400E+00-5.95443E+01 3.74811E+00-1.48815E+01-1.06483E+00 4.83711E+00
 -1      2824 1.49355E+01-6.40430E+01 1.96129E+00-2.47996E+01-1.99046E+01 3.53564E+00
 -1      2825-2.79898E+01-5.87147E+00 1.58156E+00-3.20898E+00 2.68618E-01-1.05492E+01
 -1      2826-3.54314E+01-3.05554E+01-1.37725E+01-2.29179E+01-1.49184E+01-2.25484E+01
 -1      2827 4.68816E+00 3.06172E+00 3.33213E+00-3.23357E-01-1.87264E-01-5.09724E+00
 -1      2828-2.99584E+01-4.81629E+01 6.18886E+00 2.44341E+00-1.35209E+01-5.55051E+00
 -1      2829-2.97459E+01-1.65932E+02 2.00692E+00-2.72905E+01 4.95701E+00-1.48394E+01
 -1      2830-4.28212E+01-5.23921E+00-8.95610E+00 2.25569E+00 2.12896E+01 6.81731E+00
 -1      2831-2.22479E+01-8.39710E+00 5.29059E+00 9.71066E+00 8.27416E+00-2.46856E+00
 -1      2832-2.78081E+01 1.39353E+01-1.12313E+00 1.15389E+01 4.50589E+00-2.76038E+00
 -1      2833-5.51166E+01 1.76786E+01-1.20999E+01-2.50488E+01 1.48615E+01 1.44853E+01
 -1      2834-5.72604E+01-6.76081E+00-3.63816E+00 6.87923E+00-7.66154E+00-8.61515E+00
 -1      2835-3.67804E+01-6.26732E+01 1.09517E+00-1.35051E+01 1.97083E+01 4.46693E+00
 -1      2836-2.46613E+01-2.77066E+00 5.04701E+00 2.32121E+01-1.94213E+00-9.68457E+00
 -1      2837-2.01692E+01-2.29674E+01 1.17349E+00 1.52149E+01 5.47065E+00-5.00220E-01
 -1      2838-3.11638E+01 9.04334E+00-5.45030E+00-8.76109E+00 1.85897E+01 8.97870E+00
 -1      2839-3.16378E+01-5.44954E+01 1.48897E+01-6.16622E+00 2.18220E+00-1.87822E+01
 -1      2840-1.18542E+01-7.48093E+00 9.31079E+00 3.10151E+00 3.31236E+01 6.64208E+00
 -1      2841-4.36906E+01-7.21725E+00-5.73713E+00 1.79657E+01-7.96430E+00-5.55221E+00
 -1      2842-1.19410E+01 6.11062E+00-3.87990E+00 1.85889E+01 2.89917E+00-4.93854E+00
 -1      2843-4.54282E+01-7.04382E+01 1.52326E+01-1.90317E+01 6.31652E+01 1.18192E+01
 -1      2844-4.84639E+00 2.33092E+00-1.08499E+01 1.93350E+01-3.58020E-01-1.55003E+00
 -1      2845 3.97984E+00 1.28091E+00 9.30931E+00 1.71866E+01 3.57063E+00-3.86276E+00
 -1      2846-7.38541E+01-2.22786E+02 1.35732E+01 8.45605E+00-4.36038E+01 1.45654E+01
 -1      2847-3.95795E+01-5.74073E+01 4.36128E+00 7.17090E-01-6.99166E+00 6.09998E+00
 -1      2848-9.28462E+01-1.12718E+02 8.52446E+00 7.58270E+00-1.72525E+01-3.01443E+00
 -1      2849-6.64018E+01-1.51299E+02 5.04480E+00 8.23984E-01-3.16208E+01-8.72013E-01
 -1      2850-4.50759E+01-1.85339E+01 1.41420E+00 7.76512E+00-1.61525E+01-4.54199E+00
 -1      2851-6.23015E+01-1.60044E+02 2.02091E+01 1.20069E+01-4.10030E+01 3.26640E+01
 -1      2852-1.63415E+02-1.24596E+02 1.93310E+01 1.57655E+01-4.74742E+01-1.85781E+00
 -1      2853-6.33385E+01-1.11093E+02 1.46184E+00 1.56293E+01-1.33946E+01-3.21589E-01
 -1      2854-7.47086E+01-7.01160E+01 7.38742E+00 2.78732E+01-3.86201E+01 1.80464E+01
 -1      2855-1.57784E+02-2.37989E+01-1.64988E+01-1.10199E+01-5.73644E+00-3.41349E+01
 -1      2856-1.50624E+02-2.24718E+02 1.20653E+01-1.60707E+01-6.07753E+01-4.77897E+00
 -1      2857-6.32060E+01-2.15166E+02 5.89948E+00-3.21437E+01-7.53763E+01 4.33445E+00
 -1      2858-4.77381E+01-1.53090E+01 6.68693E+00 1.64276E+00-2.10351E+01 6.64611E+00
 -1      2859-4.23188E+01-1.31170E+02 5.73303E+00-2.04120E+01-4.05372E+01 1.10678E+01
 -1      2860-1.92263E+02-1.79715E+02-6.30200E+00-8.07939E+00-4.37460E+01 1.82418E+01
 -1      2861-5.50663E+01-2.66999E+02-1.97464E-01-1.93357E+01-5.45207E+01 1.82855E+01
 -1      2862-7.71878E+01-2.71212E+01 4.75112E+01-1.39190E+01-2.06160E+01-2.61733E+00
 -1      2863-6.33522E+01 1.27867E+01 7.39948E+00-3.87499E+00-1.07876E+01-9.12382E+00
 -1      2864-4.92467E+01 1.00302E+01 5.79242E+00-2.61106E+01-8.69418E+01 6.25764E+00
 -1      2865-1.94335E+01 5.90189E+01 1.69180E+01-2.89311E+01-2.52394E+01 2.43581E+01
 -1      2866 2.22047E+01 1.82294E+01 1.19542E+00 1.90291E+00 4.24967E+00-1.77484E+00
 -1      2867 7.02128E+00 3.56708E+00 1.33764E+00-1.67197E+00 2.26840E+00 6.03465E-01
 -1      2868 1.40925E+01 1.44469E+01 4.23949E+00-1.87399E+00-2.77013E+00-2.91514E+00
 -1      2869-6.35792E+00 1.67124E+01 1.24669E+01-1.88832E+01 3.83149E+01-1.52130E+01
 -1      2870-6.20824E+01-1.51842E+02-1.43848E+00-3.38269E-01-1.20408E+01-3.40579E+01
 -1      2871-3.02391E+01-9.52151E-01 1.56205E+01-7.28873E-01-7.82618E+00 2.63252E+00
 -1      2872-1.05712E+02-2.09842E+02 2.25982E+01-7.69679E+01 6.32371E+01 4.07489E+00
 -1      2873-9.39349E+01-2.07847E+01 1.46578E-01 1.86642E+01-3.81249E+00 2.01248E+01
 -1      2874-1.68404E+01-8.28205E+00-8.28212E+00 1.25302E+01 1.10848E+01 1.30396E+01
 -1      2875 2.82815E+00 3.82687E+00 5.65043E+00 7.96682E-01 2.62139E+00 4.89608E+00
 -1      2876-4.37378E+01-1.30483E+02-1.79120E+01-5.49751E+00 1.71078E+01 8.58578E+00
 -1      2877-1.82880E+01 3.25359E+01 5.63951E+00 5.63872E+00 8.68399E+00-1.02995E+01
 -1      2878-4.45737E+01-1.18987E+02 2.53554E+00 9.46657E+00-1.91451E+01-8.13039E+00
 -1      2879-7.17658E+01-1.66215E+02 2.58663E+01-2.12390E+01-1.56148E+01-4.97117E+00
 -1      2880-9.58194E+01-2.38001E+02 4.99700E+00-9.72115E+00-3.42110E+01-1.27837E+01
 -1      2881-1.05642E+02-1.51242E+02 6.01588E+00 3.32511E+01-2.48085E+01 5.44816E+00
 -1      2882-4.21923E+01-9.43887E+01 9.76934E+00-3.39069E+01-2.92814E+01-5.48586E+00
 -1      2883-2.15020E+02-1.99333E+02-8.60898E+00 8.15752E+01-3.30854E+01 1.02927E+01
 -1      2884-1.40685E+02-1.50701E+02-1.08787E+00 3.43121E+01-3.50700E+01-2.25487E+01
 -1      2885-1.35561E+02-2.17965E+02 6.84626E+00 3.45141E+01-6.05498E+01-1.67590E+01
 -1      2886-2.74419E+01-5.01055E+01-1.07993E+00 8.78554E+00-1.20747E+00-1.62191E+00
 -1      2887-3.36402E+01-1.05123E+02 7.49986E+00 1.04740E+01-1.10424E+01-7.29729E+00
 -1      2888-7.32548E+01-2.83589E+02 1.00703E+01-1.37722E+01-2.54610E+01-3.95120E+01
 -1      2889-2.94104E+01-1.28332E+01 1.42644E+00 4.56368E-01-1.71447E+01 4.79679E+00
 -1      2890-8.19383E+01-2.66872E+02-1.07795E+01-2.30566E+01-1.35648E+01-2.64990E+01
 -1      2891-5.45892E+01-1.93080E+02-1.41110E+01 1.22608E+01-1.46661E+01-1.20162E+01
 -1      2892-5.37270E+01-9.83037E+01 3.38765E+00 2.59257E+01-1.83880E+01 4.59277E+00
 -1      2893-6.76661E+00-5.21240E+01 6.36876E+00 2.72502E+00-1.51361E+01 1.68403E+01
 -1      2894-9.37374E+01-6.55548E+01 1.22213E+01-2.31554E+00-1.66883E+01 7.98512E+00
 -1      2895-2.65318E+01-5.06994E+01-6.80479E+00 2.89876E+01-1.87137E+01 1.14750E+00
 -1      2896-3.24695E+01-2.95712E+01 1.95951E+00 3.78734E+00 2.06207E+01-3.63243E+00
 -1      2897-1.91493E+01-8.56087E+00-1.86381E+00-1.66032E+01 1.13397E+01-5.92083E+00
 -1      2898-3.70592E+01-5.39183E+01 1.21555E+01-9.71164E+00 1.20180E+01-2.14481E+00
 -1      2899-1.04305E+01-5.82146E+00-1.56439E-01-3.35765E+00 2.67701E+00 6.68959E-01
 -1      2900-5.82142E+01-1.63711E+01 9.16251E+00-1.32250E+01 4.18322E+00-9.12984E+00
 -1      2901-3.39291E+01-2.95592E+01 4.95635E+00-4.60063E+00 1.18751E+01 2.75676E+00
 -1      2902-3.78810E+01-2.64076E+01 5.00579E+00-4.49331E+00 1.45900E+01 6.45799E+00
 -1      2903-8.03668E+00 1.43441E+01-2.42234E+00-1.23501E+01 8.89358E+00-7.35414E+00
 -1      2904-1.53881E+01-8.33026E-01 2.34107E+00-7.40051E-01 9.14822E-01 2.77367E+00
 -1      2905-2.22579E+01 1.46833E+01-5.42078E+00-2.27519E+01 1.59447E+01-2.39119E+00
 -1      2906-4.89846E+01 4.64603E+00-1.68888E+01-2.52786E+01 2.26560E+01-1.19768E+01
 -1      2907-2.53187E+01-1.99882E+01 1.78232E+00-1.09802E+01-5.30189E+00 1.01577E+01
 -1      2908-1.78081E+01 1.39329E+01 3.34003E-01-2.58539E+01 3.58976E+00-1.53158E+01
 -1      2909-2.38045E+01 2.01233E+01 1.09543E+00-2.56196E+01 1.81016E+01-3.91639E+00
 -1      2910-1.42152E+01-6.62744E+00-2.97951E+00-3.44044E+00 1.92660E+01 4.08447E+00
 -1      2911-4.19346E+01-5.10591E+01-8.08290E-01-1.32456E+01 1.50074E+01 3.36836E-02
 -1      2912 2.23745E+00 1.58042E-01 2.46097E+00-5.00717E-02 2.91825E+00 9.73435E-01
 -1      2913-1.99528E+02-7.66486E+01 1.17755E+01-1.84940E+01 6.03168E+00 3.65929E+01
 -1      2914-5.13979E+01-6.15949E+01 2.38093E+00 3.65656E+00 5.73171E+00 7.39958E-01
 -1      2915-7.84798E+01-7.93551E+01 1.51778E+01-1.60788E+00-3.90163E+00 1.63845E+01
 -1      2916-6.71829E+01-5.72284E+01 7.66005E-01 1.71495E+01 7.16480E+00 4.38726E+00
 -1      2917-1.58861E+02-8.36398E+01 8.51416E+00-1.33633E+01 4.37683E+01 3.98465E+01
 -1      2918-2.94994E+01-5.80388E+01 2.36654E+00 6.53054E+00-6.37640E+00 1.30373E+01
 -1      2919-8.66163E+01-1.01252E+02-1.01956E+01-1.61159E+01 2.60663E+01 3.28579E+01
 -1      2920-1.79465E+02-7.91182E+01-1.41392E+01 5.25079E+01-4.09233E+00 8.78745E+01
 -1      2921-9.08580E+01-7.26145E+01-8.59947E+00-4.42332E+00 3.06589E+00 1.37859E+01
 -1      2922-7.00425E+01-4.82655E+01 4.52705E+00 3.75513E+01 7.78862E+00 3.62965E+01
 -1      2923-1.52998E+02-1.52868E+02 2.38794E-01-2.02782E-01 2.16694E+00 4.63690E+01
 -1      2924-1.58787E+02-2.69225E+02-3.16668E+01-2.40623E+01 4.93236E+01 7.90379E+01
 -1      2925-2.09601E+02-8.33528E+01-4.20884E+00 2.52563E+01 6.94320E+00 6.55391E+01
 -1      2926-3.84061E+01-5.05646E+01-9.44409E+00 1.50908E+00 1.13974E+01 1.32556E+01
 -1      2927-2.00109E+02-1.01479E+02-4.02506E+00-1.29591E+01 6.96651E+00 5.11865E+01
 -1      2928-7.97395E+01-1.89500E+02-3.29679E+00 7.71069E+00 7.62697E+00 3.03629E+01
 -1      2929-7.42483E+01-1.52497E+02 5.10456E+00 2.36171E+01-2.44776E+01 2.61530E+01
 -1      2930-9.37865E+01-5.03288E+01 6.69457E+00 8.77780E+00-5.47936E-01 3.65345E+00
 -1      2931-4.32174E+01-5.71181E+01-6.60293E+00 6.72150E+00-2.03535E+00-3.61154E+00
 -1      2932-1.44525E+02-9.80287E+01 1.98526E+01 5.80457E-01 7.48316E+00 2.53886E+01
 -1      2933-5.97293E+01-5.99857E+01 1.63676E+01 1.02825E+01 4.81633E+00 5.05431E+01
 -1      2934 3.44629E+01 3.44651E+01 2.40089E+00 1.79680E+00-2.51081E+00-5.95793E+00
 -1      2935 2.97316E+01-3.70931E+01 1.47789E+01 3.10958E+00-1.11310E+01 1.10406E+01
 -1      2936-8.02178E+01-1.33622E+02 2.09655E+01 7.76619E+01-1.60232E+01-7.34071E+00
 -1      2937 3.65389E+00 3.52844E+00 4.01016E+00-3.03754E-01 4.69529E+00 3.48099E-01
 -1      2938-1.52038E+02-1.03946E+02 4.23779E+00 3.75082E+01 5.10495E+01-3.31258E+01
 -1      2939-2.60371E+01-3.65714E+01 8.40806E-01-1.70004E+01-4.50001E-01-7.44772E+00
 -1      2940-8.43249E+01-4.26932E+01 7.21371E+00-5.21306E+00 2.06238E+00-1.50882E+01
 -1      2941-7.92033E+01-1.21924E+02 8.56258E+00 1.75584E+01 3.79883E+01-2.19481E+01
 -1      2942-2.31966E+01-6.88429E+00 1.12702E+01-1.53513E+01 9.33360E+00-1.61137E+01
 -1      2943-2.20968E+02-1.29616E+02-9.67509E+00-7.07205E+01 2.25979E+01-2.69216E+01
 -1      2944-1.84880E+02-1.78325E+02 4.77822E+00-3.69889E+01 4.98542E+01-2.14147E+01
 -1      2945-1.06094E+02-1.05039E+02 3.08892E+01 2.67201E+01 1.40237E+01-1.40411E+01
 -1      2946-3.06660E+01-4.04096E+01 2.88896E+01 8.15666E+00 3.76712E+01-3.86416E+01
 -1      2947-2.91532E+01-6.79375E+01 6.13012E+01 2.22515E+01 8.99974E+01-1.08497E+02
 -1      2948-7.96530E+01-5.17208E+01 1.06110E+01 2.53145E+01 1.14426E+01-1.97461E+01
 -1      2949-7.83577E+01-8.77600E+01 1.76569E+00-6.08840E+00 3.40506E+01-1.22571E+01
 -1      2950-2.97675E+01-3.04275E+01 4.14219E+00-3.06726E+01 1.34631E+01-2.55466E+00
 -1      2951-1.57208E+02-7.18870E+01-3.53793E+00-6.42388E+01 3.27684E+00-4.05515E+01
 -1      2952-1.76832E+01-7.58417E+01-6.30533E+00-3.44165E+01 1.22505E+01-3.83064E+00
 -1      2953 4.56420E+01 1.31529E+01-2.71213E+01-6.68209E+01-6.68090E+00 1.53665E+01
 -1      2954-6.04614E+01-1.04969E+02-2.64818E+01 1.99479E+01 1.23529E+01-2.27847E+01
 -1      2955 3.61552E-01-1.83270E+00-4.97133E+00-2.07370E+01 7.16092E+00 1.28174E+01
 -1      2956-2.13606E+01-1.40126E+02 1.02537E+01 2.99528E+00 1.51315E+01-6.94813E+00
 -1      2957-1.32660E+02-2.18726E+02 1.13468E+01 1.58523E+01 3.51754E+01-3.16629E+01
 -1      2958-1.17519E+02-2.10679E+02 2.00715E+01 4.53973E+01 8.18986E+00-1.17667E+01
 -1      2959-6.05591E+01-1.40111E+02 1.74821E+01-1.53081E+01 1.27260E+01-1.16414E+01
 -1      2960-1.03035E+02-2.26537E+02 8.91263E+00 4.18146E+00 5.35971E+01-1.48849E+01
 -1      2961-6.27735E+01-1.77138E+02-1.28868E+00-1.36164E+01 2.85223E+01-6.96389E+00
 -1      2962-4.31949E+01-1.35776E+02 1.57659E+01-3.70523E+01 3.13100E+00-1.33165E+01
 -1      2963-1.41453E+02-2.25347E+02 9.50148E+00-5.61162E+00 4.25791E+01-2.10849E+01
 -1      2964-9.79747E+01-1.87513E+02 1.62632E+01 2.25227E+01 1.39823E+01-3.29216E+01
 -1      2965-1.33594E+02-1.90952E+02-2.06121E+01-4.70417E+01-1.95192E+01-5.78429E+01
 -1      2966-3.41446E+01-1.40528E+02 1.22722E+01-1.98389E+00 1.78931E+01-1.32474E+01
 -1      2967-2.22649E+01-8.50622E+01 1.63600E+01-3.80884E+00-7.88140E+00-2.67380E+00
 -1      2968-8.13505E+01-2.11975E+02 3.66908E+01 3.99310E+01 3.80031E+01-3.87187E+00
 -1      2969-1.17497E+02-1.72772E+02 3.44235E+01 4.42396E+01 3.26418E+01-3.63444E+01
 -1      2970-1.63468E+02-2.75759E+02 1.66967E+00-4.37099E+01 5.48936E+01-3.52696E+01
 -1      2971-2.01616E+01-1.38168E+02-3.93401E-01-1.22723E+01-1.87263E+00-1.24260E+01
 -1      2972-8.48739E+01-9.43169E+01 8.38805E+00 3.25906E+01 1.07254E+01-2.75766E+01
 -1      2973-2.68521E+02-1.46578E+02-4.23659E+00 9.81349E+01-4.74838E+00-3.76471E+01
 -1      2974-1.22619E+02-1.38197E+02-2.44277E+01 4.81113E+01-3.05386E+00-1.44477E+01
 -1      2975-2.23968E+01-4.66197E+01-2.60305E+01 1.45779E+01 5.00913E+00-1.54613E+01
 -1      2976-1.17989E+01-1.56578E+01-7.38745E+00 1.62140E+00 1.30710E+00-2.34328E+00
 -1      2977 3.16946E+00 6.55746E+00 3.40596E+00 4.06184E-01-4.46921E-01-2.72233E+00
 -1      2978-3.09012E+01-2.61413E+01 1.31991E+00-4.33415E+00-1.46748E+01 2.53813E+00
 -1      2979-7.29831E+01-1.43855E+02 2.82738E+00 3.46187E+01-2.20555E+01 2.10919E+01
 -1      2980-2.56785E+01-5.56378E+01-3.88325E+00-4.56949E+00 1.85812E+01 7.79314E+00
 -1      2981 2.33111E+00-3.51235E+00 8.66672E+00 4.98602E+00 1.95248E+01 1.29135E+01
 -1      2982 5.57288E+00-1.32492E+01-3.16973E+00 1.59556E+01 6.96229E+00 1.07087E+01
 -1      2983 1.25446E+01 5.00688E+00 9.32459E+00 9.73596E+00 2.44540E+01 3.54018E+01
 -1      2984 8.49206E+00-1.77124E+00 5.99501E-01 1.18282E+01 2.21732E+01 1.67349E+01
 -1      2985-1.48433E+01-3.20327E+01 1.83942E+00 7.36312E+00 2.11243E+01 1.67302E+01
 -1      2986-4.55159E+01-4.72737E+01 3.19595E+00-2.64516E+00 6.10853E+00 1.66089E+01
 -1      2987-3.25744E+01-4.90813E+01 3.50586E+00-9.72216E+00 1.58262E+01 2.86042E+01
 -1      2988-7.75974E+00-1.26680E+01 6.17797E+00 7.06275E+00 1.47668E+01 2.22042E+01
 -1      2989-3.68999E+01-5.48302E+01 1.15908E+00-2.30575E+01 7.53805E+00 1.43844E+01
 -1      2990 2.93034E+00-9.60443E+00 1.83055E+00 2.07665E+01 1.81239E+01 7.85237E+00
 -1      2991 2.03753E+01 1.02876E+01 9.10542E+00 2.34268E+01 2.03842E+01 2.38405E+01
 -1      2992 5.97833E+00-6.03662E+01-2.80364E+00 1.05049E+01 3.23487E+01 4.71816E+01
 -1      2993 1.20976E+01-4.24765E+01-6.15113E+00 2.23304E+01 5.17717E+01 4.91385E+01
 -1      2994 3.55632E+01 2.69200E+00 7.93663E+00 2.88438E+01 2.68595E+01 3.76029E+01
 -1      2995-7.30349E+00-5.21534E+00-2.08089E+00 1.05727E+00 1.30709E+00 2.62692E+00
 -1      2996-1.63435E+01-1.17343E+01-7.12557E+00-2.30301E+00 2.19676E+00 5.40469E-01
 -1      2997 3.20231E+00 1.28677E+00 2.83832E+00 2.28563E+00 3.07664E+00-1.96319E+00
 -1      2998-1.67202E+01-1.65777E+01-6.82137E+00 1.84920E+00 2.16542E-01-9.98427E-01
 -1      2999-2.28233E+00 2.86654E+00 1.05760E+00-2.70828E+00 2.01705E+00 5.35578E+00
 -1      3000-6.88442E+00-9.32398E+00-9.21306E-01-2.62056E+00 3.02485E+00-9.18021E-01
 -1      3001 3.85290E+00 4.94759E-01 7.62574E-01-1.75929E+00-3.36805E+00-9.58512E-01
 -1      3002-2.45523E+00 4.01405E+00-2.42898E-01-2.48198E-01 6.82680E-01 3.73953E+00
 -1      3003 6.07966E+00 8.25484E+00 5.83917E+00 5.85057E-01-4.13870E-01 2.88413E+00
 -1      3004 1.23680E+01 1.25440E+01 2.97614E+00 3.63198E+00 3.31222E+00 5.09425E+00
 -1      3005 2.81332E+01 2.94848E+01 5.94413E+00-5.38569E-01 7.82455E+00 7.08558E-01
 -1      3006 6.28972E+00 1.12078E+01-6.63746E-01 1.78210E-01 5.49204E-01-2.41139E+00
 -1      3007 6.23672E+00 5.72035E+00 6.21544E+00 1.07217E+00 2.54669E+00 5.02583E+00
 -1      3008 3.65115E+00-2.80577E+00-1.11043E+00-2.97185E-01-2.91784E+00-2.21662E-01
 -1      3009-2.65399E+01-4.56539E+01-6.75036E+00-1.01809E+01-2.15225E+01-3.75574E+00
 -1      3010-2.84129E+01 4.48156E+00 1.02753E-01-5.84026E-01-1.56087E+01 3.03696E+00
 -1      3011 1.51675E+02-4.58330E+01-1.88594E+01 6.43177E+01 1.00120E+00-4.57679E+00
 -1      3012-2.36492E+02-2.98444E+02 6.58289E+01-1.12817E+02-4.58935E+01-8.25922E+01
 -1      3013-6.97433E+01-3.04934E+02-6.60286E-01-1.29801E+02 4.34266E+01 5.39202E+01
 -1      3014-2.04739E+02-3.46012E+02 1.30090E+02-1.57086E+02-3.22480E+01 1.03408E+02
 -1      3015 7.09191E+01 3.53620E+01-6.47852E+00 8.09169E+01 2.54774E+01 5.39338E+01
 -1      3016 1.11688E+02-2.42673E+01-2.74593E+01 2.19849E+01-1.66467E+00-3.13318E+01
 -1      3017-5.06157E+01-2.01660E+02-3.65839E+01-1.04038E+02-1.20345E+01-4.66021E+01
 -1      3018 9.04229E+01-1.32846E+02 5.49032E+01-2.01749E+01-3.59349E+01-1.53196E+01
 -1      3019 4.07532E+01 2.72354E+01-6.85614E+00 3.60735E+01 3.36352E+01 3.34114E+01
 -1      3020-4.78180E+01-1.34892E+02 5.11297E+00-5.41607E+01-1.39397E+01-3.18496E+01
 -1      3021-1.37997E+02-3.48822E+02 1.44610E+02-1.15385E+02-9.42491E+00 1.16008E+01
 -1      3022 1.49921E+00-3.33471E+01-5.61308E+01-1.24648E+01-1.29669E+01-1.68015E+01
 -1      3023 1.01966E+02 7.30895E+01-3.41204E+01 9.09877E+01 4.99649E+01-1.51719E+00
 -1      3024-1.03318E+02-1.40103E+02 2.58139E+01-2.76983E+01-1.97252E+01-2.67286E+01
 -1      3025-2.95576E+02-3.26124E+02 2.69984E+01-1.45198E+02 3.22677E+01 1.36436E+01
 -1      3026-1.18157E+02-1.45020E+02 2.75907E+01-6.78262E+01-1.10241E+01 2.08669E+01
 -1      3027-1.41178E+01-2.43208E+01 1.52883E+01-9.11231E+00 2.41547E+01 8.05786E+00
 -1      3028-1.10318E+02-1.48345E+02 1.73393E+01-4.63453E+01 4.33588E+00-3.05507E+01
 -1      3029 8.23290E+01 4.75542E+01 1.10539E+01 8.18745E+01 1.91040E+01-5.52620E+00
 -1      3030-3.61674E+01-6.39250E+01 4.79375E+01 8.68200E+00 8.12048E+01 7.18591E+01
 -1      3031-1.34709E+02-1.36186E+02 5.15744E+01-9.39093E+01-5.70944E+01-3.90030E+01
 -1      3032 4.10975E+01-6.67697E+00-6.73543E+01 2.40304E+01 6.80821E+01 3.75751E+01
 -1      3033-1.05048E+02-1.36109E+02-7.59255E+01-6.42262E+01-5.76129E+00 1.49269E+01
 -1      3034-1.13969E+01-1.01546E+02-9.19390E+00-3.48198E+01 3.72298E+01 1.65150E+01
 -1      3035 1.22483E+02 7.76832E+01 4.72334E+01 8.07675E+01 2.18700E+01 7.74303E+00
 -1      3036-4.80266E+01-5.30745E+01 2.27949E+00-1.43782E+01 3.43699E+01 4.00508E+01
 -1      3037 3.98865E+01 9.37237E+01 3.88894E+01 5.52397E+01-2.58665E+01-5.90378E+00
 -1      3038-1.76379E+02-1.16120E+02-4.40434E+01-8.91024E+01-7.00691E+01-4.42062E+01
 -1      3039-3.69562E+01-3.29802E+01-1.90348E+01-7.36362E+00-3.44874E+01 2.37097E+01
 -1      3040 1.81399E+01 2.49268E+01 3.89858E+00 2.87028E-01-2.77777E-01-3.60410E+00
 -1      3041-8.91202E+00-1.66667E+01 4.46291E+00-1.64806E+00 4.83223E-01 5.21106E+00
 -1      3042-9.60312E+00-3.26287E+01 4.68321E+00-1.88032E+01 8.36550E-01 1.21035E+01
 -1      3043-6.86854E+00-3.11907E+01 1.93180E+00-1.02287E+01 1.30198E+00-5.54671E+00
 -1      3044-5.63949E+00-2.85011E+01-3.49930E+00-1.77319E+01-1.44033E+01-5.53727E+00
 -1      3045-8.97350E+00-2.77242E+01-1.40619E+00-2.35330E+01 4.46943E+00 2.99856E+00
 -1      3046-1.10650E+01-1.62226E+01 1.25317E+00-2.04025E+00 6.61633E+00 1.19784E+01
 -1      3047-8.96356E+00-1.33532E+01 4.96040E+00 1.57062E+00-1.83289E-02-1.05071E+00
 -1      3048-1.25197E+01-1.83996E+01 5.46853E+00 1.83376E+00 1.81760E+00 2.23106E+00
 -1      3049-1.39376E+01-3.04317E+01 2.89214E+00 6.78941E-01-6.29342E+00-3.00529E+00
 -1      3050-1.00206E+01-2.27126E+01 3.52196E-01-7.42529E-01 4.62681E+00 2.21219E+00
 -1      3051-2.59041E+01-3.71717E+01-3.93736E+00-4.10254E+00-5.94326E+00 7.78695E+00
 -1      3052-2.48044E+01-2.24799E+01-1.31208E+01-1.59381E+01 1.13203E+01 2.96743E+01
 -1      3053-8.25041E+00-2.99318E+01-1.07223E+01-9.93916E+00 8.42911E+00 1.44885E+01
 -1      3054-2.69844E+00-1.95490E+01-3.52795E+00-5.68556E+00 1.19942E+00-7.91918E+00
 -1      3055-8.68261E+00-3.77169E+01 1.75804E+00-1.67034E+01-1.89091E+01 7.43433E+00
 -1      3056-1.62448E+01-2.31602E+01-2.96532E+00 7.01278E+00-5.18814E+00 6.59090E+00
 -1      3057-1.35989E+01-8.73666E+00-9.03447E+00-8.73797E-01 9.31235E+00 2.51168E+01
 -1      3058-1.36418E+01-2.31808E+01-5.26851E+00-4.26551E+00 7.78105E+00 1.35610E+01
 -1      3059 9.15361E+00-3.56661E+01-2.98395E+00-1.00995E+01 1.45812E+01 2.11912E+00
 -1      3060-2.63824E+01-1.70179E+01-5.86526E+00-7.27600E+00 1.30205E+01 3.45501E+01
 -1      3061-2.30641E+00-1.99213E+01 5.09816E+00-9.00386E-01 1.32146E+01-1.05473E+00
 -1      3062-2.97732E+01-1.50645E+01 3.07839E+00 3.04264E+00 1.31870E+00 3.18603E+01
 -1      3063-7.99528E+01-1.70750E+01 2.04235E+00-1.05320E+00-6.19928E+00 2.57273E+01
 -1      3064 2.11949E+01 1.86382E+01 5.06611E+00 3.64960E+00 3.85431E+00-1.54317E+00
 -1      3065-1.28070E+02-1.34429E+02 1.39503E+01-2.69744E+01 1.99377E+01 3.02937E+00
 -1      3066-4.64462E+01-1.58043E+01 9.71684E+00-1.83191E+01 1.05686E+00 5.64866E-01
 -1      3067-9.31118E+01-4.21537E+01-4.97848E+00-1.76613E+01-4.53803E+00 2.04029E+01
 -1      3068-1.14304E+02-4.12483E+01 2.99501E+01-9.76399E+00 1.86027E+01 4.14733E-01
 -1      3069-9.78752E+01-3.65829E+01 1.67684E+01-4.25814E+00 3.33120E+01-1.81718E+01
 -1      3070-8.00585E+01-1.63391E+02 1.37523E+01-3.17440E+01 4.73243E+01-2.16552E+01
 -1      3071-1.87883E+02-1.45260E+02 1.40663E+01-1.74209E+01 3.30404E+01 2.77747E+01
 -1      3072-1.27326E+02-8.27396E+01-1.04211E+01-2.96936E+01 1.97911E-01 2.60962E+01
 -1      3073-1.83243E+02-9.85101E+01 1.02136E+01 5.73118E+00 4.99652E+01-3.16372E+01
 -1      3074-7.49547E+01-3.59463E+01 1.57073E+01-1.70969E+01 1.37919E+01 2.67137E+00
 -1      3075-1.14932E+02-9.57953E+01 7.04535E+00-1.57465E+01 5.31981E+01-8.58630E+00
 -1      3076-1.83071E+02-8.71607E+01 1.41576E+01-2.44912E+01 3.36683E+01 3.23205E+01
 -1      3077-1.45525E+02-1.15477E+02 2.10568E+00-1.20140E+01 1.84831E+01 3.83298E+01
 -1      3078-5.09857E+01-3.63428E+01 9.65081E+00-2.34478E+01 2.28622E+01 2.42817E-01
 -1      3079-1.24271E+02-1.38444E+02-5.97919E+00 1.89976E+01 6.28485E+01-3.44105E+01
 -1      3080-6.75299E+01-1.61897E+01 2.06855E+01-1.01602E+01 2.56191E+01-1.76472E+01
 -1      3081-8.34053E+01-6.97785E+01 1.67185E+01-1.68939E+01 1.75484E+01 1.64527E+01
 -1      3082-7.20073E+01-7.01010E+01 4.27860E+01-2.55102E+01 2.47239E+01 2.62393E+00
 -1      3083-5.13815E+01 1.59617E+00 1.46051E+01-4.20974E+00 1.18888E+01 3.95570E+00
 -1      3084-4.57901E+01 2.87149E+00 1.17041E+01-2.37665E+01 7.57831E+01-6.62035E+00
 -1      3085-1.72056E+01 6.93206E+01 1.69514E+01-3.16427E+01 3.24626E+01-2.39953E+01
 -1      3086-4.47266E+00 9.25763E-01 1.09200E+00-1.78523E+00 3.04363E+00 4.45718E+00
 -1      3087-5.48699E+00-4.94798E+00-7.20111E-01 5.28272E-01-4.59740E+00-3.99265E-01
 -1      3088 9.54298E+00-9.70822E-01 6.41345E+00-9.20691E-01-4.28313E+00-1.45852E+00
 -1      3089 2.60077E+00 4.69048E+00 1.08340E+00 8.73041E-01-2.65089E-01 2.93533E+00
 -1      3090 1.81626E+00 2.94689E+00 1.91581E+00 1.18363E+00 1.99414E+00-1.73628E+00
 -1      3091 8.64557E+00 1.08015E+00 1.70911E+00-4.43657E+00 2.46254E+00 3.60960E-01
 -1      3092-1.67920E+02-1.35455E+02-7.66262E+00-6.07951E+01-4.18956E+01-5.60191E+01
 -1      3093-9.59826E+00-2.69111E+01-9.61405E+00 1.29747E+01-1.10346E+01-8.76232E+00
 -1      3094-8.22996E+01-9.27806E+01-1.81063E+00 5.44610E+00-1.25279E+01-1.48575E+01
 -1      3095-1.80455E+02-1.28166E+02 6.09649E+01-8.84492E+01-2.73031E+01-2.92017E+01
 -1      3096-1.88834E+02-2.01057E+02-1.17290E+01 1.87128E+01-2.09819E+01-3.20640E+01
 -1      3097 2.85583E+01 1.33872E+01 1.58789E+01 3.94547E+01 2.73719E+01 3.68630E+00
 -1      3098-2.75292E+02-1.53356E+02-3.39610E+01 6.81556E+01-1.63156E+01-9.23405E+01
 -1      3099-1.64362E+02-1.14360E+02-1.97347E+00 8.13119E+01-7.89953E+00-3.53214E+01
 -1      3100-1.13269E+02-2.22917E+02 1.00282E+01 4.12502E+01-4.06482E+01 5.90240E+00
 -1      3101-3.49203E+01-5.89194E+01-9.25000E+00-5.15470E+00-1.03950E+01-1.50521E+01
 -1      3102-2.49725E+02-1.50651E+02 3.35735E+01-1.34977E+02-6.27816E+01-3.97406E+01
 -1      3103-1.29900E+02-1.45197E+02-1.45315E+01-4.17910E+01-6.88475E+01-9.88745E+01
 -1      3104-1.46983E+02-6.46629E+01 8.52644E+01-2.99628E+01 4.28170E+00-2.27167E+01
 -1      3105-7.57433E+01-3.84776E+01 7.01596E+00-1.98468E+01-3.57064E+01-7.17950E+00
 -1      3106-4.41735E+01 1.69340E+00 2.20655E+00 4.33333E+01-8.77710E-01-2.45535E+01
 -1      3107-8.07761E+01-4.10993E+01-1.85905E+01-2.26408E+01-4.35902E+01-2.85136E+01
 -1      3108-1.69899E+02-1.29315E+02 7.93991E+00-7.24851E+01-4.17991E+01-9.31566E+00
 -1      3109-1.28503E+02 2.33619E+01-5.18603E+01 2.65458E+01-5.99547E+01-6.53488E+01
 -1      3110-1.07058E+02-1.40948E+02-2.80467E+01-8.91028E+01-8.47450E+01-1.04775E+02
 -1      3111-2.37947E+01 1.22050E+02-2.60021E+01 6.49972E+01-4.22332E+01 9.44664E+00
 -1      3112 3.92000E+01 2.83536E+01 3.69216E+01 3.22433E+01-2.84183E+01-3.71093E+01
 -1      3113-3.31936E+01-3.12223E+01-2.57149E+01 6.96752E-01 1.08562E+00-2.86214E-01
 -1      3114 3.30159E+01 3.76415E+01 7.85583E+00 3.89056E+00 5.69009E+00 6.74707E+00
 -1      3115 2.08127E+01 1.95623E+01 3.04046E+00 7.93324E-01-5.90559E+00-3.82221E-01
 -1      3116-9.96954E+01-8.10620E+01-1.68467E+01-3.87666E+01 5.82611E+00 5.05226E+00
 -1      3117 2.65171E+01-3.75155E+01-1.60566E+01 1.94205E+01-6.62629E+00 2.23148E+01
 -1      3118-3.06833E+01-3.25603E+01-1.12860E+01 1.04914E+00 8.42522E-02-3.46139E-01
 -1      3119-4.46025E+00-2.49729E+00 1.43285E+01-1.03496E+01-2.21621E+00-3.58966E+00
 -1      3120-1.87348E+02-3.94028E+01 4.53024E+01 3.90308E+01 1.05011E+01 2.36320E+01
 -1      3121 2.56211E+01 2.66588E+01 3.50626E+00 4.50859E-01 4.41090E+00 3.99074E+00
 -1      3122 2.80524E+00 2.87386E+00 4.03074E+00 6.44760E-01 1.52335E+00 4.44956E+00
 -1      3123 7.76697E+00 3.89253E+00 1.48384E+00 2.12503E+00 1.94262E+00-9.96224E-01
 -1      3124 8.58853E+00 9.44322E+00 2.49626E+00 5.51183E-01-3.77598E+00 3.77827E+00
 -1      3125-1.25590E+01-8.81164E+00-5.60892E+00-1.39789E+00-2.80130E+00 1.28092E+00
 -1      3126-5.01451E+00 5.53913E+00 1.19196E+00 2.04906E-01-1.99571E-01 4.73759E+00
 -1      3127-1.91915E+01-7.06583E+00-1.81387E+00-3.63002E+01 2.49315E+00-9.59465E+00
 -1      3128 2.77660E-01-9.88488E+00-6.97320E-01-2.02324E+01-2.05900E+00-2.66870E-01
 -1      3129-1.17173E+01-2.62759E+00 6.79658E-01-1.93311E+01 6.21176E+00-6.65314E+00
 -1      3130 8.73921E+00-4.24104E+00-4.75947E+00-2.23529E+01 1.09675E+01-9.38893E+00
 -1      3131-6.13181E+00-1.33638E+01 2.30860E-01-2.35576E+01 1.23891E+00-1.41593E+01
 -1      3132 6.96185E+00-3.01544E+01 2.00472E+00-3.18794E+01-1.14415E+01-1.36022E-01
 -1      3133-5.60877E+00-2.70466E+01-4.80030E+00-3.17337E+01-7.02850E+00-1.26154E+01
 -1      3134-3.32799E+01-2.65015E+01 4.87430E+00-2.00907E+01 1.21485E+01-1.47910E+01
 -1      3135 2.57808E+01-8.88754E+00 4.03382E+00-4.55828E+01 3.11841E+00 1.20819E+01
 -1      3136-2.52710E+00-7.28527E+00 2.07271E+00-2.65349E+01 9.54695E+00-1.31786E+01
 -1      3137-1.69000E+01-1.00741E+01 2.56828E-01-2.43216E+01 2.78498E+00-7.18791E+00
 -1      3138 3.23328E+01-3.72734E+00-4.78665E+00-2.70004E+01 7.54148E+00 1.03878E+01
 -1      3139-1.22174E+01-5.41681E+00 4.28161E-01-4.29227E+01 8.49293E+00-1.25165E+01
 -1      3140-7.29799E-01-3.20430E+01-1.31490E+00-1.63703E+01-1.27066E+01-2.85994E+00
 -1      3141 1.14515E+01-1.54366E+00 8.47614E+00-2.90476E+01 4.00041E+00-1.10650E+01
 -1      3142-1.31536E+01-9.02373E+00 1.05199E+01-2.48948E+01 2.76982E+00-7.57056E+00
 -1      3143 4.22006E+00-7.32048E+00 2.56497E+00-2.24743E+01 5.14476E+00-6.98442E+00
 -1      3144-3.71858E+01-2.63487E+01-2.48166E+00-1.00747E+01 1.33639E+01-3.27176E+00
 -1      3145-6.26062E+01-7.22001E+01-1.35172E+00-1.77121E+01 3.24463E+01 1.83230E+00
 -1      3146-1.95445E+01-7.81055E+01-5.95773E+00-1.12838E+01 2.76721E+01-8.82889E-01
 -1      3147-1.22559E+01-9.66283E+01-5.74756E+00 1.00796E+01 2.50804E+01-1.75560E+01
 -1      3148 6.95380E-01-5.34791E+01 1.10568E+00-2.41646E+00 2.13636E+01-1.01605E+01
 -1      3149 9.54858E+00 4.81094E+00-8.28714E-01 2.07626E+00-2.13334E+00 1.05280E+00
 -1      3150 2.56283E+01 3.25548E+01 2.95215E-01-8.30924E-01 3.24224E+00 4.93023E-02
 -1      3151-2.49666E+00-4.56398E+00-1.82305E+00 1.50249E-01-1.06533E+00 3.95049E+00
 -1      3152-1.60236E+01-1.36446E+01 2.51355E+00 2.14673E+01-7.78619E+00-5.34834E+00
 -1      3153-2.94354E+00-6.84364E+00 3.99302E+00 5.43812E+00-3.55101E+00-5.62064E+00
 -1      3154-2.07024E+01-1.15635E+01 6.22075E+00 2.49363E+01-2.56015E+00-3.98580E+00
 -1      3155-3.04271E+01-7.75278E+01-5.95279E+00 6.76762E+01 1.86178E+01-1.20036E+01
 -1      3156-3.59800E+01-4.70082E+01 6.32380E+00 6.65549E+01-3.11097E+00 6.61253E+00
 -1      3157 2.08159E+00-2.85920E+01 1.49944E+00 1.28285E+01-4.11580E+00-7.41432E+00
 -1      3158 9.78853E+00-5.38722E+00 2.32791E+00 1.03637E+01 2.33332E+00-4.30379E+00
 -1      3159-2.10504E+01-4.90639E+01 5.55159E+00 3.53573E+01 5.54131E+00-3.34558E+00
 -1      3160-2.32226E+01-1.91344E+01 4.46588E-01 4.48744E+00-1.78762E+01-4.80307E+00
 -1      3161 2.53379E+01-2.57344E+01-2.80426E+00 1.57593E+01 1.69406E-01-9.37906E+00
 -1      3162-1.53475E+01-3.14703E+01 4.13890E+00 3.98499E+01-5.79873E+00 1.16775E+01
 -1      3163-1.11701E+01-1.90356E+01-1.79550E+00 1.09582E+01-1.40854E+01-1.91656E+00
 -1      3164 3.60062E+01-9.34090E+00 9.15260E-01 1.89805E+01 1.64962E+00-3.83623E+00
 -1      3165 1.96652E+01-7.72982E+00 2.50511E-01 1.14264E+01 1.90781E+00-5.15891E+00
 -1      3166 3.53976E+01-5.29228E+01-6.75510E+00 2.61210E+01 2.05125E+00-2.24820E+01
 -1      3167 1.50738E+01-2.25393E+00 5.33295E+00 1.84824E+01 3.01991E+00-2.34190E+00
 -1      3168-1.12253E+01-1.32391E+01-2.00566E+00-1.89959E+00-1.27937E+01-6.20695E+00
 -1      3169-2.02620E+01-2.47558E+01-4.09786E-01 3.45655E+01-2.11515E+01 4.41980E+00
 -1      3170-3.70531E+01-2.99599E+01-6.95791E+00-1.62698E-01-1.48639E+01-1.62318E+01
 -1      3171-3.03071E+01-2.24356E+01-5.81983E+00 4.11938E+00-1.29184E+01-1.99939E+01
 -1      3172 2.56765E+01 2.56098E+01 2.52659E+00-1.06598E+00-3.32616E+00-6.69899E+00
 -1      3173 5.77334E+00 8.30528E+00 2.75094E+00 1.42804E+00 1.61729E+00-2.49204E+00
 -1      3174-3.01177E+01-3.17105E+01-1.32943E+01 2.37467E+00-1.65214E+00 4.34365E-01
 -1      3175 5.12219E+00 5.04726E+00 1.34978E+00-3.45952E+00 6.69248E-01 1.54651E+00
 -1      3176 1.17744E+01 9.66183E+00 4.22255E+00-1.61657E+00-2.37405E+00-4.31761E+00
 -1      3177 4.71255E+00 3.70164E+00 2.57088E+00 7.14702E-01 4.08482E+00-1.07208E+00
 -1      3178 4.74386E-01 5.42641E+00 3.34657E+00 2.50098E+00 7.46493E+00 2.27172E+00
 -1      3179 2.08228E+01 2.89615E+01 6.92529E+00 1.01449E+00-1.70536E+00 5.36909E+00
 -1      3180-3.35133E+00-4.95546E-01-2.75566E-01 6.36721E-01 4.69761E+00 8.82903E-01
 -1      3181-8.62689E+00-6.81469E+00-3.03928E+00-1.18196E+00 3.47852E+00-9.49349E-01
 -1      3182-1.00877E+01-9.25615E+00-8.22946E+00-1.57990E+00 2.06497E+00-1.11453E+00
 -1      3183-1.59031E+01-4.71894E+01 4.05355E+00-1.85644E+00-3.64881E-01 3.86134E-01
 -1      3184-2.16519E+02-1.28872E+02 4.44107E+01 9.03468E+01-3.23288E+01 9.00245E+00
 -1      3185 8.28942E+00 1.09821E+01 4.53826E-01-3.19857E+00 1.18507E+00 9.17486E-01
 -1      3186 9.35844E+00 3.31573E+00 3.79894E-01-2.39315E+00 2.12573E+00 9.03088E-01
 -1      3187-1.38878E+00 4.30317E+00 2.33191E+00-2.29485E+00-1.94498E+00-3.47760E+00
 -1      3188 2.04305E+01 2.64501E+01 6.72998E+00 1.16242E+00-2.53378E+00 5.25147E+00
 -1      3189-1.66337E+01-1.87589E+01-1.29986E+01-1.94012E+00-5.77788E-01 7.39970E-01
 -1      3190 4.15744E+00 7.99981E+00 1.35224E+00 1.33761E+00-8.89424E-02 2.94734E+00
 -1      3191-3.53905E-01 1.31335E-01 9.59117E-01-2.50656E+00 1.49187E+00 2.76400E+00
 -1      3192-2.58392E+01-2.66098E+01-1.50915E+01-1.37456E+00 3.41453E-01 2.54328E-01
 -1      3193 4.02288E+00 4.23151E+00 1.32637E+00 3.46780E+00 2.44188E+00-3.61511E+00
 -1      3194 2.54810E+01 2.80957E+01-3.03668E-01 1.82938E-01-7.83015E+00 1.50434E+00
 -1      3195-1.91593E+02-7.56319E+01-2.68197E+01-1.84753E+01 2.68240E+00 9.04105E+00
 -1      3196 8.39916E+01-5.11303E+01-2.82118E+01 1.16387E+00-2.14972E+01 1.88768E+01
 -1      3197-6.79951E+00-5.27563E+00-2.64009E+00 1.31837E+00 4.19688E+00 2.96951E+00
 -1      3198 1.94925E+01 1.77133E+01 1.04990E+01-3.06651E-01 1.20226E+00-1.99144E+00
 -1      3199 2.54239E+01 2.64886E+01 8.59079E+00-4.86270E-01 1.02830E+00-6.88854E+00
 -1      3200-1.09047E+00 2.54721E+00 1.10950E+00-3.16979E-01-2.83642E-01 3.41196E+00
 -1      3201 2.32042E+00-2.09544E+00-4.17996E-01 8.19322E-01 3.39758E+00-1.02094E+00
 -1      3202 3.85462E+01 3.52258E+01 8.62894E+00 1.75321E+00 4.44286E-01-8.08220E+00
 -1      3203-1.37838E+01-2.39468E+01-1.97968E+00 1.94271E+01-5.11730E+00-1.38635E+01
 -1      3204-4.10691E+01-1.94542E+01 4.17065E+00 2.82620E+01 3.69553E+00-9.12566E+00
 -1      3205 2.77022E+01 2.80497E+01 9.11654E+00 5.04411E-01-3.48496E+00-8.55796E-01
 -1      3206-1.02817E+02-1.81052E+02 4.16458E+01 2.20225E+01 2.69875E+01-2.51430E+01
 -1      3207-5.66919E+01-5.87634E+01 1.39877E+01-1.24937E+01 3.11763E+01-1.71176E+01
 -1      3208-5.31634E+01-2.63587E+01 6.91721E+00 6.12380E+00-1.58051E+01 1.48390E+01
 -1      3209-4.08474E+01-2.66199E+01 1.70594E+00-1.31794E+01 3.43073E+01-1.08988E+01
 -1      3210-7.86445E+01-6.25183E+01 1.62948E+01-5.11282E-01 4.20979E+01-3.35750E+01
 -1      3211-1.51084E+02-1.77290E+02 1.89174E+01-2.85259E+01 3.92679E+01-6.48947E+00
 -1      3212-1.02558E+02-1.41419E+02 2.95531E+00-5.03087E+00 4.14246E+01-3.07170E+01
 -1      3213-1.33790E+02-1.81621E+02-1.53691E+00 7.11565E+01 3.90400E+01-5.95016E+00
 -1      3214-3.81864E+01-4.54014E+01 4.45223E+00-1.32436E+01 2.09355E+01-2.14729E+01
 -1      3215-1.17974E+02-1.37858E+02 7.12771E+00 2.67581E+01 6.05762E+00-9.82117E+00
 -1      3216-1.88134E+02-2.04274E+02 1.07184E+00-2.48578E+01 3.47796E+01-4.21400E+00
 -1      3217-1.25413E+02-1.69606E+02 3.33024E+01 5.08021E+01 1.66756E+01-1.66445E+01
 -1      3218-4.25100E+01-1.09293E+01 9.70442E+00 6.65832E+00 4.50535E+01-1.12855E+01
 -1      3219-6.25621E+01-6.49606E+01 1.45413E+01 2.04113E+01 1.22980E+01-3.89480E+00
 -1      3220-1.79024E+02-3.97944E+02 4.75671E+01 1.51289E+02 9.57961E+00-1.03350E+01
 -1      3221-4.82840E+01 5.10918E+01 1.55460E+01-2.08678E+01 2.48706E+01-1.05939E+00
 -1      3222-9.34677E+01-1.10881E+02 3.31359E+00-3.84577E+01 4.97911E+01-8.34502E-01
 -1      3223-1.27542E+02-7.81918E+01-9.54985E+00-4.32163E+01 2.46896E+01-3.63905E+01
 -1      3224-1.00154E+02-1.25253E+02 5.98987E+01 1.60084E+01 6.08661E+01 9.72568E+00
 -1      3225-6.64324E+01-4.39732E+01 2.00694E+01-1.20893E+01 2.74511E+01 1.41462E+01
 -1      3226-3.42243E+01-9.03296E+01 1.29373E+01-1.18208E+01 8.12532E+01-2.89576E+01
 -1      3227 2.84923E+01 3.94620E+01 2.07186E+01-6.31148E+01 1.36809E+01-3.08150E+01
 -1      3228-2.24631E+01-1.09186E+01-2.75243E+00-3.29013E+00-3.26772E+00 1.03870E+00
 -1      3229 3.36072E+00 3.18503E+00 2.85761E+00-7.86990E-01-3.21090E+00 3.94494E-01
 -1      3230 4.56666E+00-1.39506E+00-4.56815E-01 3.61256E+00 3.59035E+00-1.59828E+00
 -1      3231-5.33942E+00-6.99586E+00-4.39939E+00-4.45740E-01-4.77416E+00-2.95140E+00
 -1      3232-7.68906E-02 2.35327E+00 2.57766E+00-2.36881E-01-1.97936E-01-3.57079E+00
 -1      3233 5.07171E+00 3.59785E+00 2.64685E+00 1.99127E+00-3.44869E+00-3.68381E+00
 -1      3234 3.70453E+00 5.05494E+00 4.15921E+00 3.05000E-01 1.16888E+00 2.49326E+00
 -1      3235 1.55153E+01 8.09901E+00 2.50087E+00 2.39380E+00 8.34663E-01-7.18986E-01
 -1      3236 3.45204E+00-5.76499E+00-1.08386E+00-4.03056E+00-3.67994E+00-1.41591E+00
 -1      3237 2.20991E+01-3.43694E+01 2.53751E-02-4.82072E+00 1.85305E+00 4.52510E+00
 -1      3238 4.69854E+00-1.76415E+01 1.73131E+00-6.66761E-01-1.61511E+00 4.99108E+00
 -1      3239 1.61712E+01-2.48216E+01 5.02003E+00-3.79370E+00 2.19514E+00 2.58853E-01
 -1      3240 1.30437E+01-1.91709E+01-3.68836E+00-7.85709E+00 4.51855E+00 1.03951E+01
 -1      3241 1.17053E+01-2.15166E+01 2.48396E+00-9.02003E-01-4.74973E+00 7.34716E-01
 -1      3242 6.26629E+00-2.25986E+01-5.07552E-01-4.27132E+00-1.70237E+00 4.88111E+00
 -1      3243 3.89828E+01-3.09740E+01 1.00169E+00-8.49158E+00 6.27894E+00-2.65689E+00
 -1      3244 2.89564E+01-3.25954E+01-2.61939E+00-7.04580E+00 1.20432E+01 9.66073E+00
 -1      3245 6.98371E+00-2.76524E+01-2.23458E+00-1.04332E+01 3.52414E+00 1.09396E+01
 -1      3246 1.57499E+01-2.79067E+01 2.71523E+00-2.12992E-02-5.07623E+00 4.88266E-02
 -1      3247 8.75803E+00-1.27952E+01 1.24094E+00-3.52002E+00-3.60050E+00 4.04665E+00
 -1      3248 1.31345E+01-2.46314E+01 3.97091E+00-9.02351E-01 3.34271E-01 3.35500E+00
 -1      3249-1.19316E+01-1.79448E+01-1.22767E+00-3.04093E+00-1.67095E+00 1.65958E+01
 -1      3250 3.08022E+01-2.20967E+01-1.13299E+00-7.47831E+00 1.12804E+01-5.11363E+00
 -1      3251 1.07483E+01-4.54968E+01 2.65026E+00-1.05432E+01-6.69024E+00-5.04651E+00
 -1      3252 2.39845E+01-3.42649E+01 1.49976E+00-4.40634E+00-9.21039E-01-8.64384E-01
 -1      3253 1.08796E+01-1.88455E+01-5.67112E-01-1.40340E+01-5.61017E+00 8.92796E+00
 -1      3254-5.53520E+00-2.16653E+01-3.73990E+00-8.37938E+00 2.88322E+00 1.11068E+01
 -1      3255-1.30269E+01-1.88890E+01 8.18995E-01-4.02603E-01-3.22514E+00 2.31768E+01
 -1      3256 8.60958E+00-1.83789E+01-4.62985E+00-1.00210E+01-5.90984E+00 8.16076E+00
 -1      3257 9.34317E+00-2.13092E+01 1.92880E+00-6.19283E+00-6.02954E+00-6.28772E-01
 -1      3258 1.75789E+01-1.86957E+01 2.93429E+00-1.15783E+01-1.21047E+01 2.63018E+01
 -1      3259 1.70832E+01-9.79207E+00 2.26903E+00-6.71165E+00-3.64063E+00 1.74880E+01
 -1      3260 2.47012E-01 6.32675E+00 7.09867E-01 3.86851E+00 4.27056E-02 4.80964E+00
 -1      3261 4.78320E+00 7.79829E+00 3.34802E+00 8.58546E-01-1.37364E+00 2.47063E+00
 -1      3262 2.43918E+01 1.51447E+01 1.56285E+00 3.68468E+00 2.65535E+00-1.15645E+00
 -1      3263 1.87024E+01 1.59366E+01 6.73488E+00-3.47852E+00-3.98798E+00-8.43478E-01
 -1      3264 1.10610E+00 9.16562E+00-1.23118E-01-9.19878E-01-1.55417E-01 2.81013E+00
 -1      3265 3.88322E+00 4.51125E+00 4.07251E+00 6.87741E-02-9.13851E-01 2.61010E+00
 -1      3266 1.99335E+01 2.13711E+01 5.09955E-01-1.53456E+00-3.42737E+00-4.56135E+00
 -1      3267-3.46701E+01-3.39909E+01-3.01675E+01 1.63883E-01 1.48143E+00-8.56345E-01
 -1      3268-2.43356E-01-7.33166E+00-1.29986E+00-1.96037E+00-5.13435E+00-2.63726E+00
 -1      3269 4.83052E+00 4.47038E+00 2.53380E+00-6.44234E-01 2.30567E+00 6.00587E-01
 -1      3270-2.98958E+00-3.17145E+00 7.47959E-02-1.76900E+00 2.91914E+00-3.47916E+00
 -1      3271 7.86135E+00 2.29223E+00 1.08568E+00 4.00704E-01 2.48955E+00 1.60827E-01
 -1      3272-5.07252E+00-5.78846E+00-1.62355E+00 2.11490E+00-8.53220E-02 4.77887E+00
 -1      3273 2.37126E+01 2.12852E+01 8.42717E+00-3.61315E+00-4.74367E+00-1.41846E+00
 -1      3274 2.39277E+01 2.23106E+01 2.61937E+00 6.96020E-01 5.28778E+00 5.65380E-01
 -1      3275 5.81933E+00 5.60785E+00 1.78406E+00-3.72155E-01 5.83803E-01-4.55532E+00
 -1      3276 3.25861E+00 7.28921E+00 3.82863E+00-1.60774E+00-1.49668E+00-2.14968E+00
 -1      3277-2.78901E+00-2.78960E+00 5.61454E-01-9.65225E-01-4.19613E+00 2.10059E+00
 -1      3278 1.18957E+01 1.27604E+01 7.43121E-01-3.73590E+00-2.99370E-01 3.06201E+00
 -1      3279-1.59479E-02 5.23261E+00 1.17658E+00-3.93749E+00-1.97610E+00-3.22704E+00
 -1      3280 1.24811E+00 3.12798E+00 3.44842E+00-2.36595E+00-2.16539E+00-2.45771E+00
 -1      3281-1.17594E+01-1.43362E+01-9.16015E+00 2.02173E+00 1.94469E+00 1.51850E+00
 -1      3282-8.28263E-01 2.34055E+00 1.33768E+00-3.72659E-01 1.67870E-01 3.97415E+00
 -1      3283 1.77087E+00 1.30841E+00 2.02871E+00-1.61949E-01-9.90899E-01 5.25602E+00
 -1      3284-3.93460E-01 8.41390E+00 1.40822E+00 4.92667E-01 9.65676E-01-3.24026E+00
 -1      3285 2.58677E+01 2.64310E+01 5.04999E+00-4.53647E-03-4.97688E+00 2.70107E+00
 -1      3286-1.16551E+02-7.84604E+01-2.69038E+01-1.46197E+01 4.66114E+00 7.72466E+00
 -1      3287 2.92610E+01-2.68941E+01-5.94010E+00 2.82087E+01 1.49786E+01-1.12757E+01
 -1      3288-4.78374E+00-1.03978E+00-1.33136E+00-2.21875E+01-1.10699E+01 6.71034E+00
 -1      3289 1.02465E+01-9.43886E+00-5.83010E+00-2.18485E+01 4.18529E+00 8.55741E+00
 -1      3290 1.33404E+00 2.94319E+00 1.98845E+00 2.10624E+00-2.38322E+00 3.93295E+00
 -1      3291 1.82254E+01 1.35840E+01 3.46513E+00 7.66967E-01-4.26648E+00 1.40515E+00
 -1      3292-6.17613E-02-3.37698E+00 1.43644E-01 1.17033E+00 3.65228E+00-2.30217E-02
 -1      3293-7.71886E-01-3.13397E+00 6.11326E-01 9.18945E-02 3.21704E+00-5.12125E-01
 -1      3294-2.12166E+02-9.81656E+01 1.42209E+01 5.46260E+01-2.63915E+01-3.12459E-01
 -1      3295-1.26980E+02-7.22129E+01 1.84974E+01 4.81156E+01-2.52854E+00-8.96908E+00
 -1      3296-4.56376E+01-7.74484E+01 8.68306E+00 3.71448E+01-6.95872E+00 8.01469E+00
 -1      3297-2.48475E+01-5.15920E+01 1.53846E+01 3.31932E+01 7.55272E-01-7.58277E+00
 -1      3298-2.00530E+02-9.48343E+01-2.53103E+00 3.63693E+01-3.47618E+01-2.13281E-02
 -1      3299-2.15448E+02-9.98724E+01 9.38554E+00 6.33212E+01 1.31493E-02-3.21112E+01
 -1      3300-2.66734E+02-8.80669E+01 1.53378E+00 2.13106E+01-2.68574E+01-7.93516E+00
 -1      3301-4.44584E+01-1.24245E+02 9.04979E+00-6.48398E+00-3.50838E+01-8.28803E-01
 -1      3302-2.04133E+02-1.39304E+02-9.63440E+00 3.94788E+01-3.60775E+01-2.03118E+01
 -1      3303-4.87002E+01-1.06371E+02 7.66430E+00 3.25163E+01-3.06217E+01-1.09032E+01
 -1      3304-2.05915E+02-1.37806E+02 1.63055E+01 9.48857E+01-7.74242E+00-4.14083E+01
 -1      3305-1.47414E+02-8.90764E+01 1.37304E+00 5.61586E+01-1.63085E+01-3.18556E+00
 -1      3306-9.51647E+01-3.96321E+01 1.14063E+01 4.87758E+01 1.74109E+01-2.00018E+01
 -1      3307-1.40170E+02-1.18089E+02-3.21316E+00 2.40929E+01-4.04072E+01-8.49692E+00
 -1      3308 2.30553E+01-6.52198E+01-1.08297E+00 2.05307E+01-1.94522E-01 2.34148E+00
 -1      3309-1.26768E+02-1.06534E+02 1.18153E+01 1.52937E+01-1.14941E+01-9.90716E+00
 -1      3310 5.66122E+01-8.17927E+01-3.56273E+00 2.05388E+01 2.10063E+01 1.51051E+01
 -1      3311 2.56700E+01-6.56089E+01-7.01622E+00 9.78812E+00 1.53378E+01 2.54294E+00
 -1      3312-1.56805E+01-1.45532E+02-6.08930E+00-1.67884E+00 1.17051E+01-2.48628E+01
 -1      3313-8.52116E+00-7.86513E+01 3.59129E+00 1.63499E+01 4.18256E+00-3.58964E+01
 -1      3314-1.28572E+01-1.12015E+01-6.20150E+00-3.03130E+00-1.55320E+00 1.33001E+00
 -1      3315-3.73222E+01-8.57828E+01-6.72302E+00 6.76427E-01-1.09035E+01-9.06521E+00
 -1      3316-3.90362E+01-4.21181E+01 3.56070E+00 1.01650E+01-1.53838E+01 7.53785E+00
 -1      3317 4.92200E+00 2.06889E+00 2.66252E+00 1.45216E+00 2.85711E+00 3.33450E-01
 -1      3318 2.18493E+00-5.84260E-01 6.47967E-01-1.08813E+00-3.63220E+00-3.22616E-01
 -1      3319 7.92054E+00 9.17654E+00 3.48673E+00-1.95863E+00 1.34585E+00 8.09271E-01
 -1      3320 2.03137E+01 2.62215E+01 7.26685E+00-1.66391E+00 2.72341E+00 4.13700E+00
 -1      3321 2.19633E+01 1.88198E+01 9.18929E+00-5.91703E-03 2.59701E+00 6.31306E+00
 -1      3322 3.19181E+01 2.75365E+01 3.13339E+00 5.99054E-01 2.72809E+00 7.75929E+00
 -1      3323-5.66710E+00-1.09586E+01-2.28758E+00-4.82746E-01 1.67849E+00 3.43206E+00
 -1      3324-3.71132E+01-3.64140E+01-1.77153E+01-9.02552E-01 5.31741E-01 4.93928E-01
 -1      3325 7.32336E-01 5.44786E+00-2.17829E-01 1.41845E+00-3.24787E-01 4.25972E+00
 -1      3326-2.18190E+01-2.35763E+01-1.77915E+01 1.54799E+00 7.44458E-01 2.62142E+00
 -1      3327 1.50107E+01 2.00625E+01 9.13950E+00-1.54720E+00 2.84412E+00 4.71758E+00
 -1      3328 4.84899E+00 7.25437E+00 5.30504E+00 8.62966E-01 1.71176E+00-1.73228E+00
 -1      3329 1.85655E+01 1.95978E+01 5.13136E+00-1.79770E-01-3.17276E+00 4.62547E+00
 -1      3330-7.97400E+00-6.45825E+00-1.66001E+00 1.76276E+00 2.94787E+00 1.05636E+00
 -1      3331-2.16197E+00 9.53877E-01 4.52622E+00 1.51562E-01-3.57876E+00 5.26566E-01
 -1      3332-1.19566E+00-6.10697E+00 1.36509E+00-4.94063E-01-3.66815E+00 1.22414E-01
 -1      3333 1.77518E+01 1.50771E+01 3.43027E+00-1.75882E+00-1.43111E+00 7.94880E+00
 -1      3334 2.85257E+01 2.34055E+01-1.65764E+00-1.48043E-01 3.74440E-01 9.39972E+00
 -1      3335-2.49974E+01-2.42701E+01-1.55770E+01-2.26145E+00-1.01438E+00-1.79818E+00
 -1      3336-1.20268E+01-7.55364E+00-4.41993E+00 2.22206E+00 3.83287E+00 7.66960E-01
 -1      3337-5.56924E-01 1.83942E+00 3.83279E+00-8.12777E-01-6.18442E+00-1.39310E+00
 -1      3338 9.48569E+00 1.28575E+00 1.81415E+00 5.60202E-01-3.29682E+00 7.70895E-01
 -1      3339-1.05365E+01-4.21541E+00 4.97310E-01-3.47628E-01-3.93331E+00 1.75841E+00
 -1      3340 8.73632E+00 2.02983E+00 8.46111E-01 6.81760E-01-2.70642E+00-3.14055E-01
 -1      3341 3.67624E-01-4.48798E-01 1.98505E+00 9.38321E-01-3.83525E+00 8.48489E-01
 -1      3342 1.36989E+01 5.78624E+00 3.49025E+00 1.42842E+00-2.74196E+00 4.45853E-01
 -1      3343 3.12404E+00-4.12066E+00 4.76555E-01 3.29187E+00 4.34410E+00-1.69892E+00
 -1      3344 6.30100E+00 1.39425E+00-3.70670E-01 2.99321E-01-2.58855E+00-5.65891E-01
 -1      3345-8.31561E-01-4.07768E+00 1.01646E+00 1.21874E+00-9.21187E-02 5.30247E+00
 -1      3346-4.29995E+00-3.10484E+00-1.51508E+00 1.19371E+00 5.01773E-01 4.19626E+00
 -1      3347-1.76950E+01-1.42501E+01-6.77960E+00-4.55432E+00 2.05444E+00-2.48731E+00
 -1      3348-1.36292E+02-1.51266E+02 2.68563E+01 3.62053E+01 3.37894E+00 4.06328E+01
 -1      3349-1.94278E+01-1.02635E+02 1.95212E+01 1.96729E+01-3.87469E+00 2.29942E+01
 -1      3350-3.23905E+01-8.23247E+01 2.35216E+01-1.16006E+01 9.02876E-01-1.64306E+01
 -1      3351 3.21168E+01-6.85806E+01 1.84699E+01-7.87847E+00 9.96442E+00-4.88104E+00
 -1      3352-1.07266E+02-1.66811E+02 2.76981E+01 1.94751E+01-2.10494E+01 3.02113E+01
 -1      3353-6.10638E+01-1.13898E+02-6.89449E+00 2.70079E+01 3.28637E+00 7.89154E+01
 -1      3354-5.32226E+01-1.33483E+02-9.90752E+00-3.60306E+00 2.18743E+01 4.41823E+01
 -1      3355-9.46178E+00-9.61082E+01 1.29029E+01 2.85104E+01 7.30477E+00 2.32784E+01
 -1      3356-1.25295E+02-2.36265E+02 1.54521E+01-2.70665E+00-3.98552E+01 1.41870E+01
 -1      3357-1.12975E+02-1.05389E+02 2.76920E+01-4.74306E+01 8.54195E-01-1.63282E+01
 -1      3358-2.21874E+02-1.48287E+02 4.24269E+00-3.84227E+01-8.29597E-01 2.20746E+01
 -1      3359-1.34464E+02-1.60582E+02-2.13291E+01 6.53432E+01 4.24065E-01 7.90279E+01
 -1      3360-1.09875E+02-1.46143E+02 4.77594E+01-2.49572E+01 8.65556E+00-2.37616E+01
 -1      3361-6.41333E+00-4.71898E+01 1.06288E+00-3.20464E+01-1.89512E+00 8.68557E-01
 -1      3362-1.11672E+01-1.24937E+02 3.12567E+01 1.27648E+01-1.52583E+01 2.11755E+01
 -1      3363-4.39165E+01-6.70747E+01 2.04369E+01-7.89725E+01-5.96626E+00-1.55831E+01
 -1      3364 5.10876E+00-5.36788E+01 7.25348E+00-4.75261E+01-1.41621E+00-2.24117E+01
 -1      3365-1.42935E+02-1.80965E+02 2.69648E+01 1.09209E+00-6.98798E+00 4.37916E+01
 -1      3366-8.74749E+01-1.32454E+02-2.83448E+00-3.32438E+01 4.44462E+00 2.57627E+01
 -1      3367-8.28549E+01-7.54567E+01 2.08383E+01-8.13533E+01-6.68779E+00-3.34134E+01
 -1      3368-1.85817E+01-5.86160E+01 1.91046E+01-5.14478E+01-3.42632E+01-1.63428E+01
 -1      3369-8.29979E+01-8.57776E+01-1.01319E+01-1.16364E+01-1.70180E+01 3.80745E+01
 -1      3370-1.01292E+01-7.87964E+00-2.19719E+00 2.39431E+00-2.90661E+00-2.22551E+00
 -1      3371 4.40993E+00 6.12958E+00 3.35731E-01 8.40543E-01-1.91127E+00 1.36380E+00
 -1      3372 9.33659E+00 1.16454E+00-3.82406E+00-2.77689E+00-2.54315E+00 8.64567E+00
 -1      3373-9.42087E+00-6.32549E+00-3.99514E+00 1.31852E+00 1.51773E+00 2.18883E+00
 -1      3374 1.42130E+00 8.05163E+00 9.30866E-02 2.08895E+00 9.50570E-01-1.72196E+00
 -1      3375-3.33770E+00 1.93494E+00 1.89127E+00-4.81904E+00 9.45883E-01 4.33610E+00
 -1      3376 8.58157E+00 5.31008E+00 3.00348E+00-1.87111E+00-2.68395E+00-4.27932E-01
 -1      3377 3.64975E+00 3.84202E+00 1.73420E+00 1.31010E+00-2.28530E+00 1.97987E+00
 -1      3378 3.55696E+01 3.33563E+01 5.24509E+00-1.05225E+00 2.65820E+00-5.46208E+00
 -1      3379 1.71825E+01 2.07558E+01 6.48949E+00 1.48551E+00 2.66220E+00-3.08611E+00
 -1      3380 1.49993E+01 1.68641E+01 5.96005E+00-5.97041E-01-1.49731E+00-4.07563E+00
 -1      3381 3.26987E+00 5.24681E+00 2.65826E+00-1.20221E+00 3.85896E+00-3.02046E+00
 -1      3382 1.85307E+01 1.98167E+01 3.55007E+00-4.74350E+00 1.10386E+00 2.65921E+00
 -1      3383-4.07436E+00 3.28299E+00-1.43498E+00 2.70175E+00 1.89556E+00-3.06895E+00
 -1      3384 2.79078E+01 2.51451E+01 8.58484E+00-2.91478E-01-2.40826E+00-6.10789E+00
 -1      3385 3.07192E+01 2.95219E+01 9.07885E+00-1.99865E+00 3.24343E+00-5.41588E+00
 -1      3386-2.17910E+00 5.39843E+00 8.51366E-01-8.86050E-01-3.95002E-01 5.25002E+00
 -1      3387 2.32432E+01 2.66106E+01 4.42729E+00-1.24631E+00-2.41962E-02-5.33774E+00
 -1      3388 1.00979E+01 9.39620E+00 2.67521E+00 1.59251E+00 4.11248E+00-1.29687E+00
 -1      3389 9.29417E+00 5.05332E+00 3.67086E+00 3.59042E-01-2.73863E+00 6.99694E-01
 -1      3390-1.76145E+01-1.36007E+01 1.21804E+01-7.80268E+00 2.04785E+01-1.52054E+01
 -1      3391-6.12097E+01-1.54057E+02 2.16019E+01 2.94655E+01 3.09732E+01 6.34087E-01
 -1      3392 1.06198E+00 1.95019E+00 6.22908E-01-6.09221E-02-9.20524E-01-1.36289E+00
 -1      3393 3.87019E+00 3.49541E+00 8.17167E-01-2.28206E+00-2.42208E+00-2.33467E+00
 -1      3394 1.79416E+01 2.25878E+01-7.23652E-01 7.96743E-01 1.79220E+00-4.68149E+00
 -1      3395 2.43287E+00-7.92736E+00-2.02660E+00-4.14337E+00-5.67060E+00-2.79679E+00
 -1      3396 3.57697E+00 4.46446E+00 9.80044E-01-1.52178E+00 3.04117E+00-2.83655E+00
 -1      3397 1.25930E+01 1.32125E+01 4.80691E+00-4.00164E+00 3.01938E-01 1.01588E+00
 -1      3398-1.55345E+01-1.14245E+01-1.02176E+01 8.85384E-01 2.45312E+00 1.42265E+00
 -1      3399 7.98922E+00 6.60072E+00 2.83336E+00-6.25759E-01 3.23880E+00 1.59298E+00
 -1      3400 2.72303E+01 2.58394E+01 3.90290E+00-3.69058E-02 5.55243E+00-1.25905E+00
 -1      3401-1.20460E+01-1.45014E+01-5.01436E+00 3.26987E+00-1.15987E+00-1.32929E+00
 -1      3402 7.29903E+00 3.71929E+00 2.96758E+00 2.64091E-01-2.64540E+00 9.94185E-01
 -1      3403-3.89337E+00-3.64674E+00-1.50019E+00 7.69915E-01 1.45614E+00 3.51656E+00
 -1      3404 3.13911E+00-1.29293E+00 4.39723E+00-1.33497E+00-5.76805E-01 2.97140E+00
 -1      3405 1.97036E+01 2.00318E+01 3.85211E+00-4.04997E+00-1.38597E+00 1.51037E+00
 -1      3406-8.03167E+00-8.68993E+00-1.61291E+00-2.52003E+00 1.67441E+00-2.05132E+00
 -1      3407 7.52008E+00 7.58223E+00 1.73659E+00 1.89862E+00 3.41863E+00-8.01841E-01
 -1      3408-5.59137E+00-6.99864E+00-3.35267E+00-2.03413E+00-9.86711E-01 3.73445E+00
 -1      3409-2.66759E+01-2.30403E+01 9.86653E+00-4.97524E+00 5.79851E+00 1.18275E+01
 -1      3410-1.22302E+02-2.81041E+01 2.13578E+01-3.71008E+01-9.75005E+00-1.82748E+00
 -1      3411 4.39903E+00 7.72390E+00 2.27872E+00-1.96562E+00-1.03951E+00-1.46862E+00
 -1      3412 1.01729E+01 3.24350E+00 4.50527E+00-9.55372E-01-5.44844E-01 4.44726E+00
 -1      3413 1.05251E+01 3.15415E+00 2.37472E+00-2.62270E+00-3.26860E+00-3.42991E-01
 -1      3414-7.94359E+00-1.03588E+01-6.36263E+00 1.62373E+00 1.14940E+00-3.87435E+00
 -1      3415 3.80013E+00 3.61146E-01 2.22940E+00-7.90065E-01-3.98898E+00-1.06934E+00
 -1      3416-7.33617E+00-6.16652E+00-3.04201E+00 7.83328E-01-2.60587E+00-1.84673E+00
 -1      3417 1.31536E+01 5.49870E+00 3.20096E+00-2.59207E+00-3.16568E+00-6.93540E-01
 -1      3418 1.52311E+01 1.38594E+01 4.31677E+00-1.05596E+00 3.34344E+00 2.63672E+00
 -1      3419 1.12235E+01 1.35144E+01 5.26769E+00 4.64555E-01 1.25246E+00 3.61194E+00
 -1      3420-4.16603E+00 2.03759E+00 1.14790E+00 1.95213E+00-6.81980E-01 4.11402E+00
 -1      3421 1.30192E+00 7.17945E-02 5.18220E-01 1.18550E+00-2.35956E+00 1.40327E+00
 -1      3422 5.98708E+00-1.47525E-01 1.07164E+00-5.60702E-01 4.36241E+00-1.69717E-01
 -1      3423 6.11652E+00 4.17285E+00 2.11526E+00 2.17384E+00 1.16204E+00-2.50934E+00
 -1      3424 6.82742E+00-2.00125E+00 3.08580E-01-3.09443E+00-3.48444E+00-8.70317E-01
 -1      3425 2.95194E+00-3.75046E-01 2.07372E+00 1.85458E+00 2.05219E+00-1.72417E+00
 -1      3426-1.26513E+01-1.55670E+01-1.02156E+01 2.41910E+00-8.50191E-01-2.14965E+00
 -1      3427-2.33091E+01-2.98861E+01-2.16989E+01 3.52929E+00 4.94809E+00 4.00548E+00
 -1      3428-2.98213E-01 1.91782E-01 1.51681E+00-3.27594E+00-3.15773E+00-3.00679E+00
 -1      3429 3.47346E+00 6.89770E+00 3.38740E+00-3.36110E-01 9.38235E-01 2.45154E+00
 -1      3430-2.81540E+01-3.00393E+01-1.92565E+01-8.86728E-03-9.65039E-01-1.51988E-01
 -1      3431 4.12304E+00 3.54949E+00 4.56587E+00 6.23388E-01-1.40746E-01-1.49099E+00
 -1      3432 6.51872E+00 3.95483E+00 5.35623E+00-1.42749E+00-6.54955E-01 5.28746E+00
 -1      3433 4.02993E+00-3.91643E+00 1.25305E+00-2.05451E+00-6.96628E-01 3.67918E+00
 -1      3434-1.02597E+00 4.02719E+00 2.41714E+00 1.86776E+00 2.26721E+00-3.60557E+00
 -1      3435 2.59915E+01 3.16212E+01 2.33213E+00-3.71438E+00-1.91644E+00 2.91610E+00
 -1      3436 3.33610E+00 6.06637E+00 4.09545E+00 2.98526E-01 4.06325E-01-2.67515E+00
 -1      3437-2.22646E+01-3.32652E+01-1.60164E+01-3.74090E+00-2.09751E+00-6.84586E+00
 -1      3438 5.72666E+00 6.54003E+00 3.17754E+00 3.21741E+00 1.65156E+00-2.20232E+00
 -1      3439-3.68434E+00-1.80212E+00 2.53699E+00 1.07728E+00 1.51371E+00-5.45886E+00
 -1      3440 2.46600E+01 3.41201E+01 3.53019E+00-2.65290E+00-5.59997E+00 4.20201E+00
 -1      3441 6.11070E+00 5.70203E+00 2.33317E+00 2.60902E+00 1.62011E+00-1.09690E+00
 -1      3442 2.86039E+00 7.46629E+00 2.90645E-02 2.21501E+00-5.35276E-01 2.42981E+00
 -1      3443 2.49258E+00 4.93440E+00 1.55655E+00 5.88131E-01-4.72011E-01 2.46134E+00
 -1      3444-4.46256E+00-9.60013E+00-2.58827E+00 5.26127E-01 1.58657E+00 4.88377E+00
 -1      3445-3.55993E+01-2.89379E+01-4.72068E+00-2.96989E+00-1.58349E-01-2.20294E+00
 -1      3446 5.40623E+00 9.42004E+00 3.06945E+00 7.08344E-01-1.50746E+00 2.35828E+00
 -1      3447 1.38751E+01 1.12864E+01 1.61628E+00-3.74175E-01 2.91337E+00-2.07925E+00
 -1      3448-6.73843E+00-9.94423E+00-2.08854E+00 1.54705E+00 5.49888E-01-3.59961E+00
 -1      3449 2.58768E+01 1.69469E+01 8.38642E+00 5.52208E+00 4.30449E+00 2.55379E+00
 -1      3450 1.85330E+01 1.64567E+01 8.21997E-01 2.51117E+00-3.32542E+00 3.79183E-01
 -1      3451 1.00735E+01 1.32844E+01 4.55957E+00 1.05472E-01 4.26531E+00 1.48787E+00
 -1      3452 1.52460E+01 1.84261E+01 3.01910E+00-1.88003E+00-1.52751E+00-2.96553E+00
 -1      3453 2.86759E+01 3.44188E+01 2.84342E+00-8.23082E-01 6.39978E+00-2.95095E+00
 -1      3454-1.95226E+00-2.81625E+00-2.22828E+00 2.57117E+00 3.26363E+00-4.64568E+00
 -1      3455-9.64121E+00-1.10469E+01-6.85015E+00-3.62256E+00 3.95443E+00-2.52628E+00
 -1      3456-1.85541E+01-1.25144E+01-9.40927E+00-1.03390E+00 2.47901E+00 1.25285E+00
 -1      3457 1.67627E+00 6.79479E+00-5.34412E-01 1.67397E+00 1.42192E+00-1.28774E+00
 -1      3458 4.42178E+00 1.79657E+00 1.82990E+00-1.35253E+00 2.46440E+00 1.35625E+00
 -1      3459-2.08026E+01-1.00830E+01 6.96222E+00-6.50015E-01-5.91738E-01 4.32152E-01
 -1      3460-8.74901E-01-4.75846E+00-6.87255E-02-2.15506E+00 4.63870E+00 1.10184E+00
 -1      3461 5.58952E+00 1.19525E+00-1.20595E-01 4.52794E+00 2.83216E+00-1.04856E+00
 -1      3462 1.19381E+01 8.96730E+00 3.93401E+00 4.14972E+00 3.07356E+00-1.20515E+00
 -1      3463 1.53493E+01 9.54185E+00 3.84989E+00 3.98651E+00 2.34326E+00-1.02779E+00
 -1      3464-1.66653E+00-5.09292E+00-1.13650E+00 1.00579E+00 1.13025E+00 3.38156E+00
 -1      3465-3.13604E+00-1.76357E-01-1.27643E+00 3.21234E+00 3.17169E+00-2.70387E+00
 -1      3466 2.06383E+01 2.42429E+01 2.28943E-01-1.53500E+00 5.01192E+00 3.71741E+00
 -1      3467-2.37938E+00 1.43575E+00 4.10303E-03 2.35859E+00-1.61871E+00 3.75344E+00
 -1      3468 2.32309E+01 2.38264E+01 8.22394E+00 2.54308E+00 5.96487E+00-6.05184E-01
 -1      3469-6.78232E+00-8.06280E+00-6.40331E+00-2.64437E-01-1.34472E+00-3.43851E+00
 -1      3470-4.58259E+01-4.48955E+01-2.15588E+01 3.10980E+00-1.01742E+00-9.71142E-01
 -1      3471-7.78056E+00-8.96089E+00-4.86918E+00-2.65874E+00 3.43902E+00-9.70720E-01
 -1      3472-1.27408E+01-8.57489E+00-4.95199E+00 1.27920E+00-2.36685E+00-1.37957E+00
 -1      3473 1.48864E+01 1.07780E+01 4.45390E+00 1.64864E+00-3.77212E+00-1.07437E-01
 -1      3474 3.31134E+00 6.78692E+00 9.97253E-01-1.17672E+00 7.46438E-01 1.95123E+00
 -1      3475-1.01947E+01-1.13026E+01-7.13357E+00 1.43025E+00 1.52849E+00 2.49525E+00
 -1      3476 3.11019E+00 5.28955E+00 4.73798E+00-2.26624E-02 1.16124E+00 2.19821E+00
 -1      3477 3.16655E+00-1.92267E+00-1.18188E+00 2.02575E+00 4.62412E+00-1.24187E+00
 -1      3478 3.10591E+00 8.62121E-01 1.32378E+00-1.81988E+00 3.40143E+00 1.27450E+00
 -1      3479-5.33707E+00 4.04384E-01-5.28656E-01 4.43501E+00-8.91812E-01 5.13656E+00
 -1      3480 2.08714E+01 2.21940E+01 4.52219E+00-8.00155E-01 1.44711E+00 4.34851E+00
 -1      3481 7.55372E+00 5.29886E-01-1.07738E+00 2.41341E+00 3.12823E+00-1.19153E+00
 -1      3482-6.50205E+00-1.00237E+01-5.18643E+00-1.45494E+00 2.27603E+00-2.79309E+00
 -1      3483-3.57723E+00 3.32705E+00 2.35208E+00 9.61884E-01 2.55277E+00-6.57486E+00
 -1      3484 1.43464E+01 1.64838E+01 6.19218E+00 1.43245E+00 1.47229E+00-1.32870E+00
 -1      3485 1.47399E+00 4.17088E+00 1.11461E+00 3.83385E+00 3.44503E+00-3.38854E+00
 -1      3486-4.68499E+01-4.68530E+01-1.51522E+01 1.55720E+00-1.85459E-01-2.10699E+00
 -1      3487-5.47736E+00-6.75772E+00-4.08143E+00-1.05125E+00 2.24852E+00-2.63663E+00
 -1      3488 2.13996E+01 2.75786E+01 7.33817E+00 3.95011E-01 5.90767E+00 5.62235E+00
 -1      3489-9.99191E+00-6.57383E+00-1.69311E+00 4.75251E-01 3.76336E+00-9.83624E-01
 -1      3490 2.12213E+01 1.56742E+01 5.78293E+00 4.41642E+00 3.39171E+00 2.65825E+00
 -1      3491 1.86113E+00 3.54626E-01 2.51331E+00-6.54132E-01-2.57433E-01-2.51649E+00
 -1      3492 2.25644E+00-5.48724E+00 2.61633E+00-9.38903E-01-5.29829E+00-1.51172E+00
 -1      3493 1.86541E+01 1.51048E+01 6.05637E+00-3.27926E+00-1.51525E-01-3.53228E+00
 -1      3494-4.68074E+00-4.20699E+00-5.47040E-01-4.66418E-02-4.92364E+00-1.03312E-01
 -1      3495 5.74653E+00 4.68204E+00-7.30518E-01-2.59783E-02 2.64057E+00-3.52036E+00
 -1      3496-1.19743E+00-5.83658E+00-4.53794E-01-2.30250E+00-4.58793E+00-1.87226E+00
 -1      3497 2.55673E+00-6.30916E-01 8.50906E-02 6.60024E-01-1.41860E+00-5.44440E+00
 -1      3498-5.42619E+00-4.42217E-01-7.49620E-01-7.73912E-01-1.22871E+00-4.70199E+00
 -1      3499-4.39127E+00-7.79786E+00-3.86024E+00-1.23082E-01-5.51133E-02-4.48879E+00
 -1      3500-9.40244E-01-5.29947E+00 6.75245E-02 1.25277E+00-6.55433E-01-4.63181E+00
 -1      3501-7.27495E+00-9.25313E-01-7.73835E-01 1.33044E+00 1.34271E+00-4.77065E+00
 -1      3502-5.44682E+00-6.31993E-02 1.44726E-01 6.81185E-01 9.81114E-01-6.43954E+00
 -1      3503-4.00050E+00-4.15999E+00-1.38052E+00-3.73328E-01 2.86184E+00-3.43726E+00
 -1      3504 3.59036E+00-4.11091E+00 1.83889E+00-1.41056E+00 6.66641E+00 3.30312E-02
 -1      3505-9.58723E+00-2.03999E+00-4.83116E+00 1.07591E+00 4.21120E+00 2.10789E+00
 -1      3506-4.38980E+01-4.69324E+01-2.37379E+01-2.18713E+00 4.84629E+00-1.76407E+00
 -1      3507 9.28849E+00 2.70051E+00 1.66835E+00 2.13888E-01 1.78901E+00-2.63508E-01
 -1      3508-2.18292E+01-1.57416E+01-5.93751E+00-5.21731E+00 3.72317E+00-2.79775E+00
 -1      3509 7.84513E+00 8.50663E+00 7.65984E+00 8.88234E-01-1.77691E+00-9.44886E-01
 -1      3510 5.36932E+00 4.24502E+00 6.04712E+00 1.14184E+00 4.99258E+00 2.52488E+00
 -1      3511 1.26023E+01 1.35995E+01 2.73661E+00-4.42882E+00 5.52743E-01 2.88702E+00
 -1      3512-2.37367E+01-2.93165E+01-4.51734E+00 8.86630E+00 8.72040E-01-7.15125E+00
 -1      3513 2.35859E+01 2.20378E+01 5.15605E+00 5.98655E-02-5.33009E+00 2.25544E+00
 -1      3514 1.96888E+01 1.82837E+01-1.07888E+00-4.25617E+00 1.22839E-01 4.55235E+00
 -1      3515 1.31359E+00-2.10993E+00-1.10180E+00-1.96446E+00 4.32392E+00 8.80833E-01
 -1      3516-7.13632E-02 7.00972E-01-3.19928E+00-2.54155E+00 2.63231E+00 2.13063E+00
 -1      3517-5.81880E+00-4.28695E+00-6.41349E+00-1.02434E+00 3.31806E+00 4.14643E+00
 -1      3518 8.51607E-01-1.40218E+00 1.18664E+00-4.31775E+00-2.68802E+00-3.59675E+00
 -1      3519-6.80559E+00-4.24949E+00-3.46453E+00-5.88993E-01 4.25867E+00 1.68001E+00
 -1      3520 1.70096E+00-2.52486E+00 9.42947E-01-7.33760E+00-2.83207E+00-3.85589E+00
 -1      3521-2.19069E+00 1.35896E+00 1.91272E-02-2.09422E+00 1.73861E+00 3.87944E+00
 -1      3522 2.52066E+00-8.00659E+00-1.14213E+00-6.26920E+00 1.16060E+00-1.07088E+00
 -1      3523 9.71802E+00 7.50591E+00 8.85500E+00 2.57811E-01-2.07907E+00 1.91555E-01
 -1      3524 5.81631E+00 1.27538E+01 7.95531E+00 3.40160E+00-5.34454E+00-7.62572E-01
 -1      3525-4.18105E+00-9.36253E+00-4.09016E+00-1.51471E+00-1.87813E+00 2.60883E+00
 -1      3526 2.71914E+01 2.26091E+01 8.47310E+00 1.81063E+00-1.49655E+00-4.51799E+00
 -1      3527 1.04840E+01 1.19546E+01 3.59342E+00-3.65981E+00 1.01560E+00-5.05429E-01
 -1      3528 3.47589E+01 2.63158E+01 1.07607E+01 1.23828E+00-2.40180E+00-9.70537E+00
 -1      3529 2.24205E+01 2.13948E+01 6.63938E+00-7.68579E-01-6.12570E+00 4.94092E+00
 -1      3530 3.22530E+00 7.89509E+00 1.71750E+00 7.22947E-01-7.26736E-01 2.46149E+00
 -1      3531-6.23931E+00-4.44397E+00-4.32432E+00 1.38970E+00 4.03313E+00 1.69130E+00
 -1      3532 2.80629E+00 2.15347E+00 2.14281E-01-3.39619E+00 1.10207E+00 1.96964E+00
 -1      3533-1.98295E+01-1.85826E+01-1.15428E+01 3.74166E+00-3.50401E+00-3.25145E+00
 -1      3534-4.04209E-01-3.66345E-01 1.57624E+00 7.04733E-01 1.90034E+00-2.72984E+00
 -1      3535-3.04548E+01-2.75883E+01-2.03103E+01 5.34695E+00-6.04784E+00-3.09331E-02
 -1      3536 7.22240E+00 7.75748E+00 2.59098E+00-2.39076E+00 3.02097E-01 3.22071E+00
 -1      3537-9.55609E+00-9.98991E+00-5.76198E+00 1.61640E+00 2.44161E+00 1.59761E+00
 -1      3538-1.66290E+01-1.50860E+01-6.03518E+00 4.61521E+00 2.32382E+00 1.32050E+00
 -1      3539 1.06963E+01 1.20551E+01 5.28845E+00-2.74652E+00 2.90816E+00 8.30225E-01
 -1      3540 1.65241E+01 1.79040E+01 8.77934E+00-3.39261E+00 2.17922E+00 1.03179E+00
 -1      3541-4.42077E+01-4.35412E+01-1.37124E+01 1.69528E+00 1.06287E+00 5.90072E-01
 -1      3542-1.04510E+01-1.33461E+01-5.52111E+00-3.94298E-01 3.24754E+00-5.32157E+00
 -1      3543 7.53806E+00 6.31284E+00 6.97671E+00-1.89215E+00-1.49160E-01 3.34032E+00
 -1      3544 6.02381E+00 6.04787E+00 7.52385E+00 2.30910E+00 2.85345E+00 3.10733E+00
 -1      3545 1.37088E+01 1.50554E+01 1.27868E+00-3.44117E+00 2.86838E+00 2.47401E-01
 -1      3546-2.07855E+01-1.67373E+01-1.39241E+01 3.91980E+00 2.27503E+00 2.13483E+00
 -1      3547-2.65761E+01-2.50852E+01-1.26328E+01 7.23895E+00 2.07350E+00 4.04953E+00
 -1      3548-3.01283E+01-3.27562E+01-2.59466E+01 3.96820E+00 1.22985E+00 3.41404E+00
 -1      3549 1.32171E+01 1.17559E+01 1.36233E+01-7.32629E-01 2.11543E+00-4.20448E+00
 -1      3550 4.51457E+00 7.77850E+00 4.97805E+00-7.25479E-01-5.48376E+00-2.56718E-01
 -1      3551 1.86321E+01 1.61638E+01 4.49018E+00 2.92786E-01-3.57144E+00 2.67512E+00
 -1      3552 3.24245E+01 3.68456E+01 4.42097E+00 3.21578E+00-5.05379E+00-3.85127E+00
 -1      3553 8.74045E+00 1.41372E+00 4.99645E-01-2.80989E+00 2.51790E+00 2.58084E-01
 -1      3554-1.52861E+01-1.08011E+01-1.21879E+01-3.86777E-01 4.29930E+00 3.14846E+00
 -1      3555 2.83659E+01 2.29086E+01 9.50686E+00 2.00267E+00-4.46011E+00 8.05092E-01
 -1      3556-1.95860E+01-3.43159E+01-1.03690E+01 2.49079E+00-2.02148E+00-5.34902E+00
 -1      3557 9.65486E+00 6.94849E+00 3.33808E+00 2.81609E+00-4.75795E+00-4.42136E+00
 -1      3558-1.60615E+01-9.90704E+00-8.93378E+00 2.17467E+00-5.30978E+00 4.44688E+00
 -1      3559-5.50649E+00-4.80856E+00-2.17350E+00 2.79447E+00 3.18007E+00-3.48555E+00
 -1      3560-2.77666E+01-2.34067E+01-1.55007E+01-5.82246E+00-4.23865E+00 1.63503E+00
 -1      3561 2.90628E+01 2.68875E+01 8.64909E+00-1.16233E-01-5.39176E+00 2.78392E+00
 -1      3562-7.22188E+00-1.11219E+01-2.48544E+00 1.20067E+00 7.85269E-01 2.67251E+00
 -1      3563-3.37704E+00-3.32210E+00-1.45482E+00-4.11433E-01-1.76331E+00 3.37343E+00
 -1      3564-7.67281E+00-9.76721E+00-4.64209E+00-1.83614E+00-2.06452E+00 2.02347E+00
 -1      3565 5.46484E+00 1.00065E+01-8.62610E-01 3.25534E+00-2.44360E+00 1.32359E+00
 -1      3566 2.37008E+00-1.39077E+00 8.74140E-02 1.71071E+00-3.83196E+00 2.80029E+00
 -1      3567-2.48472E+01-1.50265E+01-1.18542E+01 2.67795E-02 4.86746E+00-7.61074E-02
 -1      3568 5.14170E+00 6.66166E+00 6.13210E+00 1.11689E+00 5.45843E-01-2.52395E+00
 -1      3569-1.49350E+01-1.27214E+01-4.44057E+00 3.96528E+00 2.54275E+00 2.87168E+00
 -1      3570-8.10730E+00-1.06083E+01-2.23124E+00-2.56597E+00-3.47498E+00 2.42206E+00
 -1      3571 6.17027E+00 4.37959E-03 3.12703E+00 1.74601E+00-3.38055E+00 2.55321E+00
 -1      3572-2.52452E+01-2.73600E+01-1.95574E+01 2.00442E+00-5.15139E-01 2.55870E+00
 -1      3573-7.61413E+00-6.60431E+00-5.03042E+00 7.53005E-01 1.96807E+00 1.59130E-01
 -1      3574-1.93687E+01-1.50747E+01-1.32617E+01 3.09093E+00-2.37259E+00-2.35991E+00
 -1      3575-5.14147E+00-3.53312E+00-2.11839E+00-2.45395E-01-3.48935E+00-1.02984E+00
 -1      3576 1.12245E+00 3.99622E-01 1.45989E-01 3.09656E-01 3.13826E+00-1.55126E+00
 -1      3577 3.12720E+01 3.08719E+01 6.32378E+00 3.80627E+00-4.36201E+00 1.82314E+00
 -1      3578-3.73998E+01-3.10033E+01-2.19928E+01-6.76013E+00 2.77195E+00-2.75535E+00
 -1      3579 1.97490E+00 6.92569E-01 2.10357E-01-9.16670E-01 2.66984E+00-3.86295E+00
 -1      3580-1.64087E+01-2.34567E+01-1.03887E+01 4.52648E+00 3.59032E-02-3.87046E+00
 -1      3581 5.74057E-02 9.08290E-01-2.50015E-01 1.71280E+00-5.54675E+00-1.17365E+00
 -1      3582-2.58303E+00-1.23226E+00-4.57462E-01 3.44810E+00 3.27998E+00-3.98537E+00
 -1      3583-5.81799E-01-1.42077E-01-3.30345E+00 1.95059E+00 2.81674E+00 4.19190E+00
 -1      3584-4.66804E+01-3.13243E+01-2.90612E+01 2.91651E+00-6.06175E+00-3.59555E+00
 -1      3585-3.52725E+01-1.40431E+01 7.53881E+00-2.35025E+01-6.19688E+00-1.37941E+00
 -1      3586-1.84498E+01-1.50769E+01 4.27055E+00-1.44547E+01-3.82866E+00 4.86165E+00
 -1      3587-1.62489E+01-7.00631E+00 9.34129E-01-1.03440E+01-7.46797E+00 1.74238E+00
 -1      3588-4.69366E+01-2.96130E+01 5.05955E+00-1.57207E+01 1.10931E-01 1.68935E+01
 -1      3589-2.52956E+01-2.33201E-01 1.06740E+00-9.58573E+00-5.84716E+00-4.97334E+00
 -1      3590-1.50087E+01 5.58547E-01-5.93639E+00-8.35264E+00-8.14719E+00-6.66425E+00
 -1      3591-3.14434E+01-1.93590E+01-1.66924E+01-4.01149E+00-2.29115E+01-8.04918E+00
 -1      3592-4.61367E+00-1.30814E+00-2.13660E+00-9.32403E+00-1.60338E+01-1.97103E+00
 -1      3593-3.32428E+01-2.47138E+01-1.12744E+01 2.96008E-01-1.88274E+01 3.24817E+00
 -1      3594-1.68550E+01 1.52226E+00 2.61374E+00-8.78320E+00-8.55239E+00 6.90937E+00
 -1      3595-5.69930E+01-4.31328E+01-4.49747E+00 1.36807E+01-6.52803E+00 2.45633E+01
 -1      3596-1.70547E+01-1.39141E+01-1.57488E+00-8.52965E+00-4.74089E+00 9.32676E+00
 -1      3597-2.39602E+01-3.96101E+00-4.39248E-01 1.81019E+00-1.20748E+01 1.22064E+01
 -1      3598-3.84768E+01-3.63299E+01-1.89997E+00-9.58539E+00-1.96452E+01 8.99645E+00
 -1      3599-5.35501E+01-3.47191E+01-5.97181E+00 2.36541E+01-2.77805E+01 2.18519E+01
 -1      3600-1.96386E+01-1.39909E+01 9.22501E+00 8.96743E+00-2.95749E+01 1.20048E+01
 -1      3601-1.47704E+01-1.71267E+01 1.42247E+00-1.19496E+01-1.54379E+01 8.18315E+00
 -1      3602-5.70863E+01-6.84461E+01 2.80932E+00 3.53870E+01-4.12513E+01 5.43531E+00
 -1      3603-3.87016E+01-3.76955E+01 5.03028E+00-3.50912E-01-1.29259E+01 2.81927E+00
 -1      3604-1.86068E+01 6.02999E+00 1.07788E+01 3.03592E+00-2.24623E+01 3.16329E+00
 -1      3605-5.63043E+01-4.07850E+01 1.42930E+01 2.34308E+01-3.98394E+01-3.94017E+00
 -1      3606-1.79368E+01-8.07245E-01 1.08540E+01 2.48681E+00-1.44296E+01-8.25678E+00
 -1      3607 7.24908E+00 4.53085E-01 8.27456E-03 1.83838E+00-2.16463E+00 6.63054E-01
 -1      3608 6.44973E+00 4.25064E+00 9.98595E-01 1.33258E+00-2.47147E+00 5.01382E-01
 -1      3609-4.49460E+00-4.29131E+00-2.09642E+00 2.70468E-01-1.21434E+00 4.64519E+00
 -1      3610-4.86521E+01-4.62842E+01-2.73361E+01 2.49362E+00 2.76850E+00-2.18120E+00
 -1      3611-6.93895E+00-5.87339E+00-2.23612E+00-1.99884E+00-2.59490E+00 4.17488E+00
 -1      3612-3.01766E+01-2.71601E+01-2.43755E+01 8.85069E-01-1.17687E+00 1.23248E+00
 -1      3613 4.39744E+00 4.73930E+00 5.08017E+00 1.46302E+00-2.22726E+00-2.59235E+00
 -1      3614 5.46752E+00 7.20670E-01 3.32574E+00 8.11906E-01 1.17406E+00 3.77298E+00
 -1      3615 5.75729E-01 1.61558E+00-8.38065E-02-2.22129E+00-2.27404E+00 3.75460E+00
 -1      3616-4.09859E+01-4.54087E+01-1.89154E+01 1.85928E-01-1.31034E+00 3.31263E-01
 -1      3617-8.88838E+00-1.19906E+01-7.24306E+00-6.21662E-01-2.26975E+00-2.85160E+00
 -1      3618-1.35383E+00-7.37792E-01-3.22481E+00 1.48768E+00 3.24624E+00 2.32667E+00
 -1      3619 8.56113E+00 3.87039E+00 2.35371E-01 2.33774E+00-1.24580E+00 1.26220E+00
 -1      3620 2.97521E+00-3.90383E+00 1.15896E+00 2.62874E+00-3.52386E+00 2.02573E+00
 -1      3621-9.79959E+00-9.00472E+00-2.63047E+00-2.02894E+00-2.23790E+00 6.83990E-01
 -1      3622-3.28570E+01-4.40296E+01-1.19488E+01-2.61457E+00 8.47707E+00 1.30211E+00
 -1      3623 1.13650E+00 5.39521E+00 4.78478E+00-9.53507E-01-4.19799E+00-2.57514E-01
 -1      3624 3.07857E-02-1.38354E+00 1.79868E-01-1.07729E+00 3.54550E+00-5.97793E-01
 -1      3625-7.53365E-01-8.17885E+00-2.02166E+00 1.04573E+00 5.47859E+00-2.54124E-01
 -1      3626 9.76437E-01 6.72660E+00 1.74211E+00-8.82462E-02 3.26132E-01 3.24036E+00
 -1      3627-9.34528E+00-1.01692E+01-6.44819E+00 1.42983E+00 6.72596E-01 2.65655E+00
 -1      3628-7.01367E+00-7.74637E+00-2.11146E+00 1.51018E+00-2.68741E+00-2.11505E+00
 -1      3629-3.76332E+01-2.41199E+01-2.03482E+01-1.71400E+00 6.00750E+00-2.79142E+00
 -1      3630-1.18254E+00 5.41589E-01 1.68954E+00-3.34173E-01-2.62851E+00 3.23559E+00
 -1      3631-5.42428E+01-3.62061E+01-3.39932E+01-3.80327E+00-5.86059E+00 3.28021E+00
 -1      3632-3.66989E+01-3.15124E+01-2.31415E+01 3.04956E+00 1.49407E+00 1.03454E+00
 -1      3633-3.85339E+01-3.40748E+01-2.90338E+01-2.29812E-01 1.73654E+00 4.77008E-01
 -1      3634 9.53553E-02-4.06233E+00-1.13258E+00-4.29922E-01-6.04939E-02 4.74847E+00
 -1      3635-3.50762E+01-3.62144E+01-1.88209E+01 3.90328E+00 2.60252E+00-3.66899E+00
 -1      3636-6.67502E+00-1.29325E+01-6.48595E+00 2.82396E-01 1.24530E+00 4.92219E+00
 -1      3637-1.90550E+01-1.58539E+01-8.92543E+00-4.04046E+00 4.34669E+00-2.42240E+00
 -1      3638-2.71226E+01-2.47316E+01-2.06980E+01-4.13738E+00 2.29209E+00-3.43144E+00
 -1      3639-3.86825E+01-3.09274E+01-1.82417E+01 7.88189E-02 3.21754E-01-2.02496E-01
 -1      3640 3.69755E+00-8.85385E-01 2.99750E+00 1.78430E+00-4.88288E+00 7.20507E-01
 -1      3641-1.94468E+01-1.87581E+01-4.19970E+00 6.93232E+00 2.67931E+00 3.86027E-01
 -1      3642 7.28509E+00 1.45618E-01-1.98739E-02-1.49090E+00-3.36026E-01 4.44690E+00
 -1      3643 3.83455E-01 7.25954E+00 2.53669E+00-2.99360E+00-1.27959E+00-3.36181E+00
 -1      3644-8.84698E+00-1.08269E+01-7.14833E+00 1.14148E+00 9.90540E-01-3.42818E+00
 -1      3645-4.68968E+01-4.78458E+01-3.39280E+01 2.79331E-01 3.19414E+00-2.14485E+00
 -1      3646 7.29864E+00-3.14054E-01 7.99771E-01 2.40393E+00-2.80782E+00 1.10565E+00
 -1      3647 5.13920E+00 8.07737E-01 1.43429E+00-3.86585E+00-8.52225E-01 3.14079E+00
 -1      3648-7.88962E+00-6.04411E+00-6.28047E+00 2.91685E+00 3.63847E+00 1.90885E+00
 -1      3649 1.87226E+00 5.50310E+00 6.49987E-01-1.07950E+00 2.04803E+00 1.20546E+00
 -1      3650 4.45769E+00 9.98010E+00 3.17806E+00 1.29723E-01-2.75108E+00-7.59857E-01
 -1      3651-5.52463E+01-5.39360E+01-3.89212E+01-3.21696E+00 3.80994E-01-1.93783E-01
 -1      3652-4.22709E+01-5.38888E+01-3.69299E+01-7.21581E+00-5.04890E+00 6.24641E+00
 -1      3653-2.63411E+01-3.36252E+01-1.28054E+01-8.06634E+00-9.74739E+00 4.02185E+00
 -1      3654 2.75526E+00 5.65616E+00 4.68131E+00-1.14872E+00-4.03620E+00-1.84905E+00
 -1      3655-1.70772E+00-2.62089E+00-4.76580E-01 1.35455E+00-3.66037E+00 2.42231E+00
 -1      3656-8.03410E+00-9.13680E+00-7.30812E+00 1.07456E+00 2.56041E+00 3.43653E-01
 -1      3657-3.24563E+01-2.84769E+01-1.76762E+01-1.52269E+00-6.01985E-01 1.32048E+00
 -1      3658 2.11827E-01 2.60916E-01 5.40438E+00-1.45924E+00 6.70957E-01-5.68503E+00
 -1      3659-1.11785E+01-1.08051E+01-4.71095E+00 2.97359E+00 1.58062E+00 2.74415E+00
 -1      3660-4.77089E+01-3.47102E+01-2.54211E+01 6.84712E-01-7.36082E-01 5.36361E-01
 -1      3661 1.34384E+01 7.86259E+00 5.49847E+00-3.11039E+00 1.19278E+00 8.87053E-01
 -1      3662 6.48515E+00-2.26832E-01-8.57411E-02 1.97901E+00-3.71521E+00 1.42072E+00
 -1      3663-3.35657E+01-2.95155E+01-1.85564E+01 7.65663E+00 4.95320E+00 3.78140E+00
 -1      3664 1.91766E+01 2.09701E+01 5.06748E+00-3.85031E+00 2.91795E+00 3.10045E+00
 -1      3665-6.49174E-01-2.44797E+00-9.20114E-01-2.31753E-01 4.64126E+00-1.35396E+00
 -1      3666-2.69976E+01-1.45472E+01-2.52819E+00-3.54808E+00-4.09533E+00 3.50479E+00
 -1      3667-3.69140E+01-1.88377E+01-4.29215E+00-2.71854E+00-5.23312E+00 4.78747E+00
 -1      3668-1.09197E+01-1.21119E+01-8.69363E+00 1.84657E+00 3.83386E+00 3.71569E-01
 -1      3669-4.86697E+00-7.15425E+00-2.26684E+00-1.92556E+00-2.66765E+00 3.81198E+00
 -1      3670-8.97023E+00-1.17617E+01-6.57606E+00-2.26577E+00-2.08642E+00 3.80344E+00
 -1      3671-8.36769E+00-5.99166E+00-5.03439E+00-6.65482E-01-2.94835E+00 3.48800E+00
 -1      3672-2.41720E+01-2.13530E+01-1.61527E+01 4.54740E+00 3.92655E+00 2.26422E+00
 -1      3673-2.22003E+00-1.35788E+00 3.29054E+00-1.25006E+00-6.23393E+00 3.62107E-01
 -1      3674-1.16482E+01-1.14136E+01-8.85681E+00 1.97661E+00-6.03789E-01 3.59800E+00
 -1      3675-1.22704E+01-1.01962E+01-7.47000E+00-9.70536E-01-2.06608E+00 1.55403E+00
 -1      3676-4.21148E+00-4.30225E+00-3.94968E+00-8.81821E-01 4.03950E+00-1.18770E+00
 -1      3677-6.96016E+00-6.89173E+00-3.89761E+00-2.30670E-01 5.84384E-01-3.89006E+00
 -1      3678-4.46876E+00-5.61152E+00-1.02343E+00-2.32377E+00-2.55683E-01-5.64068E+00
 -1      3679-1.14064E+01-9.12867E+00-2.08852E+00-2.78264E+00-5.64054E+00-2.26068E+00
 -1      3680 2.76417E+00 3.24602E+00 4.59683E+00-4.51137E-01-1.98885E+00 3.42285E+00
 -1      3681-9.42841E+00-7.38944E+00-6.14331E+00-1.44160E-01-3.21003E+00 2.77908E+00
 -1      3682 9.28225E+00 9.90862E+00 4.67513E+00-3.45690E-01 4.84193E+00-4.36824E+00
 -1      3683 1.38595E+01 1.39897E+01 1.16115E+01 7.31788E-01 5.24404E+00-2.13960E+00
 -1      3684 2.38591E-01-2.59947E+00-4.54532E+00 3.65245E+00-3.97606E+00-5.16510E+00
 -1      3685 2.18727E+00 5.44331E+00 3.63936E+00-1.53410E-01 2.06475E-01 3.41494E+00
 -1      3686-9.67710E+00-2.43805E+00-4.05412E+00 2.97497E+00 5.97097E+00 3.64649E+00
 -1      3687 4.58016E+00 2.32215E+00 1.57030E+00 1.55567E+00 2.55175E+00-7.69637E-01
 -1      3688 1.23183E+01 1.49059E+01 6.70121E+00 1.60754E+00 6.25703E+00 5.28682E+00
 -1      3689 1.00850E+01 1.01742E+01 9.47715E+00 8.33365E-01-5.41644E+00 1.32626E+00
 -1      3690 8.21391E+00 7.81193E+00 7.33345E+00-7.79401E-01-4.96057E+00 5.44452E+00
 -1      3691 9.09603E+00 8.93433E+00 4.39754E+00 2.28501E-01-7.68315E-01-4.91889E+00
 -1      3692 5.05620E+00 4.44089E+00-6.16829E-01 4.53882E-01-1.39872E+00-4.61503E+00
 -1      3693 2.33538E+00 3.47786E+00 1.27410E+00 6.94048E-01 2.13390E+00-2.45061E+00
 -1      3694-3.83412E+00 2.18778E+00-2.28134E+00 1.92059E+00-7.54491E+00-1.80000E+00
 -1      3695 3.64194E+00 5.16224E+00 1.16121E+00-1.20466E+00 2.71899E+00 4.33734E-01
 -1      3696 1.66195E+00 2.77468E+00 2.44963E+00-9.21528E-01 5.45806E-01 4.20780E+00
 -1      3697 4.56675E-01 5.63903E+00 6.65426E+00 8.67386E-01-6.65119E+00-1.81564E-01
 -1      3698 2.45526E+00 2.74232E+00 1.17419E+00-1.40300E+00 1.99610E+00 2.01893E+00
 -1      3699-3.93315E-01 1.80874E+00-1.26915E+00-4.66115E-01-5.50949E-01 3.25784E+00
 -1      3700 1.01878E+01 9.02238E+00 8.44995E+00-3.42023E-01-2.01651E+00-3.48781E+00
 -1      3701 1.20204E+01 1.31117E+01 9.63613E+00-3.44011E-01-4.62306E+00 2.01615E+00
 -1      3702 2.19394E+00 1.73579E+00 2.50007E+00-1.28810E+00 2.63042E+00 2.01116E+00
 -1      3703 3.80484E+00 1.58282E+00 1.26922E+00-6.90914E-01 2.76686E+00 1.12353E+00
 -1      3704 2.39421E+00 3.99549E+00 2.30782E+00 7.66670E-01-4.86248E-01 3.39195E+00
 -1      3705 1.92989E+01 1.63280E+01 1.40483E+01-2.55846E-01 4.21895E+00 6.89504E+00
 -1      3706 1.13516E+01 1.06069E+01 6.70180E+00 4.49178E-01 4.88246E+00 3.38052E+00
 -1      3707 7.06718E-01-2.87387E+00-2.96558E+00-8.83818E-02-3.71253E+00 4.84329E-02
 -1      3708 9.23391E+00 1.24147E+01 7.45843E+00-2.31281E-01 2.86648E+00 4.14659E+00
 -1      3709 1.47237E+00 4.05006E+00 4.32014E+00-4.45639E-01-6.35390E-01 4.31237E+00
 -1      3710 8.87460E+00 1.10439E+01 2.53037E+00-3.77741E-01 8.55570E+00-1.88273E+00
 -1      3711 4.38871E+00 2.73561E+00 3.07710E+00-5.16966E-01 2.66838E+00 6.08500E-01
 -1      3712 1.00770E+01 9.17226E+00 8.49302E+00-6.20519E-01-1.61362E+00-2.04199E+00
 -1      3713 9.67613E+00 1.12689E+01 5.29146E+00 5.06154E-03-3.95559E+00 5.04329E+00
 -1      3714 1.29327E+01 1.21108E+01 8.55912E+00 1.34513E+00 1.28119E+00-1.69327E+00
 -1      3715 5.97579E+00 3.16291E+00 4.67983E+00-1.40666E+00-4.50712E+00-5.92225E-01
 -1      3716 1.31135E+01 1.74003E+01 1.05048E+01 8.95253E-01 8.16189E+00 2.93344E+00
 -1      3717-1.73675E+00 1.16837E+00-1.53455E+00 4.97121E-01 2.27668E-01-3.40765E+00
 -1      3718 2.02855E+00 1.92047E+00 1.57370E+00-8.52080E-01 1.46582E+00 3.94379E+00
 -1      3719 1.98321E+01 1.80766E+01 1.30873E+01-1.59480E+00 2.63722E+00-5.64319E+00
 -1      3720 1.02170E+01 1.04501E+01 7.48885E+00-1.66634E+00-3.49760E+00 6.32261E+00
 -1      3721-5.30547E-01 1.20624E+00 1.43258E+00-3.60560E-01-1.04541E+00 3.40062E+00
 -1      3722 1.15751E+01 1.07236E+01 9.53944E+00 4.10061E-02-2.51667E+00-4.25830E+00
 -1      3723 1.15147E+01 1.07617E+01 6.80235E+00-5.74856E-01-5.43744E-02-6.66618E+00
 -1      3724 8.53132E+00 9.07113E+00 6.76640E+00 7.50134E-01 3.57377E+00-1.72051E+00
 -1      3725-1.13656E+01-1.06702E+00-4.52811E+00 1.84215E+00 9.11360E+00 2.31523E+00
 -1      3726 2.77779E+00-1.52858E-01 6.05868E-01-2.31364E-01-3.81881E+00-1.85540E-01
 -1      3727 1.60490E+00-1.06405E+00-1.73955E-01 7.35679E-01 3.76364E+00-1.73766E+00
 -1      3728-4.95501E-01 1.36634E+00-1.39323E+00 1.10630E-01-9.71412E-01 3.15631E+00
 -1      3729 2.83695E+00 3.97813E+00 3.68561E+00-5.75586E-01 4.69081E-01 2.66293E+00
 -1      3730-1.35986E+00 7.18457E-02-1.80481E-01 5.26875E-01 2.83866E-01 2.47954E+00
 -1      3731-4.39042E+00-4.46552E+00-2.33240E+00 1.09695E+00-1.28101E-02 4.98023E+00
 -1      3732 9.83213E+00 1.12943E+01 3.27118E+00-1.18121E-01 6.29963E+00-1.41882E+00
 -1      3733 1.13903E+01 8.95282E+00 1.86180E+00 1.24171E-02 3.52964E+00-9.49226E-01
 -1      3734 2.27519E+00 4.63962E+00-1.89440E+00-3.71671E-01 5.55345E+00-3.24896E+00
 -1      3735 1.18614E+01 1.06012E+01 4.22481E+00 6.91797E-01 2.96914E-01 8.88407E+00
 -1      3736 1.83500E+00 7.08251E-01-1.04309E+00-8.23169E-01-7.03744E-01 6.90460E+00
 -1      3737-4.26476E-01 1.93363E+00 3.23202E-02 5.52818E-01 2.52470E-01 3.09154E+00
 -1      3738-6.66429E+00-7.73594E+00-6.68250E+00 8.35886E-01 8.23026E-01 5.55843E+00
 -1      3739 5.54430E+00 6.80618E+00-8.64105E-01-3.00442E+00 4.21599E+00-2.84574E+00
 -1      3740 5.68149E+00 6.36536E+00 2.23165E+00-1.63073E+00 2.20267E+00-1.82885E+00
 -1      3741 8.18735E+00 1.09340E+01 5.22259E+00 5.78922E-01-7.83029E+00 1.04981E+00
 -1      3742-2.22704E+00-7.13698E+00-5.05280E+00-2.08997E+00 5.80194E-02-6.63517E+00
 -1      3743 9.49827E+00 8.66700E+00 7.35830E+00-1.93159E-01 1.71294E+00-5.42462E+00
 -1      3744-1.77217E+00-4.45167E+00-9.33387E-01-1.66285E-01 2.28622E+00-1.54568E+00
 -1      3745 3.07380E+00-1.17313E+00 4.81017E-01-3.28151E-01-4.17288E+00-1.04781E-01
 -1      3746 2.98438E+00 3.02680E+00 3.97101E+00 6.65658E-01-2.28991E+00-2.32595E+00
 -1      3747 5.48781E+00 6.93490E+00 2.81483E+00 4.21266E-01-2.90237E+00-4.22179E+00
 -1      3748 4.07811E+00 2.16821E-01 1.00568E+00-1.23008E+00-4.11251E+00-8.09971E-01
 -1      3749 1.14903E+01 1.19671E+01 1.01096E+01-1.01245E+00 2.95147E+00-5.43430E+00
 -1      3750 1.11884E+01 1.28274E+01 1.05138E+01 8.25907E-03-3.53535E+00 4.26686E-01
 -1      3751 6.75226E-01 3.80795E+00 2.10096E+00-4.67005E-02 3.78235E-01-4.31874E+00
 -1      3752 1.64420E+00 1.96054E+00 1.44164E+00 1.01794E+00 2.78669E+00-1.29620E+00
 -1      3753 1.13151E+01 1.00113E+01 6.84344E+00 4.11170E-01-1.84210E+00-5.68087E+00
 -1      3754-8.49085E+00-1.08258E+01-8.27277E+00-2.87447E+00-3.96476E+00 4.74204E+00
 -1      3755-9.94631E-01-3.02284E+00-7.25349E+00 1.09723E+00 4.05139E+00 3.70514E+00
 -1      3756 8.44325E+00 9.52981E+00 5.22821E+00-1.84130E+00 3.00535E+00 7.35629E-01
 -1      3757-1.45895E+00 5.81770E-01-9.53521E-01 1.29481E+00 2.11735E+00-3.76264E+00
 -1      3758 6.19825E+00 5.42739E+00-3.82907E-01 2.64678E-01 4.58075E+00-1.46149E+00
 -1      3759-3.87146E+00 2.99811E+00-2.96471E+00 1.90430E+00 7.71604E+00 1.57859E+00
 -1      3760 4.61705E+00 5.36890E+00 5.23400E+00-1.48475E+00-1.09780E+00-2.94447E+00
 -1      3761-5.42439E+00-9.64289E+00-5.82861E+00-3.29119E+00 3.81546E+00-5.74017E+00
 -1      3762 9.37673E+00 9.07793E+00 6.93285E+00-3.13984E-01-1.77413E+00-3.40211E+00
 -1      3763 2.29995E+00 5.16834E+00 4.16909E+00-1.25308E+00-2.39314E+00-2.44997E+00
 -1      3764 1.22264E+01 8.62564E+00 8.95775E+00 7.78079E-01 2.53605E+00-1.16018E-01
 -1      3765 6.46794E+00 4.78742E+00 1.47495E+00 1.76260E+00 2.68708E+00-1.22946E+00
 -1      3766-1.16803E+00-3.29359E-01-1.72295E+00 1.25532E+00 2.86520E+00-4.08762E-01
 -1      3767 8.50924E+00 1.10648E+01 4.53175E+00-3.78257E-01-2.46078E+00 5.48968E+00
 -1      3768 9.93647E+00 1.31880E+01-2.58692E+00-1.55896E+00 6.69080E+00-2.33129E+00
 -1      3769 6.44262E-02-2.28338E+00 2.71172E-01-9.16511E-01-5.13807E+00-4.56208E-01
 -1      3770-3.16038E+00-2.45146E+00-3.58267E+00-9.14674E-01 8.90792E-01 4.68136E+00
 -1      3771 1.18162E+01 8.31973E+00 8.21272E+00-1.56662E+00 1.22468E+00-6.38997E+00
 -1      3772 6.62049E+00 4.48720E+00 3.41570E+00 1.12599E+00 2.50940E+00-7.79161E-01
 -1      3773-4.04128E+00-4.04266E+00-2.95810E+00-6.27372E-02 1.56912E+00 2.39555E+00
 -1      3774-5.45852E-01-1.08135E+00-3.59563E+00-6.93360E-01 1.36876E+00-4.47562E+00
 -1      3775-1.00290E+01-4.09961E+00-5.86114E+00 3.61804E+00 6.79374E+00 3.49849E+00
 -1      3776 9.64267E-01 3.34795E+00 1.31822E+00 7.89419E-01 2.20579E+00-3.08766E+00
 -1      3777-1.76078E+00-1.02383E+01-7.31844E+00 1.70956E+00 1.08030E+00 9.22292E+00
 -1      3778 3.44228E+00 1.09696E+00 8.94054E-01-1.37420E+00 3.37665E+00 1.41869E+00
 -1      3779 4.32023E+00 2.28839E+00 4.44484E+00 1.96911E+00 3.92125E+00-2.39258E+00
 -1      3780 2.63021E+00 9.15181E-01 8.14608E-01 1.32015E+00 3.19390E+00-1.36086E+00
 -1      3781 2.03002E+00 2.53572E+00 2.45998E+00-3.51560E-01-1.37979E+00 4.58318E+00
 -1      3782-4.14456E+00-3.62109E+00-3.24849E+00-9.49179E-01 1.24259E+00 3.82745E+00
 -1      3783 5.40813E+00 2.28696E+00 1.31413E+00-1.12078E+00-2.80585E+00-1.19579E+00
 -1      3784 2.93149E+00 1.35599E+00 5.27307E-01 3.43542E-01 3.05899E+00-6.72052E-01
 -1      3785 1.45522E+00 3.53907E+00 1.81762E+00-9.47463E-01-1.13291E+00-2.23389E+00
 -1      3786 1.23598E+01 1.63266E+01 1.31048E+01 5.54005E-01 4.53023E+00 2.37939E+00
 -1      3787-1.30078E+01-1.35601E+01-7.87975E+00 1.68153E+00-2.95237E+00-4.75851E+00
 -1      3788 1.18697E+01 1.48570E+01 5.64034E+00-1.61647E+00-5.75798E+00 2.54312E+00
 -1      3789-1.91981E+00 3.14540E-01-1.71738E+00-2.03599E-01 1.50400E-01-3.01044E+00
 -1      3790-2.14977E+00-1.21385E+00-9.77643E-01 1.11793E-03-1.19026E-01-3.81959E+00
 -1      3791-2.48220E+00-1.93474E+00-9.82690E-01 3.20987E-01-7.10222E-01-4.88620E+00
 -1      3792-8.16373E-01 2.46756E+00 3.24337E+00 2.67598E-01 1.02362E+00-5.21344E+00
 -1      3793-3.92083E+00-2.96664E+00-2.49471E+00 2.46749E-01 4.94691E+00 2.02855E+00
 -1      3794-4.75511E-01-2.28200E+00-1.14311E+00-4.89505E-01 4.13249E+00-9.84956E-02
 -1      3795 3.98526E+00 5.25595E+00 3.85759E+00-8.85486E-02 4.68641E+00-1.45949E+00
 -1      3796-5.74620E+00-4.56257E+00-4.26511E+00-3.34962E-02 3.98171E-01-2.58364E+00
 -1      3797 6.26758E+00 1.03632E+01 1.28767E+00-6.34221E-01 5.75391E+00-1.96803E+00
 -1      3798-4.35556E+00-2.43894E+00-4.56815E+00-1.06579E+00 7.56209E-02 3.64521E+00
 -1      3799-1.27645E+01-1.47444E+01-1.05379E+01-3.81519E+00-4.63062E+00 4.87484E+00
 -1      3800 5.16018E-02-1.06681E+00-1.36647E+00-3.15176E-01 3.19927E+00-4.06754E-01
 -1      3801 2.84724E+00 1.75117E+00 3.18089E+00-7.94601E-01-5.30929E-01 2.91866E+00
 -1      3802-1.12327E+00-7.45059E-01 8.50692E-01-4.08635E-01 2.07044E+00 8.29995E-01
 -1      3803-4.17251E+00-3.11793E+00-1.18190E+00 1.01894E+00-1.04395E+00 4.17325E+00
 -1      3804-3.05830E+00-5.08771E+00-1.21221E+00 2.81081E+00-2.70810E+00-4.26021E+00
 -1      3805 3.20200E-01-7.64170E+00-6.17543E+00 1.16740E+00-2.20757E+00-6.81939E+00
 -1      3806-4.53318E+00-4.46201E+00-3.14868E+00-1.51652E+00 1.09520E+00 3.72635E+00
 -1      3807 2.00406E+00 1.90145E+00-1.01339E-01 1.24650E+00 1.97627E+00-1.85156E+00
 -1      3808 5.95098E+00 5.16403E+00 1.25005E+00-4.18195E-01-4.13809E+00 3.17501E+00
 -1      3809-4.05949E-01-7.47468E-01-1.66753E-01-2.48842E+00-4.31114E+00 2.63926E+00
 -1      3810-5.47701E-01 1.85321E+00-1.85657E+00-4.22191E-01-4.02475E-01 2.84317E+00
 -1      3811 4.23091E+00 5.13403E+00 3.18815E+00-9.44066E-01 2.37984E+00 1.33532E+00
 -1      3812-4.99479E+00-5.06536E+00-4.69923E+00 1.50944E-01-1.32251E+00 6.98958E-01
 -1      3813 6.52067E-01 2.42165E+00-1.61767E-02 9.30197E-01-9.30613E-01 2.52043E+00
 -1      3814-3.57644E+00-3.94013E+00-3.71494E+00-7.09576E-01 2.00431E+00 1.03526E+00
 -1      3815-2.29119E+00-1.75137E+00-1.14318E+00-1.87684E+00 3.64238E+00 2.68866E+00
 -1      3816 7.94395E+00 7.69575E+00 7.97504E+00 3.70248E-01-3.36418E+00-3.56206E+00
 -1      3817-1.01029E+00 1.55056E+00 2.09193E+00 1.78359E-01 2.04697E+00-4.59145E+00
 -1      3818 1.74023E+01 1.76383E+01 1.51755E+01-5.07433E-01 4.86174E+00 4.37354E+00
 -1      3819 2.82205E+00-5.55822E-01-2.16747E+00 4.05231E-01-2.78490E+00-5.15842E-01
 -1      3820 1.43965E+00 3.16083E+00 1.87763E+00 6.76026E-01 2.95738E+00-3.50367E+00
 -1      3821 4.53496E+00 3.89303E+00 7.54283E+00 1.09108E+00-3.08618E+00-2.58973E+00
 -1      3822 7.88519E+00 7.39751E+00 5.60438E+00 5.27598E-01-4.39315E-01-6.64537E+00
 -1      3823 5.12349E+00 5.14244E+00 2.29076E+00 2.58813E-01-3.77182E+00 5.72276E-01
 -1      3824 6.90964E+00 6.34851E+00 4.30530E+00 2.59294E-01 3.63154E+00 3.94650E+00
 -1      3825-4.26856E+00-6.54230E+00-3.14763E+00 7.57958E-01-9.53562E-01-4.64594E+00
 -1      3826-5.24704E+00-5.33200E+00-2.76036E+00 9.65739E-01 1.70819E+00-4.02687E+00
 -1      3827 4.23488E+00 1.72304E+00-2.55817E+00 3.83206E+00 5.42641E+00 7.08377E+00
 -1      3828 5.84210E+00 7.90718E+00 6.00399E-01 8.47686E-01 1.23935E-01-3.56888E+00
 -1      3829-6.02407E-01 4.88636E-01 2.65143E+00-3.32560E-01 2.91621E+00-1.68750E-01
 -1      3830 2.83526E+00-1.01428E-01-4.61374E-01-1.14548E+00-4.09734E+00-4.70240E+00
 -1      3831 8.99281E-01-6.51311E-01-1.81763E-01-2.44573E+00-4.14369E+00-4.18683E+00
 -1      3832 8.35144E+00 9.95728E+00 6.46130E+00-5.93262E-01-5.23434E+00 1.54133E+00
 -1      3833-1.97627E+00-1.72729E+00-4.49131E-01-1.36727E-01 1.23037E+00 4.09573E+00
 -1      3834 9.10115E+00 6.89288E+00 9.01293E+00-5.24519E-01 1.84433E+00 6.91367E+00
 -1      3835 1.28669E+01 1.05382E+01 9.04446E+00 1.49226E+00 2.27779E+00-1.48440E+00
 -1      3836-2.51660E+00-4.53312E-01-3.16865E+00-2.08620E+00-4.98407E+00 2.26965E+00
 -1      3837 1.88885E+00 3.99754E+00-3.89187E+00 2.08610E-03 6.42508E+00-2.17320E+00
 -1      3838 1.09237E+01 1.23223E+01 1.06445E+01 5.83737E-01 2.35232E+00-3.13210E+00
 -1      3839 3.31659E-01-1.36251E+00-6.55140E-01-3.07900E-01 3.58802E+00 9.06386E-01
 -1      3840-3.74975E+00-4.92346E+00-2.53367E+00-1.37980E+00 2.65565E+00-2.53073E+00
 -1      3841 7.81687E-01 4.07559E+00 1.72443E+00-1.39840E-01-1.29532E+00 3.76181E+00
 -1      3842 9.80649E+00 1.01897E+01 7.87152E+00-4.16521E-01 2.66633E+00 2.17578E+00
 -1      3843 1.31192E+01 1.06003E+01 8.57936E+00 5.06474E-01-2.90675E+00-7.27080E+00
 -1      3844-1.76284E+00-2.78302E+00-1.27765E+00 2.17252E-01 2.68091E+00 7.03382E-01
 -1      3845-4.23656E+00-1.16223E+01-3.63541E+00 1.42495E+00-1.20822E+00-4.63093E+00
 -1      3846 5.58588E+00 1.39917E+00 2.80395E+00-1.87589E+00 3.37809E+00 1.79679E+00
 -1      3847-9.84714E-01-4.00325E+00-4.80408E-02-1.96066E+00-7.51692E-01 3.61292E+00
 -1      3848-7.93332E+00-4.87291E+00-4.24169E+00-1.81854E+00 3.24437E+00-1.49688E+00
 -1      3849 3.26517E+00 5.66460E+00 3.32571E+00 1.22860E+00 1.32687E+00-2.82859E+00
 -1      3850 6.32655E+00 6.33553E+00 2.36288E+00 7.10659E-01-3.19303E+00 5.57372E-01
 -1      3851 3.35162E+00 5.56803E-01 2.74443E+00-5.03601E-01-4.15265E+00-1.01820E+00
 -1      3852 7.38196E+00 9.66081E+00 4.28522E+00-1.06319E+00-5.35209E+00 2.26404E+00
 -1      3853 3.18408E+00 5.75036E+00 6.72306E+00 9.36804E-01 2.30292E+00-4.26424E+00
 -1      3854-1.31895E+01-8.00244E+00-5.43992E+00 4.21880E-01 6.12180E-02 6.65911E-03
 -1      3855 1.91833E+00 2.30017E+00 3.45626E+00-1.17844E+00-2.92623E+00-2.03951E+00
 -1      3856-2.13470E-01-1.34696E+00 4.05872E-01 1.08285E+00-3.27742E+00 1.98063E+00
 -1      3857-1.74072E+01-1.49830E+01-1.24577E+01-1.34462E+00-1.53816E+00 1.62943E+00
 -1      3858-1.54101E+01-7.72007E+00-9.74588E+00-5.16999E+00 6.99332E+00-3.40908E+00
 -1      3859 1.72324E+00 3.84643E+00 4.31626E-01 5.32025E-01-1.57094E+00 2.42995E+00
 -1      3860 4.96668E+00 3.30132E+00 4.36650E+00-2.53989E-01 1.65885E+00-7.01423E-01
 -1      3861-1.29266E+01-1.36314E+01-8.81147E+00 3.53421E+00-3.43087E+00-1.21960E+00
 -1      3862 9.41114E+00 1.01571E+01 8.18086E+00 9.56289E-01 3.54435E+00-8.53259E-01
 -1      3863-1.02355E+01-5.16380E+00-6.34020E+00-1.14145E+00-4.47644E+00 1.50743E+00
 -1      3864-1.47284E+00-8.26811E-01-2.31439E+00 5.98811E-01-2.26873E+00 1.94844E+00
 -1      3865-1.26576E+01-9.95181E+00-1.29841E+01 3.29136E+00-3.99485E+00-3.59613E+00
 -1      3866-1.48440E+00-1.53219E-01-3.04440E-01 8.05805E-01 1.27154E+00 2.37686E+00
 -1      3867-2.09872E+00-3.37144E+00-2.27028E+00 7.62422E-01-3.76319E+00 1.51573E+00
 -1      3868-4.08066E+00-8.96869E-01-3.06176E+00-1.96985E-01 3.66030E+00-1.73940E+00
 -1      3869-5.07708E-01 1.60839E+00-1.11802E+00 3.34928E-01 2.99052E+00-3.16724E+00
 -1      3870-3.43226E+00-3.02067E+00-2.56925E+00 2.36422E-01-2.41074E+00 2.82465E+00
 -1      3871 8.09720E+00 7.66891E+00 7.59902E+00-6.10173E-01-2.15008E+00-1.91240E+00
 -1      3872-6.05588E+00-8.86990E+00-6.28643E+00 1.62360E+00-1.59554E+00-2.58087E+00
 -1      3873 7.66406E+00 8.37233E+00 8.28629E+00 7.66351E-01 1.90085E+00-2.06789E+00
 -1      3874 3.58378E+00 1.90711E+00 3.16765E+00 4.73449E-01-3.40266E+00 1.02498E+00
 -1      3875 2.70605E+00 6.90647E-01 1.51192E+00 3.21177E-01-2.16798E+00 1.21646E+00
 -1      3876 6.37183E+00 6.72573E+00 5.08963E+00-4.90128E-01 2.97355E+00 1.29496E+00
 -1      3877 8.98729E+00 9.45498E+00 1.13647E+01 1.64152E+00-4.00702E+00-5.35688E+00
 -1      3878 8.29350E+00 6.27010E+00 5.33524E+00 9.47840E-01 2.55963E+00-1.00855E+00
 -1      3879 2.35831E+00 8.95990E+00 1.24953E+00-8.88058E-01 5.09438E+00-2.58676E+00
 -1      3880-2.56160E+00-9.96906E-01-2.18192E+00-1.32955E+00 1.29211E+00 3.04688E+00
 -1      3881 2.08067E+00 3.30808E+00 2.08475E+00-1.13156E+00-1.26853E+00-2.22897E+00
 -1      3882 4.85982E+00 1.22378E+00 2.41320E+00 5.32199E-01-2.87573E+00 1.39376E+00
 -1      3883 8.83412E+00 7.82131E+00 6.84418E+00-1.06316E+00 3.28917E+00 6.88297E-01
 -1      3884-2.55767E+00-3.21976E+00-1.31430E+00 7.74083E-01 3.56871E+00-6.52092E-01
 -1      3885-2.24195E+01-9.91795E+00-1.86711E+01-2.14265E+00-7.34938E+00 1.81516E+00
 -1      3886 5.39109E+00 5.87315E+00 3.86909E+00-3.94370E-01-4.64034E+00 1.52242E+00
 -1      3887-3.42770E+00-1.16957E+00-4.20091E+00-1.71244E+00 2.37915E+00-1.65342E+00
 -1      3888-3.56003E+00-3.81779E+00-2.22347E+00-1.59443E-02-2.14762E+00 1.24489E+00
 -1      3889-1.06243E+01-1.03664E+01-1.01446E+01-2.14175E+00-1.46407E+00 1.42327E+00
 -1      3890 4.03486E-01 1.19138E+00-2.39387E+00-2.89781E-01 2.00446E+00 1.52311E+00
 -1      3891 4.45638E+00 6.00774E+00 4.20236E+00 1.17575E+00 3.21076E+00-1.63417E+00
 -1      3892 4.73825E-01 7.13241E-01 6.02752E-01 3.42655E-01-1.05865E+00 2.86835E+00
 -1      3893-1.88577E-01-4.82964E-02-1.82441E-01-9.82717E-01 2.90597E+00 3.43410E+00
 -1      3894 1.00576E+01 8.77045E+00 6.73195E+00 5.05656E-01-3.59576E+00 1.57090E+00
 -1      3895 1.28030E+01 1.20335E+01 9.00176E+00 7.54923E-02-2.40340E+00-4.36821E+00
 -1      3896 2.61850E+00 5.03560E+00 4.79024E-01 6.50780E-01 4.49202E+00 2.86782E+00
 -1      3897 5.32360E+00 1.35037E+00 3.02591E+00 1.57298E+00 3.06490E+00-2.03210E+00
 -1      3898-4.03339E+00-5.89551E+00-5.25607E+00-9.35800E-02 3.86930E+00-7.91753E-01
 -1      3899-4.23760E+00-4.82025E+00-1.95452E+00 2.30528E-02 5.11524E-01-3.72681E+00
 -1      3900 7.66925E-01 2.84160E+00 1.53311E+00-1.44361E+00-1.42633E+00-2.59049E+00
 -1      3901-1.43766E+01-1.12267E+01-1.07806E+01-5.76186E-01-2.59893E+00-7.39507E-01
 -1      3902 4.62123E+00 2.53118E+00 2.99894E+00-2.31547E-01 4.41687E+00-1.61781E-01
 -1      3903 3.03812E+00 1.45542E+00 1.36223E+00-2.97691E-01 3.39488E+00-9.54486E-01
 -1      3904 1.70177E+00-1.16280E+00 1.09212E+00 1.58104E+00-2.50568E+00 2.43497E+00
 -1      3905-5.13171E+00-6.75051E+00-2.36955E+00 2.55803E+00-2.14711E+00-4.26803E+00
 -1      3906 3.12769E+00 3.79233E+00 4.32056E+00 4.17612E-01-4.67080E+00-6.48329E-01
 -1      3907-4.32624E-01 5.09582E-01-2.26468E+00 5.79639E-01-1.27541E+00 2.04363E+00
 -1      3908-7.08935E+00-6.10327E+00-4.14693E+00 1.33632E+00 2.42013E+00 1.52089E+00
 -1      3909-1.57610E+01-1.54570E+01-8.24319E+00 8.50457E-01-7.28664E-01-1.18389E-01
 -1      3910-5.48027E+00-6.13654E+00-2.93041E+00 8.77943E-02-5.73127E+00 9.90161E-02
 -1      3911 9.61289E+00 6.52375E+00 5.72708E+00 1.70620E+00 2.12745E+00-7.23491E-01
 -1      3912-9.18147E+00-5.09591E+00-7.34522E+00-6.03692E-01 4.99891E+00-3.30928E+00
 -1      3913 1.25990E+00 3.41892E+00 2.13734E+00-5.99032E-01-8.12679E-01 4.14554E+00
 -1      3914-1.03761E+01-1.01999E+01-6.28580E+00 3.31431E+00 1.55642E+00 2.94364E+00
 -1      3915 5.74601E+00 6.15825E+00 2.07168E+00 1.44105E+00 4.31984E+00 4.02912E+00
 -1      3916-9.57582E+00-7.24882E+00-6.93937E+00-2.09990E+00-3.24179E+00 1.06830E+00
 -1      3917-1.83414E+01-1.40293E+01-9.62237E+00-5.19503E+00-5.01977E+00 4.14321E+00
 -1      3918-1.86188E+00-5.12312E+00-2.68879E+00 2.04503E-01-3.89419E+00 3.15485E-01
 -1      3919-1.47056E+01-8.10080E+00-4.21845E+00-1.28129E+00-3.88992E+00 2.33395E+00
 -1      3920-3.32643E+00-1.45826E+00 1.28441E-01 1.28351E+00 2.09861E+00 2.16095E+00
 -1      3921 1.07705E+00-2.09854E+00-5.73714E-01 5.82985E-01-4.29904E+00 1.05840E+00
 -1      3922-2.32381E+01-1.31856E+01-1.51439E+01-1.56364E+00 7.35243E+00-2.73196E+00
 -1      3923 4.76341E+00 2.33303E+00 2.12343E+00 6.74816E-01-2.09210E+00 1.85511E+00
 -1      3924-5.15898E+00-3.99227E+00-2.39766E+00 1.38477E+00 2.34438E+00 1.23786E+00
 -1      3925-1.11305E+00-5.37267E+00-1.89564E-02-6.95594E-02-5.25796E+00-6.37149E-01
 -1      3926-3.88212E+00-3.99757E+00-3.56330E+00-5.73909E-01 3.54137E+00 1.93113E+00
 -1      3927 7.40078E+00 8.53916E+00 3.41216E+00-1.32873E+00 4.54759E+00 7.94095E-01
 -3
 9999
