    1C
    1U meshsolid_t.inp                                                  
    1UUSER                                                              
    1UDATE              14.august.2016                                  
    1UTIME              16:12:49                                        
    1UHOST                                                              
    1UPGM               CalculiX                                        
    1UVERSION           Version 2.10                             
    1UCOMPILETIME       Sa 5. MÃ¤r 12:23:33 CET 2016                    
    1UDIR                                                               
    1UDBN                                                               
    1UMAT    1PDMS                                                      
    1UMAT    2GLASS                                                     
    2C                          2059                                     1
 -1         1 1.50000E+01 0.00000E+00 5.00000E-01
 -1         2-1.50000E+01 0.00000E+00-5.00000E-01
 -1         3-2.92635E+00-1.47118E+01 5.00000E-01
 -1         4 0.00000E+00-1.50000E+01-5.00000E-01
 -1         5 1.06066E+01 1.06066E+01-5.00000E-01
 -1         6 1.24720E+01 8.33355E+00 5.00000E-01
 -1         7-8.33355E+00 1.24720E+01-5.00000E-01
 -1         8-2.92635E+00 1.47118E+01-5.00000E-01
 -1         9-5.74025E+00 1.38582E+01-5.00000E-01
 -1        10 1.47118E+01 2.92635E+00-5.00000E-01
 -1        11 1.38582E+01-5.74025E+00-5.00000E-01
 -1        12 1.06066E+01-1.06066E+01-5.00000E-01
 -1        13 8.33355E+00-1.24720E+01-5.00000E-01
 -1        14 2.92635E+00 1.47118E+01-5.00000E-01
 -1        15-2.92635E+00-1.47118E+01-5.00000E-01
 -1        16-5.74025E+00-1.38582E+01-5.00000E-01
 -1        17-8.33355E+00-1.24720E+01-5.00000E-01
 -1        18-1.06066E+01 1.06066E+01-5.00000E-01
 -1        19-1.38582E+01-5.74025E+00-5.00000E-01
 -1        20-1.24720E+01-8.33355E+00-5.00000E-01
 -1        21-1.38582E+01 5.74025E+00-5.00000E-01
 -1        22-1.47118E+01-2.92635E+00-5.00000E-01
 -1        23-1.47118E+01 2.92635E+00-5.00000E-01
 -1        24 1.38582E+01 5.74025E+00 5.00000E-01
 -1        25 1.24720E+01 8.33355E+00-5.00000E-01
 -1        26 1.38582E+01 5.74025E+00-5.00000E-01
 -1        27 8.33355E+00 1.24720E+01-5.00000E-01
 -1        28 5.74025E+00 1.38582E+01-5.00000E-01
 -1        29 8.33355E+00 1.24720E+01 5.00000E-01
 -1        30-1.24720E+01 8.33355E+00 5.00000E-01
 -1        31-1.24720E+01 8.33355E+00-5.00000E-01
 -1        32-1.06066E+01 1.06066E+01 5.00000E-01
 -1        33-3.06956E+00-9.46735E-01 5.00000E-01
 -1        34-1.38582E+01 5.74025E+00 5.00000E-01
 -1        35-1.50106E+00 2.83995E+00 5.00000E-01
 -1        36-9.46735E-01-3.06956E+00 5.00000E-01
 -1        37-1.50106E+00-2.83995E+00 5.00000E-01
 -1        38-8.33355E+00 1.24720E+01 5.00000E-01
 -1        39-4.18750E+00 9.32558E+00 5.00000E-01
 -1        40-5.74025E+00 1.38582E+01 5.00000E-01
 -1        41 2.99999E-01-3.19820E+00 5.00000E-01
 -1        42-7.01323E+00-7.43749E+00 5.00000E-01
 -1        43-7.43749E+00-7.01323E+00 5.00000E-01
 -1        44-1.02182E+01-2.99999E-01 5.00000E-01
 -1        45-9.55519E+00 3.63317E+00 5.00000E-01
 -1        46-1.47118E+01 2.92635E+00 5.00000E-01
 -1        47-1.02182E+01 2.99999E-01 5.00000E-01
 -1        48-1.24720E+01-8.33355E+00 5.00000E-01
 -1        49-9.55519E+00-3.63317E+00 5.00000E-01
 -1        50 2.92635E+00 1.47118E+01 5.00000E-01
 -1        51 3.63317E+00 9.55519E+00 5.00000E-01
 -1        52 2.99999E-01 1.02182E+01 5.00000E-01
 -1        53 0.00000E+00 1.50000E+01 5.00000E-01
 -1        54-2.99999E-01 3.19820E+00 5.00000E-01
 -1        55-2.92635E+00 1.47118E+01 5.00000E-01
 -1        56-2.99999E-01 1.02182E+01 5.00000E-01
 -1        57 1.06066E+01 1.06066E+01 5.00000E-01
 -1        58 5.74025E+00 1.38582E+01 5.00000E-01
 -1        59 7.01323E+00 7.43749E+00 5.00000E-01
 -1        60 9.55519E+00-3.63317E+00 5.00000E-01
 -1        61 2.83995E+00 1.50106E+00 5.00000E-01
 -1        62 3.06956E+00-9.46735E-01 5.00000E-01
 -1        63 1.47118E+01 2.92635E+00 5.00000E-01
 -1        64 1.02182E+01-2.99999E-01 5.00000E-01
 -1        65 7.43749E+00 7.01323E+00 5.00000E-01
 -1        66 2.47360E+00-2.04934E+00 5.00000E-01
 -1        67 2.83995E+00-1.50106E+00 5.00000E-01
 -1        68 8.33355E+00-1.24720E+01 5.00000E-01
 -1        69 4.18750E+00-9.32558E+00 5.00000E-01
 -1        70 5.74025E+00-1.38582E+01 5.00000E-01
 -1        71 9.46735E-01-3.06956E+00 5.00000E-01
 -1        72 2.99999E-01 3.19820E+00 5.00000E-01
 -1        73-2.99999E-01-1.02182E+01 5.00000E-01
 -1        74 0.00000E+00-1.50000E+01 5.00000E-01
 -1        75-3.63317E+00-9.55519E+00 5.00000E-01
 -1        76 0.00000E+00 1.50000E+01-5.00000E-01
 -1        77 1.50000E+01 0.00000E+00-5.00000E-01
 -1        78 1.47118E+01-2.92635E+00 5.00000E-01
 -1        79 1.47118E+01-2.92635E+00-5.00000E-01
 -1        80 2.92635E+00-1.47118E+01 5.00000E-01
 -1        81 5.74025E+00-1.38582E+01-5.00000E-01
 -1        82-8.33355E+00-1.24720E+01 5.00000E-01
 -1        83-1.38582E+01-5.74025E+00 5.00000E-01
 -1        84-1.50000E+01 0.00000E+00 5.00000E-01
 -1        85-1.47118E+01-2.92635E+00 5.00000E-01
 -1        86 2.92635E+00-1.47118E+01-5.00000E-01
 -1        87 1.06066E+01-1.06066E+01 5.00000E-01
 -1        88-5.74025E+00-1.38582E+01 5.00000E-01
 -1        89-1.06066E+01-1.06066E+01-5.00000E-01
 -1        90-1.06066E+01-1.06066E+01 5.00000E-01
 -1        91 1.24720E+01-8.33355E+00 5.00000E-01
 -1        92 1.24720E+01-8.33355E+00-5.00000E-01
 -1        93 1.38582E+01-5.74025E+00 5.00000E-01
 -1        94 3.19820E+00 2.99999E-01 6.95000E-01
 -1        95 1.02182E+01 2.99999E-01 6.95000E-01
 -1        96 3.19820E+00-2.99999E-01 6.95000E-01
 -1        97 1.02182E+01-2.99999E-01 6.95000E-01
 -1        98 3.19820E+00-2.99999E-01 5.00000E-01
 -1        99 1.02182E+01 2.99999E-01 5.00000E-01
 -1       100 9.32558E+00 4.18750E+00 6.95000E-01
 -1       101 9.55519E+00 3.63317E+00 6.95000E-01
 -1       102 3.06956E+00 9.46735E-01 6.95000E-01
 -1       103 2.83995E+00 1.50106E+00 6.95000E-01
 -1       104 3.06956E+00 9.46735E-01 5.00000E-01
 -1       105 7.01323E+00 7.43749E+00 6.95000E-01
 -1       106 2.04934E+00 2.47360E+00 5.00000E-01
 -1       107 2.04934E+00 2.47360E+00 6.95000E-01
 -1       108 2.47360E+00 2.04934E+00 5.00000E-01
 -1       109 2.47360E+00 2.04934E+00 6.95000E-01
 -1       110 7.43749E+00 7.01323E+00 6.95000E-01
 -1       111 4.18750E+00 9.32558E+00 6.95000E-01
 -1       112 3.63317E+00 9.55519E+00 6.95000E-01
 -1       113 9.46735E-01 3.06956E+00 6.95000E-01
 -1       114 1.50106E+00 2.83995E+00 6.95000E-01
 -1       115 1.50106E+00 2.83995E+00 5.00000E-01
 -1       116 4.18750E+00 9.32558E+00 5.00000E-01
 -1       117 2.99999E-01 1.02182E+01 6.95000E-01
 -1       118-2.99999E-01 1.02182E+01 6.95000E-01
 -1       119-2.99999E-01 3.19820E+00 6.95000E-01
 -1       120 2.99999E-01 3.19820E+00 6.95000E-01
 -1       121-1.50106E+00 2.83995E+00 6.95000E-01
 -1       122-4.18750E+00 9.32558E+00 6.95000E-01
 -1       123-3.63317E+00 9.55519E+00 6.95000E-01
 -1       124-9.46735E-01 3.06956E+00 6.95000E-01
 -1       125-9.46735E-01 3.06956E+00 5.00000E-01
 -1       126-7.01323E+00 7.43749E+00 6.95000E-01
 -1       127-7.43749E+00 7.01323E+00 6.95000E-01
 -1       128-7.43749E+00 7.01323E+00 5.00000E-01
 -1       129-7.01323E+00 7.43749E+00 5.00000E-01
 -1       130-2.04934E+00 2.47360E+00 6.95000E-01
 -1       131-2.47360E+00 2.04934E+00 6.95000E-01
 -1       132-2.04934E+00 2.47360E+00 5.00000E-01
 -1       133-2.47360E+00 2.04934E+00 5.00000E-01
 -1       134-2.83995E+00 1.50106E+00 6.95000E-01
 -1       135-9.32558E+00 4.18750E+00 5.00000E-01
 -1       136-9.32558E+00 4.18750E+00 6.95000E-01
 -1       137-2.83995E+00 1.50106E+00 5.00000E-01
 -1       138-9.55519E+00 3.63317E+00 6.95000E-01
 -1       139-3.06956E+00 9.46735E-01 6.95000E-01
 -1       140-1.02182E+01 2.99999E-01 6.95000E-01
 -1       141-3.19820E+00 2.99999E-01 6.95000E-01
 -1       142-3.19820E+00 2.99999E-01 5.00000E-01
 -1       143-1.02182E+01-2.99999E-01 6.95000E-01
 -1       144-3.19820E+00-2.99999E-01 6.95000E-01
 -1       145-3.19820E+00-2.99999E-01 5.00000E-01
 -1       146-3.06956E+00-9.46735E-01 6.95000E-01
 -1       147-9.55519E+00-3.63317E+00 6.95000E-01
 -1       148-9.32558E+00-4.18750E+00 6.95000E-01
 -1       149-2.83995E+00-1.50106E+00 6.95000E-01
 -1       150-2.47360E+00-2.04934E+00 6.95000E-01
 -1       151-2.04934E+00-2.47360E+00 6.95000E-01
 -1       152-7.43749E+00-7.01323E+00 6.95000E-01
 -1       153-2.47360E+00-2.04934E+00 5.00000E-01
 -1       154-7.01323E+00-7.43749E+00 6.95000E-01
 -1       155-1.50106E+00-2.83995E+00 6.95000E-01
 -1       156-4.18750E+00-9.32558E+00 5.00000E-01
 -1       157-4.18750E+00-9.32558E+00 6.95000E-01
 -1       158-3.63317E+00-9.55519E+00 6.95000E-01
 -1       159-9.46735E-01-3.06956E+00 6.95000E-01
 -1       160 2.99999E-01-3.19820E+00 6.95000E-01
 -1       161-2.99999E-01-3.19820E+00 5.00000E-01
 -1       162 2.99999E-01-1.02182E+01 6.95000E-01
 -1       163-2.99999E-01-3.19820E+00 6.95000E-01
 -1       164-2.99999E-01-1.02182E+01 6.95000E-01
 -1       165 1.50106E+00-2.83995E+00 5.00000E-01
 -1       166 3.63317E+00-9.55519E+00 6.95000E-01
 -1       167 9.46735E-01-3.06956E+00 6.95000E-01
 -1       168 3.63317E+00-9.55519E+00 5.00000E-01
 -1       169 4.18750E+00-9.32558E+00 6.95000E-01
 -1       170 1.50106E+00-2.83995E+00 6.95000E-01
 -1       171 2.04934E+00-2.47360E+00 6.95000E-01
 -1       172 7.43749E+00-7.01323E+00 6.95000E-01
 -1       173 2.47360E+00-2.04934E+00 6.95000E-01
 -1       174 7.43749E+00-7.01323E+00 5.00000E-01
 -1       175 7.01323E+00-7.43749E+00 6.95000E-01
 -1       176 3.06956E+00-9.46735E-01 6.95000E-01
 -1       177 9.55519E+00-3.63317E+00 6.95000E-01
 -1       178 2.83995E+00-1.50106E+00 6.95000E-01
 -1       179 9.32558E+00-4.18750E+00 6.95000E-01
 -1       180 9.32558E+00-4.18750E+00 5.00000E-01
 -1       181 3.19820E+00 2.99999E-01 5.00000E-01
 -1       182 9.32558E+00 4.18750E+00 5.00000E-01
 -1       183 9.55519E+00 3.63317E+00 5.00000E-01
 -1       184 9.46735E-01 3.06956E+00 5.00000E-01
 -1       185-3.63317E+00 9.55519E+00 5.00000E-01
 -1       186-3.06956E+00 9.46735E-01 5.00000E-01
 -1       187-2.83995E+00-1.50106E+00 5.00000E-01
 -1       188-9.32558E+00-4.18750E+00 5.00000E-01
 -1       189-2.04934E+00-2.47360E+00 5.00000E-01
 -1       190 2.99999E-01-1.02182E+01 5.00000E-01
 -1       191 7.01323E+00-7.43749E+00 5.00000E-01
 -1       192 2.04934E+00-2.47360E+00 5.00000E-01
 -1       193 1.48559E+01 1.46318E+00 5.00000E-01
 -1       194 1.48559E+01 1.46318E+00-5.00000E-01
 -1       195-1.48559E+01 1.46318E+00-5.00000E-01
 -1       196-1.48559E+01 1.46318E+00 5.00000E-01
 -1       197 1.46318E+00 1.48559E+01 5.00000E-01
 -1       198 1.46318E+00 1.48559E+01-5.00000E-01
 -1       199-1.46318E+00-1.48559E+01 5.00000E-01
 -1       200-1.46318E+00-1.48559E+01-5.00000E-01
 -1       201 1.15393E+01 9.47007E+00 5.00000E-01
 -1       202 1.15393E+01 9.47007E+00-5.00000E-01
 -1       203-9.47007E+00 1.15393E+01 5.00000E-01
 -1       204-9.47007E+00 1.15393E+01-5.00000E-01
 -1       205-4.33330E+00 1.42850E+01 5.00000E-01
 -1       206-4.33330E+00 1.42850E+01-5.00000E-01
 -1       207 1.48559E+01-1.46318E+00-5.00000E-01
 -1       208 1.42850E+01-4.33330E+00-5.00000E-01
 -1       209 1.42850E+01 4.33330E+00-5.00000E-01
 -1       210 1.31651E+01-7.03690E+00-5.00000E-01
 -1       211 1.31651E+01 7.03690E+00-5.00000E-01
 -1       212 1.15393E+01-9.47007E+00-5.00000E-01
 -1       213 9.47007E+00-1.15393E+01-5.00000E-01
 -1       214 9.47007E+00 1.15393E+01-5.00000E-01
 -1       215 7.03690E+00-1.31651E+01-5.00000E-01
 -1       216 7.03690E+00 1.31651E+01-5.00000E-01
 -1       217 4.33330E+00-1.42850E+01-5.00000E-01
 -1       218 4.33330E+00 1.42850E+01-5.00000E-01
 -1       219 1.46318E+00-1.48559E+01-5.00000E-01
 -1       220-1.46318E+00 1.48559E+01-5.00000E-01
 -1       221-4.33330E+00-1.42850E+01-5.00000E-01
 -1       222-7.03690E+00-1.31651E+01-5.00000E-01
 -1       223-7.03690E+00 1.31651E+01-5.00000E-01
 -1       224-9.47007E+00-1.15393E+01-5.00000E-01
 -1       225-1.15393E+01-9.47007E+00-5.00000E-01
 -1       226-1.15393E+01 9.47007E+00-5.00000E-01
 -1       227-1.31651E+01-7.03690E+00-5.00000E-01
 -1       228-1.31651E+01 7.03690E+00-5.00000E-01
 -1       229-1.42850E+01-4.33330E+00-5.00000E-01
 -1       230-1.42850E+01 4.33330E+00-5.00000E-01
 -1       231-1.48559E+01-1.46318E+00-5.00000E-01
 -1       232 1.31651E+01 7.03690E+00 5.00000E-01
 -1       233 1.42850E+01 4.33330E+00 5.00000E-01
 -1       234 7.03690E+00 1.31651E+01 5.00000E-01
 -1       235 4.33330E+00 1.42850E+01 5.00000E-01
 -1       236 9.47007E+00 1.15393E+01 5.00000E-01
 -1       237-1.31651E+01 7.03690E+00 5.00000E-01
 -1       238-1.15393E+01 9.47007E+00 5.00000E-01
 -1       239-1.42850E+01 4.33330E+00 5.00000E-01
 -1       240-6.31238E+00 2.28995E+00 5.00000E-01
 -1       241-6.70820E+00 2.99999E-01 5.00000E-01
 -1       242-4.95554E+00 4.53128E+00 5.00000E-01
 -1       243-6.08277E+00 2.84428E+00 5.00000E-01
 -1       244-2.84428E+00 6.08277E+00 5.00000E-01
 -1       245-7.03690E+00 1.31651E+01 5.00000E-01
 -1       246-4.53128E+00 4.95554E+00 5.00000E-01
 -1       247-2.84428E+00-6.08277E+00 5.00000E-01
 -1       248-4.53128E+00-4.95554E+00 5.00000E-01
 -1       249-7.03690E+00-1.31651E+01 5.00000E-01
 -1       250-4.95554E+00-4.53128E+00 5.00000E-01
 -1       251-6.08277E+00-2.84428E+00 5.00000E-01
 -1       252-9.47007E+00-1.15393E+01 5.00000E-01
 -1       253-1.15393E+01-9.47007E+00 5.00000E-01
 -1       254-1.31651E+01-7.03690E+00 5.00000E-01
 -1       255-1.42850E+01-4.33330E+00 5.00000E-01
 -1       256-1.48559E+01-1.46318E+00 5.00000E-01
 -1       257-6.31238E+00-2.28995E+00 5.00000E-01
 -1       258-6.70820E+00-2.99999E-01 5.00000E-01
 -1       259 2.99999E-01 6.70820E+00 5.00000E-01
 -1       260 2.28995E+00 6.31238E+00 5.00000E-01
 -1       261-2.99999E-01 6.70820E+00 5.00000E-01
 -1       262-1.46318E+00 1.48559E+01 5.00000E-01
 -1       263-2.28995E+00 6.31238E+00 5.00000E-01
 -1       264 4.53128E+00 4.95554E+00 5.00000E-01
 -1       265 2.84428E+00 6.08277E+00 5.00000E-01
 -1       266 6.70820E+00-2.99999E-01 5.00000E-01
 -1       267 6.31238E+00-2.28995E+00 5.00000E-01
 -1       268 1.48559E+01-1.46318E+00 5.00000E-01
 -1       269 1.42850E+01-4.33330E+00 5.00000E-01
 -1       270 6.08277E+00 2.84428E+00 5.00000E-01
 -1       271 4.95554E+00 4.53128E+00 5.00000E-01
 -1       272 1.31651E+01-7.03690E+00 5.00000E-01
 -1       273 1.15393E+01-9.47007E+00 5.00000E-01
 -1       274 6.08277E+00-2.84428E+00 5.00000E-01
 -1       275 4.95554E+00-4.53128E+00 5.00000E-01
 -1       276 6.70820E+00 2.99999E-01 5.00000E-01
 -1       277 6.31238E+00 2.28995E+00 5.00000E-01
 -1       278 9.47007E+00-1.15393E+01 5.00000E-01
 -1       279 7.03690E+00-1.31651E+01 5.00000E-01
 -1       280 4.53128E+00-4.95554E+00 5.00000E-01
 -1       281 2.84428E+00-6.08277E+00 5.00000E-01
 -1       282 4.33330E+00-1.42850E+01 5.00000E-01
 -1       283 2.28995E+00-6.31238E+00 5.00000E-01
 -1       284 2.99999E-01-6.70820E+00 5.00000E-01
 -1       285 1.46318E+00-1.48559E+01 5.00000E-01
 -1       286-2.99999E-01-6.70820E+00 5.00000E-01
 -1       287-2.28995E+00-6.31238E+00 5.00000E-01
 -1       288-4.33330E+00-1.42850E+01 5.00000E-01
 -1       289 6.70820E+00 2.99999E-01 6.95000E-01
 -1       290 6.70820E+00-2.99999E-01 6.95000E-01
 -1       291 6.31238E+00 2.28995E+00 6.95000E-01
 -1       292 6.08277E+00 2.84428E+00 6.95000E-01
 -1       293 4.95554E+00 4.53128E+00 6.95000E-01
 -1       294 4.53128E+00 4.95554E+00 6.95000E-01
 -1       295 2.84428E+00 6.08277E+00 6.95000E-01
 -1       296 2.28995E+00 6.31238E+00 6.95000E-01
 -1       297 2.99999E-01 6.70820E+00 6.95000E-01
 -1       298-2.99999E-01 6.70820E+00 6.95000E-01
 -1       299-2.28995E+00 6.31238E+00 6.95000E-01
 -1       300-2.84428E+00 6.08277E+00 6.95000E-01
 -1       301-4.53128E+00 4.95554E+00 6.95000E-01
 -1       302-4.95554E+00 4.53128E+00 6.95000E-01
 -1       303-6.08277E+00 2.84428E+00 6.95000E-01
 -1       304-6.31238E+00 2.28995E+00 6.95000E-01
 -1       305-6.70820E+00 2.99999E-01 6.95000E-01
 -1       306-6.70820E+00-2.99999E-01 6.95000E-01
 -1       307-6.08277E+00-2.84428E+00 6.95000E-01
 -1       308-6.31238E+00-2.28995E+00 6.95000E-01
 -1       309-4.53128E+00-4.95554E+00 6.95000E-01
 -1       310-4.95554E+00-4.53128E+00 6.95000E-01
 -1       311-2.28995E+00-6.31238E+00 6.95000E-01
 -1       312-2.84428E+00-6.08277E+00 6.95000E-01
 -1       313 2.99999E-01-6.70820E+00 6.95000E-01
 -1       314-2.99999E-01-6.70820E+00 6.95000E-01
 -1       315 2.84428E+00-6.08277E+00 6.95000E-01
 -1       316 2.28995E+00-6.31238E+00 6.95000E-01
 -1       317 4.95554E+00-4.53128E+00 6.95000E-01
 -1       318 4.53128E+00-4.95554E+00 6.95000E-01
 -1       319 6.31238E+00-2.28995E+00 6.95000E-01
 -1       320 6.08277E+00-2.84428E+00 6.95000E-01
 -1       321 1.47838E+01 2.19476E+00 5.00000E-01
 -1       322 1.49279E+01 7.31588E-01 5.00000E-01
 -1       323-1.49279E+01 7.31588E-01-5.00000E-01
 -1       324 2.19476E+00 1.47838E+01 5.00000E-01
 -1       325-8.90181E+00 1.20056E+01 5.00000E-01
 -1       326 1.40716E+01-5.03678E+00-5.00000E-01
 -1       327 1.44984E+01 3.62983E+00-5.00000E-01
 -1       328 1.28186E+01-7.68523E+00-5.00000E-01
 -1       329 1.35117E+01 6.38858E+00-5.00000E-01
 -1       330 1.10730E+01-1.00383E+01-5.00000E-01
 -1       331 8.90181E+00-1.20056E+01-5.00000E-01
 -1       332 1.00383E+01 1.10730E+01-5.00000E-01
 -1       333 6.38858E+00-1.35117E+01-5.00000E-01
 -1       334 7.68523E+00 1.28186E+01-5.00000E-01
 -1       335 3.62983E+00-1.44984E+01-5.00000E-01
 -1       336 3.62983E+00 1.44984E+01-5.00000E-01
 -1       337 5.03678E+00 1.40716E+01-5.00000E-01
 -1       338 2.19476E+00-1.47838E+01-5.00000E-01
 -1       339 7.31588E-01-1.49279E+01-5.00000E-01
 -1       340-2.19476E+00 1.47838E+01-5.00000E-01
 -1       341-7.31588E-01 1.49279E+01-5.00000E-01
 -1       342-5.03678E+00-1.40716E+01-5.00000E-01
 -1       343-7.68523E+00-1.28186E+01-5.00000E-01
 -1       344-7.68523E+00 1.28186E+01-5.00000E-01
 -1       345-6.38858E+00 1.35117E+01-5.00000E-01
 -1       346-1.00383E+01-1.10730E+01-5.00000E-01
 -1       347-1.20056E+01-8.90181E+00-5.00000E-01
 -1       348-1.20056E+01 8.90181E+00-5.00000E-01
 -1       349-1.10730E+01 1.00383E+01-5.00000E-01
 -1       350-1.35117E+01-6.38858E+00-5.00000E-01
 -1       351-1.28186E+01 7.68523E+00-5.00000E-01
 -1       352-1.44984E+01-3.62983E+00-5.00000E-01
 -1       353-1.40716E+01 5.03678E+00-5.00000E-01
 -1       354-1.49279E+01-7.31588E-01-5.00000E-01
 -1       355 1.35117E+01 6.38858E+00 5.00000E-01
 -1       356 7.68523E+00 1.28186E+01 5.00000E-01
 -1       357 1.00383E+01 1.10730E+01 5.00000E-01
 -1       358-1.10730E+01 1.00383E+01 5.00000E-01
 -1       359-1.40716E+01 5.03678E+00 5.00000E-01
 -1       360-4.95320E+00 2.99999E-01 5.00000E-01
 -1       361-4.46136E+00 2.17267E+00 5.00000E-01
 -1       362-3.29031E+00-3.71457E+00 5.00000E-01
 -1       363-5.77226E+00-6.19652E+00 5.00000E-01
 -1       364-3.71457E+00-3.29031E+00 5.00000E-01
 -1       365-4.46136E+00-2.17267E+00 5.00000E-01
 -1       366-7.70417E+00-3.51589E+00 5.00000E-01
 -1       367-1.10730E+01-1.00383E+01 5.00000E-01
 -1       368-1.28186E+01-7.68523E+00 5.00000E-01
 -1       369-1.47838E+01-2.19476E+00 5.00000E-01
 -1       370-8.46320E+00-2.99999E-01 5.00000E-01
 -1       371 2.99999E-01 4.95320E+00 5.00000E-01
 -1       372 1.61834E+00 4.69097E+00 5.00000E-01
 -1       373 2.96156E+00 7.93378E+00 5.00000E-01
 -1       374-2.19476E+00 1.47838E+01 5.00000E-01
 -1       375-1.61834E+00 4.69097E+00 5.00000E-01
 -1       376 2.17267E+00 4.46136E+00 5.00000E-01
 -1       377 4.95320E+00-2.99999E-01 5.00000E-01
 -1       378 7.93378E+00-2.96156E+00 5.00000E-01
 -1       379 7.70417E+00 3.51589E+00 5.00000E-01
 -1       380 3.71457E+00 3.29031E+00 5.00000E-01
 -1       381 1.20056E+01-8.90181E+00 5.00000E-01
 -1       382 7.70417E+00-3.51589E+00 5.00000E-01
 -1       383 4.46136E+00-2.17267E+00 5.00000E-01
 -1       384 3.71457E+00-3.29031E+00 5.00000E-01
 -1       385 6.19652E+00-5.77226E+00 5.00000E-01
 -1       386 1.00383E+01-1.10730E+01 5.00000E-01
 -1       387 7.68523E+00-1.28186E+01 5.00000E-01
 -1       388 3.29031E+00-3.71457E+00 5.00000E-01
 -1       389 3.51589E+00-7.70417E+00 5.00000E-01
 -1       390 2.99999E-01-8.46320E+00 5.00000E-01
 -1       391 2.19476E+00-1.47838E+01 5.00000E-01
 -1       392-2.96156E+00-7.93378E+00 5.00000E-01
 -1       393-5.83070E+00 2.99999E-01 5.00000E-01
 -1       394-4.07570E+00 2.99999E-01 5.00000E-01
 -1       395-5.27206E+00 2.50848E+00 5.00000E-01
 -1       396-3.65065E+00 1.83686E+00 5.00000E-01
 -1       397-2.66983E+00-3.09409E+00 5.00000E-01
 -1       398-3.91080E+00-4.33506E+00 5.00000E-01
 -1       399-5.15177E+00-5.57603E+00 5.00000E-01
 -1       400-6.39274E+00-6.81700E+00 5.00000E-01
 -1       401-3.09409E+00-2.66983E+00 5.00000E-01
 -1       402-3.65065E+00-1.83686E+00 5.00000E-01
 -1       403-5.27206E+00-2.50848E+00 5.00000E-01
 -1       404-6.89347E+00-3.18008E+00 5.00000E-01
 -1       405-8.51488E+00-3.85170E+00 5.00000E-01
 -1       406-7.58570E+00-2.99999E-01 5.00000E-01
 -1       407-9.34070E+00-2.99999E-01 5.00000E-01
 -1       408 2.99999E-01 5.83070E+00 5.00000E-01
 -1       409 2.99999E-01 4.07570E+00 5.00000E-01
 -1       410 1.28254E+00 3.88026E+00 5.00000E-01
 -1       411 1.95415E+00 5.50167E+00 5.00000E-01
 -1       412 2.62576E+00 7.12308E+00 5.00000E-01
 -1       413 3.29737E+00 8.74449E+00 5.00000E-01
 -1       414-1.95415E+00 5.50167E+00 5.00000E-01
 -1       415-1.28254E+00 3.88026E+00 5.00000E-01
 -1       416 1.83686E+00 3.65065E+00 5.00000E-01
 -1       417 5.83070E+00-2.99999E-01 5.00000E-01
 -1       418 4.07570E+00-2.99999E-01 5.00000E-01
 -1       419 7.12308E+00-2.62576E+00 5.00000E-01
 -1       420 8.74449E+00-3.29737E+00 5.00000E-01
 -1       421 6.89347E+00 3.18008E+00 5.00000E-01
 -1       422 8.51488E+00 3.85170E+00 5.00000E-01
 -1       423 4.33506E+00 3.91080E+00 5.00000E-01
 -1       424 3.09409E+00 2.66983E+00 5.00000E-01
 -1       425 6.89347E+00-3.18008E+00 5.00000E-01
 -1       426 3.65065E+00-1.83686E+00 5.00000E-01
 -1       427 3.09409E+00-2.66983E+00 5.00000E-01
 -1       428 4.33506E+00-3.91080E+00 5.00000E-01
 -1       429 5.57603E+00-5.15177E+00 5.00000E-01
 -1       430 6.81700E+00-6.39274E+00 5.00000E-01
 -1       431 2.66983E+00-3.09409E+00 5.00000E-01
 -1       432 3.18008E+00-6.89347E+00 5.00000E-01
 -1       433 3.85170E+00-8.51488E+00 5.00000E-01
 -1       434 2.99999E-01-7.58570E+00 5.00000E-01
 -1       435 2.99999E-01-9.34070E+00 5.00000E-01
 -1       436-2.62576E+00-7.12308E+00 5.00000E-01
 -1       437-3.29737E+00-8.74449E+00 5.00000E-01
 -1       438 1.47838E+01 2.19476E+00-5.00000E-01
 -1       439 1.49279E+01 7.31588E-01-5.00000E-01
 -1       440-1.47838E+01 2.19476E+00-5.00000E-01
 -1       441-1.47838E+01 2.19476E+00 5.00000E-01
 -1       442-1.49279E+01 7.31588E-01 5.00000E-01
 -1       443 7.31588E-01 1.49279E+01 5.00000E-01
 -1       444 7.31588E-01 1.49279E+01-5.00000E-01
 -1       445 2.19476E+00 1.47838E+01-5.00000E-01
 -1       446-2.19476E+00-1.47838E+01 5.00000E-01
 -1       447-7.31588E-01-1.49279E+01 5.00000E-01
 -1       448-7.31588E-01-1.49279E+01-5.00000E-01
 -1       449-2.19476E+00-1.47838E+01-5.00000E-01
 -1       450 1.20056E+01 8.90181E+00 5.00000E-01
 -1       451 1.10730E+01 1.00383E+01 5.00000E-01
 -1       452 1.10730E+01 1.00383E+01-5.00000E-01
 -1       453 1.20056E+01 8.90181E+00-5.00000E-01
 -1       454-1.00383E+01 1.10730E+01 5.00000E-01
 -1       455-1.00383E+01 1.10730E+01-5.00000E-01
 -1       456-8.90181E+00 1.20056E+01-5.00000E-01
 -1       457-3.62983E+00 1.44984E+01 5.00000E-01
 -1       458-5.03678E+00 1.40716E+01 5.00000E-01
 -1       459-5.03678E+00 1.40716E+01-5.00000E-01
 -1       460-3.62983E+00 1.44984E+01-5.00000E-01
 -1       461 1.47838E+01-2.19476E+00-5.00000E-01
 -1       462 1.49279E+01-7.31588E-01-5.00000E-01
 -1       463 1.44984E+01-3.62983E+00-5.00000E-01
 -1       464 1.40716E+01 5.03678E+00-5.00000E-01
 -1       465 1.35117E+01-6.38858E+00-5.00000E-01
 -1       466 1.28186E+01 7.68523E+00-5.00000E-01
 -1       467 1.20056E+01-8.90181E+00-5.00000E-01
 -1       468 1.00383E+01-1.10730E+01-5.00000E-01
 -1       469 8.90181E+00 1.20056E+01-5.00000E-01
 -1       470 7.68523E+00-1.28186E+01-5.00000E-01
 -1       471 6.38858E+00 1.35117E+01-5.00000E-01
 -1       472 5.03678E+00-1.40716E+01-5.00000E-01
 -1       473-3.62983E+00-1.44984E+01-5.00000E-01
 -1       474-6.38858E+00-1.35117E+01-5.00000E-01
 -1       475-8.90181E+00-1.20056E+01-5.00000E-01
 -1       476-1.10730E+01-1.00383E+01-5.00000E-01
 -1       477-1.28186E+01-7.68523E+00-5.00000E-01
 -1       478-1.35117E+01 6.38858E+00-5.00000E-01
 -1       479-1.40716E+01-5.03678E+00-5.00000E-01
 -1       480-1.44984E+01 3.62983E+00-5.00000E-01
 -1       481-1.47838E+01-2.19476E+00-5.00000E-01
 -1       482 1.28186E+01 7.68523E+00 5.00000E-01
 -1       483 1.44984E+01 3.62983E+00 5.00000E-01
 -1       484 1.40716E+01 5.03678E+00 5.00000E-01
 -1       485 6.38858E+00 1.35117E+01 5.00000E-01
 -1       486 5.03678E+00 1.40716E+01 5.00000E-01
 -1       487 3.62983E+00 1.44984E+01 5.00000E-01
 -1       488 8.90181E+00 1.20056E+01 5.00000E-01
 -1       489-1.28186E+01 7.68523E+00 5.00000E-01
 -1       490-1.35117E+01 6.38858E+00 5.00000E-01
 -1       491-1.20056E+01 8.90181E+00 5.00000E-01
 -1       492-1.44984E+01 3.62983E+00 5.00000E-01
 -1       493-7.93378E+00 2.96156E+00 5.00000E-01
 -1       494-4.69097E+00 1.61834E+00 5.00000E-01
 -1       495-8.46320E+00 2.99999E-01 5.00000E-01
 -1       496-6.19652E+00 5.77226E+00 5.00000E-01
 -1       497-3.71457E+00 3.29031E+00 5.00000E-01
 -1       498-7.70417E+00 3.51589E+00 5.00000E-01
 -1       499-3.29031E+00 3.71457E+00 5.00000E-01
 -1       500-7.68523E+00 1.28186E+01 5.00000E-01
 -1       501-3.51589E+00 7.70417E+00 5.00000E-01
 -1       502-2.17267E+00 4.46136E+00 5.00000E-01
 -1       503-6.38858E+00 1.35117E+01 5.00000E-01
 -1       504-5.77226E+00 6.19652E+00 5.00000E-01
 -1       505-2.17267E+00-4.46136E+00 5.00000E-01
 -1       506-3.51589E+00-7.70417E+00 5.00000E-01
 -1       507-6.38858E+00-1.35117E+01 5.00000E-01
 -1       508-7.68523E+00-1.28186E+01 5.00000E-01
 -1       509-6.19652E+00-5.77226E+00 5.00000E-01
 -1       510-8.90181E+00-1.20056E+01 5.00000E-01
 -1       511-1.00383E+01-1.10730E+01 5.00000E-01
 -1       512-1.20056E+01-8.90181E+00 5.00000E-01
 -1       513-1.35117E+01-6.38858E+00 5.00000E-01
 -1       514-1.40716E+01-5.03678E+00 5.00000E-01
 -1       515-1.44984E+01-3.62983E+00 5.00000E-01
 -1       516-1.49279E+01-7.31588E-01 5.00000E-01
 -1       517-4.69097E+00-1.61834E+00 5.00000E-01
 -1       518-7.93378E+00-2.96156E+00 5.00000E-01
 -1       519-4.95320E+00-2.99999E-01 5.00000E-01
 -1       520 2.99999E-01 8.46320E+00 5.00000E-01
 -1       521-2.99999E-01 8.46320E+00 5.00000E-01
 -1       522-2.99999E-01 4.95320E+00 5.00000E-01
 -1       523-7.31588E-01 1.49279E+01 5.00000E-01
 -1       524-2.96156E+00 7.93378E+00 5.00000E-01
 -1       525 5.77226E+00 6.19652E+00 5.00000E-01
 -1       526 3.29031E+00 3.71457E+00 5.00000E-01
 -1       527 3.51589E+00 7.70417E+00 5.00000E-01
 -1       528 8.46320E+00-2.99999E-01 5.00000E-01
 -1       529 4.69097E+00-1.61834E+00 5.00000E-01
 -1       530 4.46136E+00 2.17267E+00 5.00000E-01
 -1       531 1.44984E+01-3.62983E+00 5.00000E-01
 -1       532 1.49279E+01-7.31588E-01 5.00000E-01
 -1       533 1.47838E+01-2.19476E+00 5.00000E-01
 -1       534 1.40716E+01-5.03678E+00 5.00000E-01
 -1       535 6.19652E+00 5.77226E+00 5.00000E-01
 -1       536 1.35117E+01-6.38858E+00 5.00000E-01
 -1       537 1.28186E+01-7.68523E+00 5.00000E-01
 -1       538 1.10730E+01-1.00383E+01 5.00000E-01
 -1       539 8.46320E+00 2.99999E-01 5.00000E-01
 -1       540 4.95320E+00 2.99999E-01 5.00000E-01
 -1       541 4.69097E+00 1.61834E+00 5.00000E-01
 -1       542 7.93378E+00 2.96156E+00 5.00000E-01
 -1       543 8.90181E+00-1.20056E+01 5.00000E-01
 -1       544 6.38858E+00-1.35117E+01 5.00000E-01
 -1       545 5.77226E+00-6.19652E+00 5.00000E-01
 -1       546 2.17267E+00-4.46136E+00 5.00000E-01
 -1       547 2.99999E-01-4.95320E+00 5.00000E-01
 -1       548 1.61834E+00-4.69097E+00 5.00000E-01
 -1       549 5.03678E+00-1.40716E+01 5.00000E-01
 -1       550 3.62983E+00-1.44984E+01 5.00000E-01
 -1       551 2.96156E+00-7.93378E+00 5.00000E-01
 -1       552 7.31588E-01-1.49279E+01 5.00000E-01
 -1       553-2.99999E-01-4.95320E+00 5.00000E-01
 -1       554-2.99999E-01-8.46320E+00 5.00000E-01
 -1       555-1.61834E+00-4.69097E+00 5.00000E-01
 -1       556-3.62983E+00-1.44984E+01 5.00000E-01
 -1       557-5.03678E+00-1.40716E+01 5.00000E-01
 -1       558 8.46320E+00-2.99999E-01 6.95000E-01
 -1       559 4.95320E+00 2.99999E-01 6.95000E-01
 -1       560 8.46320E+00 2.99999E-01 6.95000E-01
 -1       561 4.95320E+00-2.99999E-01 6.95000E-01
 -1       562 4.46136E+00 2.17267E+00 6.95000E-01
 -1       563 7.93378E+00 2.96156E+00 6.95000E-01
 -1       564 4.69097E+00 1.61834E+00 6.95000E-01
 -1       565 7.70417E+00 3.51589E+00 6.95000E-01
 -1       566 3.29031E+00 3.71457E+00 6.95000E-01
 -1       567 6.19652E+00 5.77226E+00 6.95000E-01
 -1       568 3.71457E+00 3.29031E+00 6.95000E-01
 -1       569 5.77226E+00 6.19652E+00 6.95000E-01
 -1       570 1.61834E+00 4.69097E+00 6.95000E-01
 -1       571 3.51589E+00 7.70417E+00 6.95000E-01
 -1       572 2.17267E+00 4.46136E+00 6.95000E-01
 -1       573 2.96156E+00 7.93378E+00 6.95000E-01
 -1       574-2.99999E-01 4.95320E+00 6.95000E-01
 -1       575 2.99999E-01 8.46320E+00 6.95000E-01
 -1       576 2.99999E-01 4.95320E+00 6.95000E-01
 -1       577-2.99999E-01 8.46320E+00 6.95000E-01
 -1       578-2.17267E+00 4.46136E+00 6.95000E-01
 -1       579-2.96156E+00 7.93378E+00 6.95000E-01
 -1       580-1.61834E+00 4.69097E+00 6.95000E-01
 -1       581-3.51589E+00 7.70417E+00 6.95000E-01
 -1       582-5.77226E+00 6.19652E+00 6.95000E-01
 -1       583-3.29031E+00 3.71457E+00 6.95000E-01
 -1       584-3.71457E+00 3.29031E+00 6.95000E-01
 -1       585-6.19652E+00 5.77226E+00 6.95000E-01
 -1       586-7.70417E+00 3.51589E+00 6.95000E-01
 -1       587-4.46136E+00 2.17267E+00 6.95000E-01
 -1       588-4.69097E+00 1.61834E+00 6.95000E-01
 -1       589-7.93378E+00 2.96156E+00 6.95000E-01
 -1       590-8.46320E+00 2.99999E-01 6.95000E-01
 -1       591-4.95320E+00 2.99999E-01 6.95000E-01
 -1       592-4.95320E+00-2.99999E-01 6.95000E-01
 -1       593-8.46320E+00-2.99999E-01 6.95000E-01
 -1       594-4.46136E+00-2.17267E+00 6.95000E-01
 -1       595-7.70417E+00-3.51589E+00 6.95000E-01
 -1       596-7.93378E+00-2.96156E+00 6.95000E-01
 -1       597-4.69097E+00-1.61834E+00 6.95000E-01
 -1       598-3.29031E+00-3.71457E+00 6.95000E-01
 -1       599-5.77226E+00-6.19652E+00 6.95000E-01
 -1       600-6.19652E+00-5.77226E+00 6.95000E-01
 -1       601-3.71457E+00-3.29031E+00 6.95000E-01
 -1       602-3.51589E+00-7.70417E+00 6.95000E-01
 -1       603-1.61834E+00-4.69097E+00 6.95000E-01
 -1       604-2.96156E+00-7.93378E+00 6.95000E-01
 -1       605-2.17267E+00-4.46136E+00 6.95000E-01
 -1       606 2.99999E-01-4.95320E+00 6.95000E-01
 -1       607 2.99999E-01-8.46320E+00 6.95000E-01
 -1       608-2.99999E-01-8.46320E+00 6.95000E-01
 -1       609-2.99999E-01-4.95320E+00 6.95000E-01
 -1       610 2.96156E+00-7.93378E+00 6.95000E-01
 -1       611 2.17267E+00-4.46136E+00 6.95000E-01
 -1       612 3.51589E+00-7.70417E+00 6.95000E-01
 -1       613 1.61834E+00-4.69097E+00 6.95000E-01
 -1       614 5.77226E+00-6.19652E+00 6.95000E-01
 -1       615 3.71457E+00-3.29031E+00 6.95000E-01
 -1       616 6.19652E+00-5.77226E+00 6.95000E-01
 -1       617 3.29031E+00-3.71457E+00 6.95000E-01
 -1       618 7.70417E+00-3.51589E+00 6.95000E-01
 -1       619 4.69097E+00-1.61834E+00 6.95000E-01
 -1       620 7.93378E+00-2.96156E+00 6.95000E-01
 -1       621 4.46136E+00-2.17267E+00 6.95000E-01
 -1       622-4.33506E+00-3.91080E+00 5.00000E-01
 -1       623 2.50848E+00 5.27206E+00 5.00000E-01
 -1       624 8.51488E+00-3.85170E+00 5.00000E-01
 -1       625 5.27206E+00-2.50848E+00 5.00000E-01
 -1       626 3.91080E+00-4.33506E+00 5.00000E-01
 -1       627-7.12308E+00 2.62576E+00 5.00000E-01
 -1       628-8.74449E+00 3.29737E+00 5.00000E-01
 -1       629-5.50167E+00 1.95415E+00 5.00000E-01
 -1       630-5.57603E+00 5.15177E+00 5.00000E-01
 -1       631-6.81700E+00 6.39274E+00 5.00000E-01
 -1       632-3.09409E+00 2.66983E+00 5.00000E-01
 -1       633-4.33506E+00 3.91080E+00 5.00000E-01
 -1       634-2.66983E+00 3.09409E+00 5.00000E-01
 -1       635-3.18008E+00 6.89347E+00 5.00000E-01
 -1       636-3.85170E+00 8.51488E+00 5.00000E-01
 -1       637-2.50848E+00 5.27206E+00 5.00000E-01
 -1       638-5.15177E+00 5.57603E+00 5.00000E-01
 -1       639-2.50848E+00-5.27206E+00 5.00000E-01
 -1       640-1.83686E+00-3.65065E+00 5.00000E-01
 -1       641-3.18008E+00-6.89347E+00 5.00000E-01
 -1       642-5.57603E+00-5.15177E+00 5.00000E-01
 -1       643-3.88026E+00-1.28254E+00 5.00000E-01
 -1       644-8.74449E+00-3.29737E+00 5.00000E-01
 -1       645-7.12308E+00-2.62576E+00 5.00000E-01
 -1       646-5.83070E+00-2.99999E-01 5.00000E-01
 -1       647 2.99999E-01 9.34070E+00 5.00000E-01
 -1       648 2.99999E-01 7.58570E+00 5.00000E-01
 -1       649-2.62576E+00 7.12308E+00 5.00000E-01
 -1       650 6.39274E+00 6.81700E+00 5.00000E-01
 -1       651 3.91080E+00 4.33506E+00 5.00000E-01
 -1       652 9.34070E+00-2.99999E-01 5.00000E-01
 -1       653 7.58570E+00-2.99999E-01 5.00000E-01
 -1       654 5.50167E+00-1.95415E+00 5.00000E-01
 -1       655 3.65065E+00 1.83686E+00 5.00000E-01
 -1       656 5.27206E+00 2.50848E+00 5.00000E-01
 -1       657 7.12308E+00 2.62576E+00 5.00000E-01
 -1       658 5.15177E+00-5.57603E+00 5.00000E-01
 -1       659 2.50848E+00-5.27206E+00 5.00000E-01
 -1       660 2.99999E-01-4.07570E+00 5.00000E-01
 -1       661 2.99999E-01-5.83070E+00 5.00000E-01
 -1       662 1.28254E+00-3.88026E+00 5.00000E-01
 -1       663 2.62576E+00-7.12308E+00 5.00000E-01
 -1       664-2.99999E-01-4.07570E+00 5.00000E-01
 -1       665-2.99999E-01-7.58570E+00 5.00000E-01
 -1       666-1.95415E+00-5.50167E+00 5.00000E-01
 -1       667-7.12308E+00 2.62576E+00 6.95000E-01
 -1       668-7.58570E+00-2.99999E-01 6.95000E-01
 -1       669-5.50167E+00-1.95415E+00 6.95000E-01
 -1       670-2.50848E+00-5.27206E+00 6.95000E-01
 -1       671 3.18008E+00-6.89347E+00 6.95000E-01
 -1       672 7.12308E+00-2.62576E+00 6.95000E-01
 -1       673-3.88026E+00 1.28254E+00 5.00000E-01
 -1       674-7.58570E+00 2.99999E-01 5.00000E-01
 -1       675-9.34070E+00 2.99999E-01 5.00000E-01
 -1       676-6.89347E+00 3.18008E+00 5.00000E-01
 -1       677-8.51488E+00 3.85170E+00 5.00000E-01
 -1       678-3.91080E+00 4.33506E+00 5.00000E-01
 -1       679-1.83686E+00 3.65065E+00 5.00000E-01
 -1       680-6.39274E+00 6.81700E+00 5.00000E-01
 -1       681-3.85170E+00-8.51488E+00 5.00000E-01
 -1       682-6.81700E+00-6.39274E+00 5.00000E-01
 -1       683-5.50167E+00-1.95415E+00 5.00000E-01
 -1       684-4.07570E+00-2.99999E-01 5.00000E-01
 -1       685-2.99999E-01 5.83070E+00 5.00000E-01
 -1       686-2.99999E-01 9.34070E+00 5.00000E-01
 -1       687-2.99999E-01 7.58570E+00 5.00000E-01
 -1       688-2.99999E-01 4.07570E+00 5.00000E-01
 -1       689-3.29737E+00 8.74449E+00 5.00000E-01
 -1       690 5.15177E+00 5.57603E+00 5.00000E-01
 -1       691 2.66983E+00 3.09409E+00 5.00000E-01
 -1       692 3.18008E+00 6.89347E+00 5.00000E-01
 -1       693 3.85170E+00 8.51488E+00 5.00000E-01
 -1       694 3.88026E+00-1.28254E+00 5.00000E-01
 -1       695 5.57603E+00 5.15177E+00 5.00000E-01
 -1       696 6.81700E+00 6.39274E+00 5.00000E-01
 -1       697 3.88026E+00 1.28254E+00 5.00000E-01
 -1       698 5.83070E+00 2.99999E-01 5.00000E-01
 -1       699 9.34070E+00 2.99999E-01 5.00000E-01
 -1       700 7.58570E+00 2.99999E-01 5.00000E-01
 -1       701 4.07570E+00 2.99999E-01 5.00000E-01
 -1       702 5.50167E+00 1.95415E+00 5.00000E-01
 -1       703 8.74449E+00 3.29737E+00 5.00000E-01
 -1       704 6.39274E+00-6.81700E+00 5.00000E-01
 -1       705 1.83686E+00-3.65065E+00 5.00000E-01
 -1       706 1.95415E+00-5.50167E+00 5.00000E-01
 -1       707 3.29737E+00-8.74449E+00 5.00000E-01
 -1       708-2.99999E-01-5.83070E+00 5.00000E-01
 -1       709-2.99999E-01-9.34070E+00 5.00000E-01
 -1       710-1.28254E+00-3.88026E+00 5.00000E-01
 -1       711-5.57603E+00 5.15177E+00 6.95000E-01
 -1       712-1.95415E+00 5.50167E+00 6.95000E-01
 -1       713-3.29737E+00 8.74449E+00 6.95000E-01
 -1       714 2.50848E+00 5.27206E+00 6.95000E-01
 -1       715 4.33506E+00 3.91080E+00 6.95000E-01
 -1       716 2.66983E+00 3.09409E+00 6.95000E-01
 -1       717 6.89347E+00 3.18008E+00 6.95000E-01
 -1       718 5.50167E+00 1.95415E+00 6.95000E-01
 -1       719 7.58570E+00 2.99999E-01 6.95000E-01
 -1       720 4.07570E+00 2.99999E-01 6.95000E-01
 -1       721 9.34070E+00-2.99999E-01 6.95000E-01
 -1       722 7.58570E+00-2.99999E-01 6.95000E-01
 -1       723 5.83070E+00 2.99999E-01 6.95000E-01
 -1       724 9.34070E+00 2.99999E-01 6.95000E-01
 -1       725 5.83070E+00-2.99999E-01 6.95000E-01
 -1       726 4.07570E+00-2.99999E-01 6.95000E-01
 -1       727 8.74449E+00 3.29737E+00 6.95000E-01
 -1       728 3.65065E+00 1.83686E+00 6.95000E-01
 -1       729 5.27206E+00 2.50848E+00 6.95000E-01
 -1       730 7.12308E+00 2.62576E+00 6.95000E-01
 -1       731 3.88026E+00 1.28254E+00 6.95000E-01
 -1       732 8.51488E+00 3.85170E+00 6.95000E-01
 -1       733 3.91080E+00 4.33506E+00 6.95000E-01
 -1       734 6.81700E+00 6.39274E+00 6.95000E-01
 -1       735 5.57603E+00 5.15177E+00 6.95000E-01
 -1       736 3.09409E+00 2.66983E+00 6.95000E-01
 -1       737 5.15177E+00 5.57603E+00 6.95000E-01
 -1       738 6.39274E+00 6.81700E+00 6.95000E-01
 -1       739 3.85170E+00 8.51488E+00 6.95000E-01
 -1       740 1.28254E+00 3.88026E+00 6.95000E-01
 -1       741 1.95415E+00 5.50167E+00 6.95000E-01
 -1       742 3.18008E+00 6.89347E+00 6.95000E-01
 -1       743 1.83686E+00 3.65065E+00 6.95000E-01
 -1       744 2.99999E-01 5.83070E+00 6.95000E-01
 -1       745 2.62576E+00 7.12308E+00 6.95000E-01
 -1       746 3.29737E+00 8.74449E+00 6.95000E-01
 -1       747-2.99999E-01 4.07570E+00 6.95000E-01
 -1       748-2.99999E-01 5.83070E+00 6.95000E-01
 -1       749 2.99999E-01 9.34070E+00 6.95000E-01
 -1       750 2.99999E-01 7.58570E+00 6.95000E-01
 -1       751 2.99999E-01 4.07570E+00 6.95000E-01
 -1       752-2.99999E-01 7.58570E+00 6.95000E-01
 -1       753-2.99999E-01 9.34070E+00 6.95000E-01
 -1       754-1.83686E+00 3.65065E+00 6.95000E-01
 -1       755-2.50848E+00 5.27206E+00 6.95000E-01
 -1       756-2.62576E+00 7.12308E+00 6.95000E-01
 -1       757-1.28254E+00 3.88026E+00 6.95000E-01
 -1       758-3.18008E+00 6.89347E+00 6.95000E-01
 -1       759-3.85170E+00 8.51488E+00 6.95000E-01
 -1       760-3.91080E+00 4.33506E+00 6.95000E-01
 -1       761-6.39274E+00 6.81700E+00 6.95000E-01
 -1       762-5.15177E+00 5.57603E+00 6.95000E-01
 -1       763-2.66983E+00 3.09409E+00 6.95000E-01
 -1       764-3.09409E+00 2.66983E+00 6.95000E-01
 -1       765-4.33506E+00 3.91080E+00 6.95000E-01
 -1       766-6.81700E+00 6.39274E+00 6.95000E-01
 -1       767-5.27206E+00 2.50848E+00 6.95000E-01
 -1       768-8.51488E+00 3.85170E+00 6.95000E-01
 -1       769-6.89347E+00 3.18008E+00 6.95000E-01
 -1       770-3.65065E+00 1.83686E+00 6.95000E-01
 -1       771-3.88026E+00 1.28254E+00 6.95000E-01
 -1       772-5.50167E+00 1.95415E+00 6.95000E-01
 -1       773-8.74449E+00 3.29737E+00 6.95000E-01
 -1       774-5.83070E+00 2.99999E-01 6.95000E-01
 -1       775-9.34070E+00 2.99999E-01 6.95000E-01
 -1       776-7.58570E+00 2.99999E-01 6.95000E-01
 -1       777-4.07570E+00 2.99999E-01 6.95000E-01
 -1       778-4.07570E+00-2.99999E-01 6.95000E-01
 -1       779-5.83070E+00-2.99999E-01 6.95000E-01
 -1       780-9.34070E+00-2.99999E-01 6.95000E-01
 -1       781-8.74449E+00-3.29737E+00 6.95000E-01
 -1       782-6.89347E+00-3.18008E+00 6.95000E-01
 -1       783-3.65065E+00-1.83686E+00 6.95000E-01
 -1       784-5.27206E+00-2.50848E+00 6.95000E-01
 -1       785-8.51488E+00-3.85170E+00 6.95000E-01
 -1       786-7.12308E+00-2.62576E+00 6.95000E-01
 -1       787-3.88026E+00-1.28254E+00 6.95000E-01
 -1       788-4.33506E+00-3.91080E+00 6.95000E-01
 -1       789-6.81700E+00-6.39274E+00 6.95000E-01
 -1       790-5.15177E+00-5.57603E+00 6.95000E-01
 -1       791-2.66983E+00-3.09409E+00 6.95000E-01
 -1       792-3.91080E+00-4.33506E+00 6.95000E-01
 -1       793-6.39274E+00-6.81700E+00 6.95000E-01
 -1       794-5.57603E+00-5.15177E+00 6.95000E-01
 -1       795-3.09409E+00-2.66983E+00 6.95000E-01
 -1       796-2.62576E+00-7.12308E+00 6.95000E-01
 -1       797-1.28254E+00-3.88026E+00 6.95000E-01
 -1       798-3.85170E+00-8.51488E+00 6.95000E-01
 -1       799-3.18008E+00-6.89347E+00 6.95000E-01
 -1       800-1.95415E+00-5.50167E+00 6.95000E-01
 -1       801-3.29737E+00-8.74449E+00 6.95000E-01
 -1       802-1.83686E+00-3.65065E+00 6.95000E-01
 -1       803-2.99999E-01-5.83070E+00 6.95000E-01
 -1       804-2.99999E-01-9.34070E+00 6.95000E-01
 -1       805 2.99999E-01-7.58570E+00 6.95000E-01
 -1       806 2.99999E-01-4.07570E+00 6.95000E-01
 -1       807 2.99999E-01-5.83070E+00 6.95000E-01
 -1       808 2.99999E-01-9.34070E+00 6.95000E-01
 -1       809-2.99999E-01-7.58570E+00 6.95000E-01
 -1       810-2.99999E-01-4.07570E+00 6.95000E-01
 -1       811 3.29737E+00-8.74449E+00 6.95000E-01
 -1       812 2.62576E+00-7.12308E+00 6.95000E-01
 -1       813 1.83686E+00-3.65065E+00 6.95000E-01
 -1       814 2.50848E+00-5.27206E+00 6.95000E-01
 -1       815 3.85170E+00-8.51488E+00 6.95000E-01
 -1       816 5.57603E+00-5.15177E+00 6.95000E-01
 -1       817 1.95415E+00-5.50167E+00 6.95000E-01
 -1       818 1.28254E+00-3.88026E+00 6.95000E-01
 -1       819 6.39274E+00-6.81700E+00 6.95000E-01
 -1       820 5.15177E+00-5.57603E+00 6.95000E-01
 -1       821 3.09409E+00-2.66983E+00 6.95000E-01
 -1       822 4.33506E+00-3.91080E+00 6.95000E-01
 -1       823 6.81700E+00-6.39274E+00 6.95000E-01
 -1       824 3.91080E+00-4.33506E+00 6.95000E-01
 -1       825 2.66983E+00-3.09409E+00 6.95000E-01
 -1       826 8.51488E+00-3.85170E+00 6.95000E-01
 -1       827 6.89347E+00-3.18008E+00 6.95000E-01
 -1       828 3.88026E+00-1.28254E+00 6.95000E-01
 -1       829 5.50167E+00-1.95415E+00 6.95000E-01
 -1       830 8.74449E+00-3.29737E+00 6.95000E-01
 -1       831 5.27206E+00-2.50848E+00 6.95000E-01
 -1       832 3.65065E+00-1.83686E+00 6.95000E-01
 -1       833 4.05601E+00 2.00477E+00 5.00000E-01
 -1       834 4.05601E+00 2.00477E+00 6.95000E-01
 -1       835 8.10952E+00 3.68379E+00 5.00000E-01
 -1       836 8.10952E+00 3.68379E+00 6.95000E-01
 -1       837-4.22104E+00 4.64530E+00 5.00000E-01
 -1       838-4.22104E+00 4.64530E+00 6.95000E-01
 -1       839 2.00477E+00 4.05601E+00 6.95000E-01
 -1       840 2.00477E+00 4.05601E+00 5.00000E-01
 -1       841 5.46201E+00-5.88627E+00 5.00000E-01
 -1       842 5.46201E+00-5.88627E+00 6.95000E-01
 -1       843 1.45044E+00 4.28562E+00 5.00000E-01
 -1       844 1.45044E+00 4.28562E+00 6.95000E-01
 -1       845 2.99999E-01 8.02445E+00 5.00000E-01
 -1       846 2.99999E-01 8.02445E+00 6.95000E-01
 -1       847-2.12205E+00-5.90702E+00 6.95000E-01
 -1       848-2.12205E+00-5.90702E+00 5.00000E-01
 -1       849 3.01218E+00 6.48812E+00 5.00000E-01
 -1       850 3.01218E+00 6.48812E+00 6.95000E-01
 -1       851 3.60056E+00-4.02482E+00 5.00000E-01
 -1       852 3.60056E+00-4.02482E+00 6.95000E-01
 -1       853-3.01218E+00-6.48812E+00 6.95000E-01
 -1       854-3.01218E+00-6.48812E+00 5.00000E-01
 -1       855 5.26579E+00-4.84153E+00 5.00000E-01
 -1       856 5.26579E+00-4.84153E+00 6.95000E-01
 -1       857 8.90195E+00 2.99999E-01 6.95000E-01
 -1       858 8.90195E+00 2.99999E-01 5.00000E-01
 -1       859 6.26945E+00-2.99999E-01 5.00000E-01
 -1       860 6.26945E+00-2.99999E-01 6.95000E-01
 -1       861-2.12205E+00 5.90702E+00 6.95000E-01
 -1       862-2.12205E+00 5.90702E+00 5.00000E-01
 -1       863-2.00477E+00 4.05601E+00 6.95000E-01
 -1       864-2.00477E+00 4.05601E+00 5.00000E-01
 -1       865 2.99999E-01 6.26945E+00 6.95000E-01
 -1       866 2.99999E-01 6.26945E+00 5.00000E-01
 -1       867-3.68379E+00-8.10952E+00 6.95000E-01
 -1       868-3.68379E+00-8.10952E+00 5.00000E-01
 -1       869 2.99999E-01-7.14695E+00 5.00000E-01
 -1       870 2.99999E-01-7.14695E+00 6.95000E-01
 -1       871 5.88627E+00 5.46201E+00 6.95000E-01
 -1       872 5.88627E+00 5.46201E+00 5.00000E-01
 -1       873 6.48812E+00-3.01218E+00 6.95000E-01
 -1       874 6.48812E+00-3.01218E+00 5.00000E-01
 -1       875-8.33913E+00-3.12946E+00 6.95000E-01
 -1       876-8.33913E+00-3.12946E+00 5.00000E-01
 -1       877 6.08250E+00-6.50676E+00 6.95000E-01
 -1       878 6.08250E+00-6.50676E+00 5.00000E-01
 -1       879 2.99999E-01-5.39195E+00 5.00000E-01
 -1       880 2.99999E-01-5.39195E+00 6.95000E-01
 -1       881-7.52843E+00-2.79366E+00 6.95000E-01
 -1       882-7.52843E+00-2.79366E+00 5.00000E-01
 -1       883-4.86671E+00 2.34057E+00 5.00000E-01
 -1       884-4.86671E+00 2.34057E+00 6.95000E-01
 -1       885-1.78625E+00 5.09632E+00 5.00000E-01
 -1       886-1.78625E+00 5.09632E+00 6.95000E-01
 -1       887-7.29882E+00-3.34799E+00 5.00000E-01
 -1       888-7.29882E+00-3.34799E+00 6.95000E-01
 -1       889-2.79366E+00 7.52843E+00 5.00000E-01
 -1       890-2.79366E+00 7.52843E+00 6.95000E-01
 -1       891-7.14695E+00 2.99999E-01 6.95000E-01
 -1       892-7.14695E+00 2.99999E-01 5.00000E-01
 -1       893 2.12205E+00 5.90702E+00 6.95000E-01
 -1       894 2.12205E+00 5.90702E+00 5.00000E-01
 -1       895 3.40433E+00 2.98007E+00 5.00000E-01
 -1       896 3.40433E+00 2.98007E+00 6.95000E-01
 -1       897-3.47491E+00 1.11464E+00 6.95000E-01
 -1       898-3.47491E+00 1.11464E+00 5.00000E-01
 -1       899-4.84153E+00 5.26579E+00 5.00000E-01
 -1       900-4.84153E+00 5.26579E+00 6.95000E-01
 -1       901-4.64530E+00 4.22104E+00 5.00000E-01
 -1       902-4.64530E+00 4.22104E+00 6.95000E-01
 -1       903-2.99999E-01 9.77945E+00 6.95000E-01
 -1       904-2.99999E-01 9.77945E+00 5.00000E-01
 -1       905 4.84153E+00-5.26579E+00 5.00000E-01
 -1       906 4.84153E+00-5.26579E+00 6.95000E-01
 -1       907-2.35958E+00 2.78384E+00 5.00000E-01
 -1       908-2.35958E+00 2.78384E+00 6.95000E-01
 -1       909-2.99999E-01-7.14695E+00 5.00000E-01
 -1       910-2.99999E-01-7.14695E+00 6.95000E-01
 -1       911 7.29882E+00 3.34799E+00 5.00000E-01
 -1       912 7.29882E+00 3.34799E+00 6.95000E-01
 -1       913-5.90702E+00-2.12205E+00 6.95000E-01
 -1       914-5.90702E+00-2.12205E+00 5.00000E-01
 -1       915 4.86671E+00 2.34057E+00 6.95000E-01
 -1       916 4.86671E+00 2.34057E+00 5.00000E-01
 -1       917-5.90702E+00 2.12205E+00 6.95000E-01
 -1       918-5.90702E+00 2.12205E+00 5.00000E-01
 -1       919 3.40433E+00-2.98007E+00 5.00000E-01
 -1       920 3.40433E+00-2.98007E+00 6.95000E-01
 -1       921 6.71773E+00-2.45785E+00 5.00000E-01
 -1       922 6.71773E+00-2.45785E+00 6.95000E-01
 -1       923 3.68379E+00-8.10952E+00 5.00000E-01
 -1       924 3.68379E+00-8.10952E+00 6.95000E-01
 -1       925 2.99999E-01-3.63695E+00 5.00000E-01
 -1       926 2.99999E-01-3.63695E+00 6.95000E-01
 -1       927-3.46527E+00 9.14984E+00 6.95000E-01
 -1       928-3.46527E+00 9.14984E+00 5.00000E-01
 -1       929-2.98007E+00-3.40433E+00 5.00000E-01
 -1       930-2.98007E+00-3.40433E+00 6.95000E-01
 -1       931-2.78384E+00-2.35958E+00 6.95000E-01
 -1       932-2.78384E+00-2.35958E+00 5.00000E-01
 -1       933 4.64530E+00 4.22104E+00 5.00000E-01
 -1       934 4.64530E+00 4.22104E+00 6.95000E-01
 -1       935 5.88627E+00-5.46201E+00 5.00000E-01
 -1       936 5.88627E+00-5.46201E+00 6.95000E-01
 -1       937 4.64530E+00-4.22104E+00 6.95000E-01
 -1       938 4.64530E+00-4.22104E+00 5.00000E-01
 -1       939-3.34799E+00 7.29882E+00 5.00000E-01
 -1       940-3.34799E+00 7.29882E+00 6.95000E-01
 -1       941-3.34799E+00-7.29882E+00 6.95000E-01
 -1       942-3.34799E+00-7.29882E+00 5.00000E-01
 -1       943-4.51445E+00 2.99999E-01 5.00000E-01
 -1       944-4.51445E+00 2.99999E-01 6.95000E-01
 -1       945-8.92023E+00 4.01960E+00 6.95000E-01
 -1       946-8.92023E+00 4.01960E+00 5.00000E-01
 -1       947 5.90702E+00-2.12205E+00 6.95000E-01
 -1       948 5.90702E+00-2.12205E+00 5.00000E-01
 -1       949 4.51445E+00-2.99999E-01 5.00000E-01
 -1       950 4.51445E+00-2.99999E-01 6.95000E-01
 -1       951-5.46201E+00 5.88627E+00 5.00000E-01
 -1       952-5.46201E+00 5.88627E+00 6.95000E-01
 -1       953-3.60056E+00 4.02482E+00 5.00000E-01
 -1       954-3.60056E+00 4.02482E+00 6.95000E-01
 -1       955 4.28562E+00-1.45044E+00 6.95000E-01
 -1       956 4.28562E+00-1.45044E+00 5.00000E-01
 -1       957 8.02445E+00-2.99999E-01 5.00000E-01
 -1       958 8.02445E+00-2.99999E-01 6.95000E-01
 -1       959 5.90702E+00 2.12205E+00 6.95000E-01
 -1       960 5.90702E+00 2.12205E+00 5.00000E-01
 -1       961 8.33913E+00 3.12946E+00 5.00000E-01
 -1       962 8.33913E+00 3.12946E+00 6.95000E-01
 -1       963-2.99999E-01-8.90195E+00 6.95000E-01
 -1       964-2.99999E-01-8.90195E+00 5.00000E-01
 -1       965-5.09632E+00 1.78625E+00 5.00000E-01
 -1       966-5.09632E+00 1.78625E+00 6.95000E-01
 -1       967 2.78384E+00 2.35958E+00 5.00000E-01
 -1       968 2.78384E+00 2.35958E+00 6.95000E-01
 -1       969 3.34799E+00 7.29882E+00 6.95000E-01
 -1       970 3.34799E+00 7.29882E+00 5.00000E-01
 -1       971 6.70299E+00-7.12725E+00 5.00000E-01
 -1       972 6.70299E+00-7.12725E+00 6.95000E-01
 -1       973-6.08250E+00 6.50676E+00 6.95000E-01
 -1       974-6.08250E+00 6.50676E+00 5.00000E-01
 -1       975-5.88627E+00 5.46201E+00 5.00000E-01
 -1       976-5.88627E+00 5.46201E+00 6.95000E-01
 -1       977-2.99999E-01 5.39195E+00 6.95000E-01
 -1       978-2.99999E-01 5.39195E+00 5.00000E-01
 -1       979-4.02482E+00-3.60056E+00 5.00000E-01
 -1       980-4.02482E+00-3.60056E+00 6.95000E-01
 -1       981-5.88627E+00-5.46201E+00 5.00000E-01
 -1       982-5.88627E+00-5.46201E+00 6.95000E-01
 -1       983-2.99999E-01-4.51445E+00 6.95000E-01
 -1       984-2.99999E-01-4.51445E+00 5.00000E-01
 -1       985 9.77945E+00 2.99999E-01 6.95000E-01
 -1       986 9.77945E+00 2.99999E-01 5.00000E-01
 -1       987-3.46527E+00-9.14984E+00 5.00000E-01
 -1       988-3.46527E+00-9.14984E+00 6.95000E-01
 -1       989-8.90195E+00 2.99999E-01 6.95000E-01
 -1       990-8.90195E+00 2.99999E-01 5.00000E-01
 -1       991-4.84153E+00-5.26579E+00 5.00000E-01
 -1       992-4.84153E+00-5.26579E+00 6.95000E-01
 -1       993 3.01218E+00-6.48812E+00 5.00000E-01
 -1       994 3.01218E+00-6.48812E+00 6.95000E-01
 -1       995 2.78384E+00-2.35958E+00 5.00000E-01
 -1       996 2.78384E+00-2.35958E+00 6.95000E-01
 -1       997 3.46527E+00-9.14984E+00 6.95000E-01
 -1       998 3.46527E+00-9.14984E+00 5.00000E-01
 -1       999-2.99999E-01 8.02445E+00 5.00000E-01
 -1      1000-2.99999E-01 8.02445E+00 6.95000E-01
 -1      1001 7.52843E+00-2.79366E+00 5.00000E-01
 -1      1002 7.52843E+00-2.79366E+00 6.95000E-01
 -1      1003 1.11464E+00-3.47491E+00 5.00000E-01
 -1      1004 1.11464E+00-3.47491E+00 6.95000E-01
 -1      1005 3.47491E+00 1.11464E+00 6.95000E-01
 -1      1006 3.47491E+00 1.11464E+00 5.00000E-01
 -1      1007 2.99999E-01-6.26945E+00 5.00000E-01
 -1      1008 2.99999E-01-6.26945E+00 6.95000E-01
 -1      1009-3.68379E+00 8.10952E+00 5.00000E-01
 -1      1010-3.68379E+00 8.10952E+00 6.95000E-01
 -1      1011 6.48812E+00 3.01218E+00 5.00000E-01
 -1      1012 6.48812E+00 3.01218E+00 6.95000E-01
 -1      1013 6.26945E+00 2.99999E-01 5.00000E-01
 -1      1014 6.26945E+00 2.99999E-01 6.95000E-01
 -1      1015 2.35958E+00 2.78384E+00 5.00000E-01
 -1      1016 2.35958E+00 2.78384E+00 6.95000E-01
 -1      1017-4.05601E+00-2.00477E+00 5.00000E-01
 -1      1018-4.05601E+00-2.00477E+00 6.95000E-01
 -1      1019-8.02445E+00-2.99999E-01 5.00000E-01
 -1      1020-8.02445E+00-2.99999E-01 6.95000E-01
 -1      1021-6.48812E+00 3.01218E+00 6.95000E-01
 -1      1022-6.48812E+00 3.01218E+00 5.00000E-01
 -1      1023-3.63695E+00-2.99999E-01 5.00000E-01
 -1      1024-3.63695E+00-2.99999E-01 6.95000E-01
 -1      1025-2.99999E-01 8.90195E+00 6.95000E-01
 -1      1026-2.99999E-01 8.90195E+00 5.00000E-01
 -1      1027-7.12725E+00-6.70299E+00 6.95000E-01
 -1      1028-7.12725E+00-6.70299E+00 5.00000E-01
 -1      1029-4.22104E+00-4.64530E+00 5.00000E-01
 -1      1030-4.22104E+00-4.64530E+00 6.95000E-01
 -1      1031-1.78625E+00-5.09632E+00 6.95000E-01
 -1      1032-1.78625E+00-5.09632E+00 5.00000E-01
 -1      1033-6.48812E+00-3.01218E+00 5.00000E-01
 -1      1034-6.48812E+00-3.01218E+00 6.95000E-01
 -1      1035-4.86671E+00-2.34057E+00 5.00000E-01
 -1      1036-4.86671E+00-2.34057E+00 6.95000E-01
 -1      1037-3.47491E+00-1.11464E+00 6.95000E-01
 -1      1038-3.47491E+00-1.11464E+00 5.00000E-01
 -1      1039 2.99999E-01 3.63695E+00 5.00000E-01
 -1      1040 2.99999E-01 3.63695E+00 6.95000E-01
 -1      1041-6.26945E+00 2.99999E-01 5.00000E-01
 -1      1042-6.26945E+00 2.99999E-01 6.95000E-01
 -1      1043-5.39195E+00 2.99999E-01 5.00000E-01
 -1      1044-5.39195E+00 2.99999E-01 6.95000E-01
 -1      1045-3.24530E+00-1.66896E+00 5.00000E-01
 -1      1046-3.24530E+00-1.66896E+00 6.95000E-01
 -1      1047 2.99999E-01 4.51445E+00 5.00000E-01
 -1      1048 2.99999E-01 4.51445E+00 6.95000E-01
 -1      1049 1.78625E+00 5.09632E+00 5.00000E-01
 -1      1050 1.78625E+00 5.09632E+00 6.95000E-01
 -1      1051 3.12946E+00 8.33913E+00 5.00000E-01
 -1      1052 3.12946E+00 8.33913E+00 6.95000E-01
 -1      1053 3.60056E+00 4.02482E+00 5.00000E-01
 -1      1054 3.60056E+00 4.02482E+00 6.95000E-01
 -1      1055 3.63695E+00-2.99999E-01 6.95000E-01
 -1      1056 3.63695E+00-2.99999E-01 5.00000E-01
 -1      1057 3.24530E+00-1.66896E+00 5.00000E-01
 -1      1058 3.24530E+00-1.66896E+00 6.95000E-01
 -1      1059 8.33913E+00-3.12946E+00 6.95000E-01
 -1      1060 8.33913E+00-3.12946E+00 5.00000E-01
 -1      1061 1.78625E+00-5.09632E+00 6.95000E-01
 -1      1062 1.78625E+00-5.09632E+00 5.00000E-01
 -1      1063 2.99999E-01-9.77945E+00 6.95000E-01
 -1      1064 2.99999E-01-9.77945E+00 5.00000E-01
 -1      1065-1.66896E+00 3.24530E+00 5.00000E-01
 -1      1066-1.66896E+00 3.24530E+00 6.95000E-01
 -1      1067 2.34057E+00-4.86671E+00 5.00000E-01
 -1      1068 2.34057E+00-4.86671E+00 6.95000E-01
 -1      1069 2.12205E+00-5.90702E+00 6.95000E-01
 -1      1070 2.12205E+00-5.90702E+00 5.00000E-01
 -1      1071 4.02482E+00-3.60056E+00 5.00000E-01
 -1      1072 4.02482E+00-3.60056E+00 6.95000E-01
 -1      1073 3.34799E+00-7.29882E+00 5.00000E-01
 -1      1074 3.34799E+00-7.29882E+00 6.95000E-01
 -1      1075 7.52843E+00 2.79366E+00 5.00000E-01
 -1      1076 7.52843E+00 2.79366E+00 6.95000E-01
 -1      1077-1.66896E+00-3.24530E+00 5.00000E-01
 -1      1078-1.66896E+00-3.24530E+00 6.95000E-01
 -1      1079-8.33913E+00 3.12946E+00 6.95000E-01
 -1      1080-8.33913E+00 3.12946E+00 5.00000E-01
 -1      1081-5.46201E+00-5.88627E+00 5.00000E-01
 -1      1082-5.46201E+00-5.88627E+00 6.95000E-01
 -1      1083-6.50676E+00-6.08250E+00 5.00000E-01
 -1      1084-6.50676E+00-6.08250E+00 6.95000E-01
 -1      1085-8.92023E+00-4.01960E+00 6.95000E-01
 -1      1086-8.92023E+00-4.01960E+00 5.00000E-01
 -1      1087 1.66896E+00 3.24530E+00 5.00000E-01
 -1      1088 1.66896E+00 3.24530E+00 6.95000E-01
 -1      1089 1.11464E+00 3.47491E+00 6.95000E-01
 -1      1090 1.11464E+00 3.47491E+00 5.00000E-01
 -1      1091 9.14984E+00 3.46527E+00 6.95000E-01
 -1      1092 9.14984E+00 3.46527E+00 5.00000E-01
 -1      1093 4.86671E+00-2.34057E+00 6.95000E-01
 -1      1094 4.86671E+00-2.34057E+00 5.00000E-01
 -1      1095 8.10952E+00-3.68379E+00 5.00000E-01
 -1      1096 8.10952E+00-3.68379E+00 6.95000E-01
 -1      1097 2.99999E-01-8.02445E+00 5.00000E-01
 -1      1098 2.99999E-01-8.02445E+00 6.95000E-01
 -1      1099 1.45044E+00-4.28562E+00 6.95000E-01
 -1      1100 1.45044E+00-4.28562E+00 5.00000E-01
 -1      1101-5.67741E+00-2.67638E+00 5.00000E-01
 -1      1102-5.67741E+00-2.67638E+00 6.95000E-01
 -1      1103-2.00477E+00-4.05601E+00 5.00000E-01
 -1      1104-2.00477E+00-4.05601E+00 6.95000E-01
 -1      1105 5.39195E+00-2.99999E-01 5.00000E-01
 -1      1106 5.39195E+00-2.99999E-01 6.95000E-01
 -1      1107-2.99999E-01-6.26945E+00 5.00000E-01
 -1      1108-2.99999E-01-6.26945E+00 6.95000E-01
 -1      1109 7.12725E+00-6.70299E+00 6.95000E-01
 -1      1110 7.12725E+00-6.70299E+00 5.00000E-01
 -1      1111-2.99999E-01 4.51445E+00 5.00000E-01
 -1      1112-2.99999E-01 4.51445E+00 6.95000E-01
 -1      1113-6.26945E+00-2.99999E-01 5.00000E-01
 -1      1114-6.26945E+00-2.99999E-01 6.95000E-01
 -1      1115-1.45044E+00-4.28562E+00 5.00000E-01
 -1      1116-1.45044E+00-4.28562E+00 6.95000E-01
 -1      1117 5.26579E+00 4.84153E+00 5.00000E-01
 -1      1118 5.26579E+00 4.84153E+00 6.95000E-01
 -1      1119-7.12725E+00 6.70299E+00 5.00000E-01
 -1      1120-7.12725E+00 6.70299E+00 6.95000E-01
 -1      1121 4.01960E+00-8.92023E+00 5.00000E-01
 -1      1122 4.01960E+00-8.92023E+00 6.95000E-01
 -1      1123-8.10952E+00-3.68379E+00 5.00000E-01
 -1      1124-8.10952E+00-3.68379E+00 6.95000E-01
 -1      1125-1.45044E+00 4.28562E+00 5.00000E-01
 -1      1126-1.45044E+00 4.28562E+00 6.95000E-01
 -1      1127 4.84153E+00 5.26579E+00 5.00000E-01
 -1      1128 4.84153E+00 5.26579E+00 6.95000E-01
 -1      1129-3.40433E+00 2.98007E+00 5.00000E-01
 -1      1130-3.40433E+00 2.98007E+00 6.95000E-01
 -1      1131-3.01218E+00 6.48812E+00 5.00000E-01
 -1      1132-3.01218E+00 6.48812E+00 6.95000E-01
 -1      1133 8.92023E+00-4.01960E+00 6.95000E-01
 -1      1134 8.92023E+00-4.01960E+00 5.00000E-01
 -1      1135-2.78384E+00 2.35958E+00 6.95000E-01
 -1      1136-2.78384E+00 2.35958E+00 5.00000E-01
 -1      1137 5.09632E+00 1.78625E+00 5.00000E-01
 -1      1138 5.09632E+00 1.78625E+00 6.95000E-01
 -1      1139 3.68379E+00 8.10952E+00 5.00000E-01
 -1      1140 3.68379E+00 8.10952E+00 6.95000E-01
 -1      1141 2.99999E-01 7.14695E+00 5.00000E-01
 -1      1142 2.99999E-01 7.14695E+00 6.95000E-01
 -1      1143-4.05601E+00 2.00477E+00 5.00000E-01
 -1      1144-4.05601E+00 2.00477E+00 6.95000E-01
 -1      1145-2.99999E-01-5.39195E+00 5.00000E-01
 -1      1146-2.99999E-01-5.39195E+00 6.95000E-01
 -1      1147-6.71773E+00 2.45785E+00 5.00000E-01
 -1      1148-6.71773E+00 2.45785E+00 6.95000E-01
 -1      1149-9.14984E+00 3.46527E+00 5.00000E-01
 -1      1150-9.14984E+00 3.46527E+00 6.95000E-01
 -1      1151-6.08250E+00-6.50676E+00 5.00000E-01
 -1      1152-6.08250E+00-6.50676E+00 6.95000E-01
 -1      1153-4.64530E+00-4.22104E+00 5.00000E-01
 -1      1154-4.64530E+00-4.22104E+00 6.95000E-01
 -1      1155 2.00477E+00-4.05601E+00 5.00000E-01
 -1      1156 2.00477E+00-4.05601E+00 6.95000E-01
 -1      1157 2.79366E+00-7.52843E+00 5.00000E-01
 -1      1158 2.79366E+00-7.52843E+00 6.95000E-01
 -1      1159 7.12725E+00 6.70299E+00 6.95000E-01
 -1      1160 7.12725E+00 6.70299E+00 5.00000E-01
 -1      1161 6.50676E+00 6.08250E+00 6.95000E-01
 -1      1162 6.50676E+00 6.08250E+00 5.00000E-01
 -1      1163-7.29882E+00 3.34799E+00 6.95000E-01
 -1      1164-7.29882E+00 3.34799E+00 5.00000E-01
 -1      1165 2.99999E-01-4.51445E+00 5.00000E-01
 -1      1166 2.99999E-01-4.51445E+00 6.95000E-01
 -1      1167-4.02482E+00 3.60056E+00 5.00000E-01
 -1      1168-4.02482E+00 3.60056E+00 6.95000E-01
 -1      1169-3.12946E+00 8.33913E+00 5.00000E-01
 -1      1170-3.12946E+00 8.33913E+00 6.95000E-01
 -1      1171-4.01960E+00 8.92023E+00 5.00000E-01
 -1      1172-4.01960E+00 8.92023E+00 6.95000E-01
 -1      1173-7.14695E+00-2.99999E-01 5.00000E-01
 -1      1174-7.14695E+00-2.99999E-01 6.95000E-01
 -1      1175-8.10952E+00 3.68379E+00 5.00000E-01
 -1      1176-8.10952E+00 3.68379E+00 6.95000E-01
 -1      1177 4.01960E+00 8.92023E+00 6.95000E-01
 -1      1178 4.01960E+00 8.92023E+00 5.00000E-01
 -1      1179 4.02482E+00 3.60056E+00 5.00000E-01
 -1      1180 4.02482E+00 3.60056E+00 6.95000E-01
 -1      1181 7.14695E+00-2.99999E-01 5.00000E-01
 -1      1182 7.14695E+00-2.99999E-01 6.95000E-01
 -1      1183 8.02445E+00 2.99999E-01 5.00000E-01
 -1      1184 8.02445E+00 2.99999E-01 6.95000E-01
 -1      1185 3.47491E+00-1.11464E+00 5.00000E-01
 -1      1186 3.47491E+00-1.11464E+00 6.95000E-01
 -1      1187 3.12946E+00-8.33913E+00 5.00000E-01
 -1      1188 3.12946E+00-8.33913E+00 6.95000E-01
 -1      1189-4.28562E+00 1.45044E+00 5.00000E-01
 -1      1190-4.28562E+00 1.45044E+00 6.95000E-01
 -1      1191-9.77945E+00-2.99999E-01 5.00000E-01
 -1      1192-9.77945E+00-2.99999E-01 6.95000E-01
 -1      1193-1.11464E+00 3.47491E+00 6.95000E-01
 -1      1194-1.11464E+00 3.47491E+00 5.00000E-01
 -1      1195-2.99999E-01 6.26945E+00 5.00000E-01
 -1      1196-2.99999E-01 6.26945E+00 6.95000E-01
 -1      1197 8.90195E+00-2.99999E-01 5.00000E-01
 -1      1198 8.90195E+00-2.99999E-01 6.95000E-01
 -1      1199-3.40433E+00-2.98007E+00 5.00000E-01
 -1      1200-3.40433E+00-2.98007E+00 6.95000E-01
 -1      1201 6.71773E+00 2.45785E+00 5.00000E-01
 -1      1202 6.71773E+00 2.45785E+00 6.95000E-01
 -1      1203-2.34057E+00-4.86671E+00 5.00000E-01
 -1      1204-2.34057E+00-4.86671E+00 6.95000E-01
 -1      1205-2.99999E-01-8.02445E+00 5.00000E-01
 -1      1206-2.99999E-01-8.02445E+00 6.95000E-01
 -1      1207 2.45785E+00-6.71773E+00 5.00000E-01
 -1      1208 2.45785E+00-6.71773E+00 6.95000E-01
 -1      1209 5.39195E+00 2.99999E-01 5.00000E-01
 -1      1210 5.39195E+00 2.99999E-01 6.95000E-01
 -1      1211 8.92023E+00 4.01960E+00 5.00000E-01
 -1      1212 8.92023E+00 4.01960E+00 6.95000E-01
 -1      1213-2.67638E+00-5.67741E+00 5.00000E-01
 -1      1214-2.67638E+00-5.67741E+00 6.95000E-01
 -1      1215-2.34057E+00 4.86671E+00 5.00000E-01
 -1      1216-2.34057E+00 4.86671E+00 6.95000E-01
 -1      1217-3.63695E+00 2.99999E-01 6.95000E-01
 -1      1218-3.63695E+00 2.99999E-01 5.00000E-01
 -1      1219 4.28562E+00 1.45044E+00 5.00000E-01
 -1      1220 4.28562E+00 1.45044E+00 6.95000E-01
 -1      1221-2.35958E+00-2.78384E+00 6.95000E-01
 -1      1222-2.35958E+00-2.78384E+00 5.00000E-01
 -1      1223 7.14695E+00 2.99999E-01 5.00000E-01
 -1      1224 7.14695E+00 2.99999E-01 6.95000E-01
 -1      1225-3.60056E+00-4.02482E+00 5.00000E-01
 -1      1226-3.60056E+00-4.02482E+00 6.95000E-01
 -1      1227-4.51445E+00-2.99999E-01 5.00000E-01
 -1      1228-4.51445E+00-2.99999E-01 6.95000E-01
 -1      1229-5.26579E+00 4.84153E+00 5.00000E-01
 -1      1230-5.26579E+00 4.84153E+00 6.95000E-01
 -1      1231-6.71773E+00-2.45785E+00 5.00000E-01
 -1      1232-6.71773E+00-2.45785E+00 6.95000E-01
 -1      1233-1.11464E+00-3.47491E+00 5.00000E-01
 -1      1234-1.11464E+00-3.47491E+00 6.95000E-01
 -1      1235 2.34057E+00 4.86671E+00 5.00000E-01
 -1      1236 2.34057E+00 4.86671E+00 6.95000E-01
 -1      1237 2.45785E+00 6.71773E+00 5.00000E-01
 -1      1238 2.45785E+00 6.71773E+00 6.95000E-01
 -1      1239 2.79366E+00 7.52843E+00 5.00000E-01
 -1      1240 2.79366E+00 7.52843E+00 6.95000E-01
 -1      1241 4.51445E+00 2.99999E-01 5.00000E-01
 -1      1242 4.51445E+00 2.99999E-01 6.95000E-01
 -1      1243 5.67741E+00 2.67638E+00 5.00000E-01
 -1      1244 5.67741E+00 2.67638E+00 6.95000E-01
 -1      1245-9.14984E+00-3.46527E+00 5.00000E-01
 -1      1246-9.14984E+00-3.46527E+00 6.95000E-01
 -1      1247 2.98007E+00 3.40433E+00 5.00000E-01
 -1      1248 2.98007E+00 3.40433E+00 6.95000E-01
 -1      1249-2.45785E+00 6.71773E+00 5.00000E-01
 -1      1250-2.45785E+00 6.71773E+00 6.95000E-01
 -1      1251-5.26579E+00-4.84153E+00 5.00000E-01
 -1      1252-5.26579E+00-4.84153E+00 6.95000E-01
 -1      1253-3.24530E+00 1.66896E+00 5.00000E-01
 -1      1254-3.24530E+00 1.66896E+00 6.95000E-01
 -1      1255-2.45785E+00-6.71773E+00 5.00000E-01
 -1      1256-2.45785E+00-6.71773E+00 6.95000E-01
 -1      1257-2.67638E+00 5.67741E+00 5.00000E-01
 -1      1258-2.67638E+00 5.67741E+00 6.95000E-01
 -1      1259 5.46201E+00 5.88627E+00 5.00000E-01
 -1      1260 5.46201E+00 5.88627E+00 6.95000E-01
 -1      1261 2.67638E+00 5.67741E+00 5.00000E-01
 -1      1262 2.67638E+00 5.67741E+00 6.95000E-01
 -1      1263-2.99999E-01 7.14695E+00 5.00000E-01
 -1      1264-2.99999E-01 7.14695E+00 6.95000E-01
 -1      1265 2.99999E-01 9.77945E+00 5.00000E-01
 -1      1266 2.99999E-01 9.77945E+00 6.95000E-01
 -1      1267-5.67741E+00 2.67638E+00 5.00000E-01
 -1      1268-5.67741E+00 2.67638E+00 6.95000E-01
 -1      1269 2.98007E+00-3.40433E+00 5.00000E-01
 -1      1270 2.98007E+00-3.40433E+00 6.95000E-01
 -1      1271-2.99999E-01-3.63695E+00 5.00000E-01
 -1      1272-2.99999E-01-3.63695E+00 6.95000E-01
 -1      1273 4.22104E+00 4.64530E+00 5.00000E-01
 -1      1274 4.22104E+00 4.64530E+00 6.95000E-01
 -1      1275-2.79366E+00-7.52843E+00 5.00000E-01
 -1      1276-2.79366E+00-7.52843E+00 6.95000E-01
 -1      1277 5.67741E+00-2.67638E+00 5.00000E-01
 -1      1278 5.67741E+00-2.67638E+00 6.95000E-01
 -1      1279 4.05601E+00-2.00477E+00 5.00000E-01
 -1      1280 4.05601E+00-2.00477E+00 6.95000E-01
 -1      1281 2.99999E-01-8.90195E+00 5.00000E-01
 -1      1282 2.99999E-01-8.90195E+00 6.95000E-01
 -1      1283-6.50676E+00 6.08250E+00 5.00000E-01
 -1      1284-6.50676E+00 6.08250E+00 6.95000E-01
 -1      1285 2.99999E-01 5.39195E+00 5.00000E-01
 -1      1286 2.99999E-01 5.39195E+00 6.95000E-01
 -1      1287-5.09632E+00-1.78625E+00 5.00000E-01
 -1      1288-5.09632E+00-1.78625E+00 6.95000E-01
 -1      1289 9.77945E+00-2.99999E-01 5.00000E-01
 -1      1290 9.77945E+00-2.99999E-01 6.95000E-01
 -1      1291-4.01960E+00-8.92023E+00 5.00000E-01
 -1      1292-4.01960E+00-8.92023E+00 6.95000E-01
 -1      1293-8.90195E+00-2.99999E-01 5.00000E-01
 -1      1294-8.90195E+00-2.99999E-01 6.95000E-01
 -1      1295 2.35958E+00-2.78384E+00 5.00000E-01
 -1      1296 2.35958E+00-2.78384E+00 6.95000E-01
 -1      1297 7.29882E+00-3.34799E+00 5.00000E-01
 -1      1298 7.29882E+00-3.34799E+00 6.95000E-01
 -1      1299 1.66896E+00-3.24530E+00 5.00000E-01
 -1      1300 1.66896E+00-3.24530E+00 6.95000E-01
 -1      1301 3.24530E+00 1.66896E+00 5.00000E-01
 -1      1302 3.24530E+00 1.66896E+00 6.95000E-01
 -1      1303-4.28562E+00-1.45044E+00 5.00000E-01
 -1      1304-4.28562E+00-1.45044E+00 6.95000E-01
 -1      1305-8.02445E+00 2.99999E-01 5.00000E-01
 -1      1306-8.02445E+00 2.99999E-01 6.95000E-01
 -1      1307 2.99999E-01 8.90195E+00 5.00000E-01
 -1      1308 2.99999E-01 8.90195E+00 6.95000E-01
 -1      1309-6.70299E+00-7.12725E+00 5.00000E-01
 -1      1310-6.70299E+00-7.12725E+00 6.95000E-01
 -1      1311-2.99999E-01 3.63695E+00 5.00000E-01
 -1      1312-2.99999E-01 3.63695E+00 6.95000E-01
 -1      1313-5.39195E+00-2.99999E-01 5.00000E-01
 -1      1314-5.39195E+00-2.99999E-01 6.95000E-01
 -1      1315 3.63695E+00 2.99999E-01 5.00000E-01
 -1      1316 3.63695E+00 2.99999E-01 6.95000E-01
 -1      1317 2.67638E+00-5.67741E+00 5.00000E-01
 -1      1318 2.67638E+00-5.67741E+00 6.95000E-01
 -1      1319-2.99999E-01-9.77945E+00 5.00000E-01
 -1      1320-2.99999E-01-9.77945E+00 6.95000E-01
 -1      1321 5.09632E+00-1.78625E+00 5.00000E-01
 -1      1322 5.09632E+00-1.78625E+00 6.95000E-01
 -1      1323-2.98007E+00 3.40433E+00 5.00000E-01
 -1      1324-2.98007E+00 3.40433E+00 6.95000E-01
 -1      1325 6.70299E+00 7.12725E+00 5.00000E-01
 -1      1326 6.70299E+00 7.12725E+00 6.95000E-01
 -1      1327 6.08250E+00 6.50676E+00 5.00000E-01
 -1      1328 6.08250E+00 6.50676E+00 6.95000E-01
 -1      1329-7.52843E+00 2.79366E+00 5.00000E-01
 -1      1330-7.52843E+00 2.79366E+00 6.95000E-01
 -1      1331-9.77945E+00 2.99999E-01 5.00000E-01
 -1      1332-9.77945E+00 2.99999E-01 6.95000E-01
 -1      1333-3.12946E+00-8.33913E+00 6.95000E-01
 -1      1334-3.12946E+00-8.33913E+00 5.00000E-01
 -1      1335 6.50676E+00-6.08250E+00 5.00000E-01
 -1      1336 6.50676E+00-6.08250E+00 6.95000E-01
 -1      1337 4.22104E+00-4.64530E+00 5.00000E-01
 -1      1338 4.22104E+00-4.64530E+00 6.95000E-01
 -1      1339-6.70299E+00 7.12725E+00 5.00000E-01
 -1      1340-6.70299E+00 7.12725E+00 6.95000E-01
 -1      1341 9.14984E+00-3.46527E+00 5.00000E-01
 -1      1342 9.14984E+00-3.46527E+00 6.95000E-01
 -1      1343 3.46527E+00 9.14984E+00 5.00000E-01
 -1      1344 3.46527E+00 9.14984E+00 6.95000E-01
 -1      1345 3.46514E+00-1.43518E+00-5.00000E-01
 -1      1346 9.00982E+00 8.82070E+00 5.00000E-01
 -1      1347-1.33775E-01-1.26081E+01 5.00000E-01
 -1      1348-6.24987E+00 9.35357E+00-5.00000E-01
 -1      1349-3.99929E+00 1.19177E+01 5.00000E-01
 -1      1350-8.25561E+00 9.48004E+00 5.00000E-01
 -1      1351 2.51508E+00-1.20260E+01 5.00000E-01
 -1      1352 1.12497E+01 0.00000E+00-5.00000E-01
 -1      1353-1.03939E+01 4.30523E+00-5.00000E-01
 -1      1354-2.19481E+00-1.10341E+01-5.00000E-01
 -1      1355 0.00000E+00 8.68517E+00-5.00000E-01
 -1      1356 1.47116E+00-1.11868E+01-5.00000E-01
 -1      1357 0.00000E+00-0.00000E+00 5.00000E-01
 -1      1358 1.38856E+00-1.32177E+01 5.00000E-01
 -1      1359-1.01828E+01 6.80391E+00 5.00000E-01
 -1      1360-1.16406E+01 4.82169E+00 5.00000E-01
 -1      1361-9.88915E+00 8.62443E+00 5.00000E-01
 -1      1362-6.80391E+00-1.01828E+01 5.00000E-01
 -1      1363-9.48004E+00-8.25561E+00 5.00000E-01
 -1      1364-1.20114E+01-2.38922E+00 5.00000E-01
 -1      1365 2.38922E+00 1.20114E+01 5.00000E-01
 -1      1366-8.62443E+00-9.88915E+00 5.00000E-01
 -1      1367-6.22484E+00 9.31614E+00 5.00000E-01
 -1      1368 9.86346E+00 4.08553E+00-5.00000E-01
 -1      1369-2.57186E+00-1.22770E+01 5.00000E-01
 -1      1370-5.64012E+00-9.77228E+00-5.00000E-01
 -1      1371 1.25997E+01 0.00000E+00 5.00000E-01
 -1      1372-1.85341E+00-4.76724E+00-5.00000E-01
 -1      1373 2.86799E+00-6.39273E+00-5.00000E-01
 -1      1374-2.50014E+00 2.17574E+00-5.00000E-01
 -1      1375 1.16406E+01 4.82169E+00 5.00000E-01
 -1      1376 1.01828E+01-6.80391E+00 5.00000E-01
 -1      1377-1.16828E+01 2.32385E+00 5.00000E-01
 -1      1378-5.83189E+00-8.72804E+00 5.00000E-01
 -1      1379 7.61803E+00-9.86192E+00 5.00000E-01
 -1      1380-1.10632E+01 7.87984E+00 5.00000E-01
 -1      1381 2.73909E+00-1.33661E+01 5.00000E-01
 -1      1382 1.31249E+01 1.84671E-01-5.00000E-01
 -1      1383 1.07563E+00-1.17936E+01 5.00000E-01
 -1      1384-5.70500E+00 1.14531E+01-5.00000E-01
 -1      1385 3.95301E+00-1.17652E+01-5.00000E-01
 -1      1386-7.96759E+00 1.02879E+01-5.00000E-01
 -1      1387-8.42675E+00-6.44025E+00-5.00000E-01
 -1      1388 8.05529E+00-4.50281E+00-5.00000E-01
 -1      1389-7.12274E+00-1.09865E+01-5.00000E-01
 -1      1390 2.04957E+00-1.03355E+01 5.00000E-01
 -1      1391 1.21255E+01 3.29411E+00-5.00000E-01
 -1      1392 5.48528E+00 7.57238E+00-5.00000E-01
 -1      1393 9.97050E+00-6.75616E+00-5.00000E-01
 -1      1394-1.33775E-01 1.26081E+01 5.00000E-01
 -1      1395 8.91998E+00-8.34934E+00 5.00000E-01
 -1      1396 1.16190E+01-4.88475E+00 5.00000E-01
 -1      1397-1.12497E+01 0.00000E+00-5.00000E-01
 -1      1398-6.69109E+00 1.05885E+01-5.00000E-01
 -1      1399-1.01117E+01-7.82300E+00-5.00000E-01
 -1      1400-1.27807E+01 3.59167E+00 5.00000E-01
 -1      1401-1.02954E+01-2.04789E+00 5.00000E-01
 -1      1402-1.12550E+01-5.59913E+00 5.00000E-01
 -1      1403 1.16392E+00-3.67273E+00-5.00000E-01
 -1      1404 5.27205E+00 1.06431E+01-5.00000E-01
 -1      1405 1.27614E+01 3.48701E+00 5.00000E-01
 -1      1406 3.69929E+00-3.97812E+00-5.00000E-01
 -1      1407 1.94619E+00 4.20283E+00-5.00000E-01
 -1      1408-9.87669E+00-9.50421E+00 5.00000E-01
 -1      1409-2.29300E+00 1.13577E+01-5.00000E-01
 -1      1410-2.09305E+00-1.05225E+01 5.00000E-01
 -1      1411-1.79492E+00-9.02368E+00 5.00000E-01
 -1      1412 1.20913E+01-2.51551E+00-5.00000E-01
 -1      1413-7.52403E+00-8.85706E+00 5.00000E-01
 -1      1414-1.26926E+01-1.61946E+00-5.00000E-01
 -1      1415 2.79543E+00-1.30140E+01-5.00000E-01
 -1      1416-1.64077E+00-1.29089E+01-5.00000E-01
 -1      1417 6.69828E+00 1.00247E+01 5.00000E-01
 -1      1418 1.31244E+01-1.66199E+00 5.00000E-01
 -1      1419 5.89672E+00 3.59689E+00-5.00000E-01
 -1      1420 1.13900E+01 0.00000E+00 5.00000E-01
 -1      1421 2.53876E+00 7.12380E+00-5.00000E-01
 -1      1422-1.32265E+01 2.09628E+00 5.00000E-01
 -1      1423-4.94722E+00-6.36152E+00-5.00000E-01
 -1      1424 1.15711E+01-4.93448E+00-5.00000E-01
 -1      1425 7.54671E+00-5.04255E+00 5.00000E-01
 -1      1426 3.32620E-01-6.08734E+00-5.00000E-01
 -1      1427-7.29960E+00 8.66242E+00 5.00000E-01
 -1      1428 5.53961E+00 8.29062E+00 5.00000E-01
 -1      1429-8.38222E+00 1.07931E+01 5.00000E-01
 -1      1430-7.37436E+00-1.14573E+01 5.00000E-01
 -1      1431-5.18701E+00-1.16714E+01 5.00000E-01
 -1      1432 4.94845E+00-1.15972E+01 5.00000E-01
 -1      1433 1.15964E+01-6.57075E+00-5.00000E-01
 -1      1434 7.93819E+00 9.09325E+00-5.00000E-01
 -1      1435-1.00115E+01 1.99142E+00 5.00000E-01
 -1      1436-1.93612E+00 1.15327E+01 5.00000E-01
 -1      1437-6.94822E+00 1.38253E+00-5.00000E-01
 -1      1438 9.79840E+00 6.54708E+00 5.00000E-01
 -1      1439 3.26383E+00-9.10857E+00-5.00000E-01
 -1      1440-9.16026E+00 7.28825E+00-5.00000E-01
 -1      1441-1.09942E+01-7.59628E+00 5.00000E-01
 -1      1442-4.54549E+00-6.80280E+00 5.00000E-01
 -1      1443-1.95585E+00 9.83271E+00 5.00000E-01
 -1      1444 5.83985E+00-1.17054E+01-5.00000E-01
 -1      1445 9.53026E-01 1.15710E+01 5.00000E-01
 -1      1446-7.14695E+00 1.42162E+00 5.00000E-01
 -1      1447-1.02567E+01 5.33107E+00 5.00000E-01
 -1      1448 1.32859E+01 3.64612E+00-5.00000E-01
 -1      1449-9.44082E+00 9.17441E+00-5.00000E-01
 -1      1450-1.31066E+01-9.21554E-01 5.00000E-01
 -1      1451-5.07309E+00-1.18304E+01-5.00000E-01
 -1      1452-4.16192E+00 1.24538E+01-5.00000E-01
 -1      1453-9.50421E+00 9.87669E+00 5.00000E-01
 -1      1454-1.26672E+01-3.45845E+00-5.00000E-01
 -1      1455-9.31614E+00-6.22484E+00 5.00000E-01
 -1      1456-4.04105E+00 9.90080E+00-5.00000E-01
 -1      1457 7.47034E+00-1.08408E+01-5.00000E-01
 -1      1458 1.21957E+01-6.10192E+00 5.00000E-01
 -1      1459-1.43069E+00-1.22625E+00-5.00000E-01
 -1      1460-8.58405E+00 7.93945E+00 5.00000E-01
 -1      1461-5.21258E+00 1.07029E+01 5.00000E-01
 -1      1462-8.61354E+00-9.91619E+00-5.00000E-01
 -1      1463-2.22018E+00-7.90207E+00-5.00000E-01
 -1      1464 1.72367E+00-5.21585E+00-5.00000E-01
 -1      1465-1.14068E+00-1.14068E+00 5.00000E-01
 -1      1466-5.39059E+00-1.00750E+01 5.00000E-01
 -1      1467 1.14468E+01-2.84133E+00 5.00000E-01
 -1      1468 2.03211E+00 1.02161E+01 5.00000E-01
 -1      1469 1.34908E+00 1.32458E+01 5.00000E-01
 -1      1470 8.00601E+00 6.24537E+00-5.00000E-01
 -1      1471 6.08985E+00-2.47574E+00-5.00000E-01
 -1      1472 9.90504E+00-8.60439E+00-5.00000E-01
 -1      1473-3.78746E-01-1.15167E+01-5.00000E-01
 -1      1474-3.06540E+00-6.21431E+00-5.00000E-01
 -1      1475 1.51875E-01 6.08743E+00-5.00000E-01
 -1      1476 1.19949E+01 1.77530E+00 5.00000E-01
 -1      1477 8.20012E+00 1.24317E+00-5.00000E-01
 -1      1478 9.98395E+00-3.32775E+00-5.00000E-01
 -1      1479-8.03225E+00-5.79798E+00 5.00000E-01
 -1      1480 9.97657E+00-1.98446E+00 5.00000E-01
 -1      1481-1.17143E+01 6.40312E+00 5.00000E-01
 -1      1482-1.04797E+01-6.51347E+00 5.00000E-01
 -1      1483-6.00821E+00 1.20203E+01 5.00000E-01
 -1      1484 4.76183E+00 1.16699E+01 5.00000E-01
 -1      1485 7.83361E+00 4.21849E+00-5.00000E-01
 -1      1486 6.05889E+00 4.04842E+00 5.00000E-01
 -1      1487 2.65461E+00-1.17226E+01-5.00000E-01
 -1      1488-1.29808E+01 9.09163E-01-5.00000E-01
 -1      1489 7.54671E+00 5.04255E+00 5.00000E-01
 -1      1490-1.09776E+01 3.56122E+00 5.00000E-01
 -1      1491 8.90195E+00 1.77071E+00 5.00000E-01
 -1      1492 0.00000E+00-1.13445E+01 5.00000E-01
 -1      1493 7.31588E+00-1.13479E+01 5.00000E-01
 -1      1494-3.13244E+00 1.08424E+01 5.00000E-01
 -1      1495-8.58838E+00 5.73857E+00 5.00000E-01
 -1      1496-1.00706E+01-2.50301E+00-5.00000E-01
 -1      1497 4.84511E+00-1.01160E+01-5.00000E-01
 -1      1498 3.34445E+00-1.05054E+01-5.00000E-01
 -1      1499 1.03996E+01 1.98949E+00-5.00000E-01
 -1      1500-1.70131E+00 1.31873E+01 5.00000E-01
 -1      1501 5.99901E+00-8.97815E+00 5.00000E-01
 -1      1502-5.29379E+00 1.02259E+01-5.00000E-01
 -1      1503-4.20988E+00 5.85091E+00-5.00000E-01
 -1      1504-1.33640E+00-1.16716E+01 5.00000E-01
 -1      1505 1.11450E+01 3.26754E+00 5.00000E-01
 -1      1506 1.20777E+01 1.56343E+00-5.00000E-01
 -1      1507 5.66473E+00-6.00519E+00-5.00000E-01
 -1      1508-4.96727E+00 8.90796E+00-5.00000E-01
 -1      1509-1.14019E+01-6.51117E+00-5.00000E-01
 -1      1510 4.11093E+00 1.22858E+01-5.00000E-01
 -1      1511 7.76341E+00-6.69147E+00-5.00000E-01
 -1      1512 1.15899E+01 5.39171E+00-5.00000E-01
 -1      1513-1.47369E+00-1.33327E+01 5.00000E-01
 -1      1514-1.23408E+01 4.12763E+00-5.00000E-01
 -1      1515 1.07973E-01-1.32260E+01-5.00000E-01
 -1      1516 3.85157E+00-1.24914E+01 5.00000E-01
 -1      1517 1.38891E+00-7.99507E+00-5.00000E-01
 -1      1518 6.64928E+00-8.69777E+00-5.00000E-01
 -1      1519 1.28746E+01 4.72002E+00 5.00000E-01
 -1      1520-4.98719E+00 3.25402E+00-5.00000E-01
 -1      1521-8.97089E-01-1.37883E+01-5.00000E-01
 -1      1522-2.02921E+00 9.26411E+00-5.00000E-01
 -1      1523-8.66242E+00-7.29960E+00 5.00000E-01
 -1      1524 9.36955E+00 9.67861E+00-5.00000E-01
 -1      1525 1.21711E+01 6.08879E+00 5.00000E-01
 -1      1526 2.55497E+00-2.80124E+00-5.00000E-01
 -1      1527-8.40525E+00-8.18439E+00-5.00000E-01
 -1      1528 8.81520E+00-6.97509E+00 5.00000E-01
 -1      1529-2.27130E-01-4.54423E+00-5.00000E-01
 -1      1530 1.47888E+00-1.34645E+01-5.00000E-01
 -1      1531 7.13548E+00 7.64939E+00-5.00000E-01
 -1      1532-4.35046E+00 1.30754E+01 5.00000E-01
 -1      1533 5.26796E+00 1.03034E+01 5.00000E-01
 -1      1534-8.28119E+00-1.10267E+01-5.00000E-01
 -1      1535-2.83131E+00 1.02265E+01-5.00000E-01
 -1      1536 8.32885E+00 1.03342E+01 5.00000E-01
 -1      1537 1.37998E+01 2.51145E-01 5.00000E-01
 -1      1538 7.21537E+00-8.67472E+00 5.00000E-01
 -1      1539 8.91374E+00 5.14739E+00-5.00000E-01
 -1      1540 7.53702E+00 8.81402E+00 5.00000E-01
 -1      1541 3.59322E+00-1.10255E+01 5.00000E-01
 -1      1542 1.02420E+01-8.88090E+00 5.00000E-01
 -1      1543-9.48313E+00 1.88648E+00-5.00000E-01
 -1      1544-7.80476E+00 8.54108E+00-5.00000E-01
 -1      1545 8.29565E+00-9.29577E+00-5.00000E-01
 -1      1546 1.14834E+01-7.29633E+00 5.00000E-01
 -1      1547-4.35748E+00-2.77221E-01-5.00000E-01
 -1      1548-7.09432E+00-1.69737E+00-5.00000E-01
 -1      1549-2.52581E-01-1.38144E+01 5.00000E-01
 -1      1550-1.13355E+01-7.87637E+00-5.00000E-01
 -1      1551-6.22376E+00 1.24236E+01-5.00000E-01
 -1      1552 1.12885E+01-1.42326E+00 5.00000E-01
 -1      1553 4.32680E+00-1.29974E+01-5.00000E-01
 -1      1554-1.00589E+01-5.20959E+00 5.00000E-01
 -1      1555-1.15928E+01-9.34378E-01 5.00000E-01
 -1      1556 3.76123E+00 8.99544E+00-5.00000E-01
 -1      1557-3.32919E+00 7.69145E+00-5.00000E-01
 -1      1558 8.13340E+00-2.46070E+00-5.00000E-01
 -1      1559 1.74415E+00 8.76843E+00 5.00000E-01
 -1      1560 1.00898E+01 7.04392E+00-5.00000E-01
 -1      1561-6.81756E+00 6.11326E+00-5.00000E-01
 -1      1562-3.74060E+00 1.11944E+01-5.00000E-01
 -1      1563-1.14794E+01 2.28349E+00-5.00000E-01
 -1      1564-3.96281E-01-2.72831E+00-5.00000E-01
 -1      1565 1.18290E+01 6.73949E+00-5.00000E-01
 -1      1566 6.26995E+00-1.00719E+01-5.00000E-01
 -1      1567 6.19892E+00-1.21064E+01 5.00000E-01
 -1      1568-4.23361E+00-8.28225E+00-5.00000E-01
 -1      1569 7.82138E+00-8.03616E+00-5.00000E-01
 -1      1570-1.31814E+01 2.84620E+00-5.00000E-01
 -1      1571-1.16912E+00-3.71613E+00-5.00000E-01
 -1      1572-2.55666E+00 2.88883E-01-5.00000E-01
 -1      1573 7.11881E+00-3.44444E+00-5.00000E-01
 -1      1574 1.76073E+00-8.85178E+00 5.00000E-01
 -1      1575-1.19212E+01-6.70174E+00 5.00000E-01
 -1      1576-3.80927E+00 8.75612E+00-5.00000E-01
 -1      1577 7.92384E+00-7.92384E+00 5.00000E-01
 -1      1578-9.45601E+00-8.93644E+00-5.00000E-01
 -1      1579 1.13865E+01 7.33652E+00 5.00000E-01
 -1      1580 1.34468E+01-2.43242E+00-5.00000E-01
 -1      1581 2.72351E+00 1.33485E+01 5.00000E-01
 -1      1582-6.13541E+00-7.89590E+00-5.00000E-01
 -1      1583 1.54975E+00-6.65972E+00-5.00000E-01
 -1      1584 1.71260E+00 1.08769E+01-5.00000E-01
 -1      1585-9.11386E+00-7.32092E+00-5.00000E-01
 -1      1586 9.21568E+00-6.27660E-01-5.00000E-01
 -1      1587 1.27760E+01-3.75829E+00 5.00000E-01
 -1      1588 1.24836E+01-5.73866E+00-5.00000E-01
 -1      1589-5.20205E+00 8.43044E+00 5.00000E-01
 -1      1590-1.33160E+01-2.88704E+00 5.00000E-01
 -1      1591-4.91420E+00-7.94883E+00 5.00000E-01
 -1      1592 9.94493E+00 6.18814E-01-5.00000E-01
 -1      1593-3.45413E+00-1.26790E+01-5.00000E-01
 -1      1594-1.28139E+01-4.27116E+00 5.00000E-01
 -1      1595 6.19606E+00 9.16452E+00-5.00000E-01
 -1      1596-2.55981E+00 1.30442E+01-5.00000E-01
 -1      1597-3.60427E+00-1.31479E+01 5.00000E-01
 -1      1598 5.44973E-01-7.21606E+00-5.00000E-01
 -1      1599-3.85511E+00 1.27205E+00-5.00000E-01
 -1      1600 1.86824E+00 8.99033E+00-5.00000E-01
 -1      1601 3.57131E+00 1.61704E+00-5.00000E-01
 -1      1602-4.80878E+00-1.28525E+01 5.00000E-01
 -1      1603-6.13470E+00-1.99478E-01-5.00000E-01
 -1      1604-7.15738E+00-9.21290E+00-5.00000E-01
 -1      1605-1.35686E+00-6.41421E+00-5.00000E-01
 -1      1606 8.89612E+00-5.72874E+00-5.00000E-01
 -1      1607 3.85548E+00-2.68149E+00-5.00000E-01
 -1      1608-6.61883E+00-1.00895E+01-5.00000E-01
 -1      1609-5.19841E+00 8.51541E-01-5.00000E-01
 -1      1610 9.47091E+00-2.01438E+00-5.00000E-01
 -1      1611-1.23075E+01-5.09793E+00-5.00000E-01
 -1      1612 1.28521E+01-3.82990E+00-5.00000E-01
 -1      1613 8.75170E+00 7.45761E+00 5.00000E-01
 -1      1614-1.13011E+01 3.49004E+00-5.00000E-01
 -1      1615 1.02277E+01-5.34056E+00 5.00000E-01
 -1      1616-8.07336E+00-3.98093E+00-5.00000E-01
 -1      1617 4.16811E+00-5.48993E+00-5.00000E-01
 -1      1618-3.94420E+00-7.08180E+00-5.00000E-01
 -1      1619-1.85405E+00-7.91763E+00 5.00000E-01
 -1      1620-8.82470E+00-1.75534E+00 5.00000E-01
 -1      1621-1.43377E+00-1.18285E+01-5.00000E-01
 -1      1622 3.98692E+00 7.51299E+00-5.00000E-01
 -1      1623-7.36448E+00-7.29935E+00-5.00000E-01
 -1      1624 9.83319E-01 7.43935E+00-5.00000E-01
 -1      1625-2.47084E+00-1.21899E+01-5.00000E-01
 -1      1626 1.02865E+01 5.22211E+00 5.00000E-01
 -1      1627-1.28663E+01 4.81437E+00 5.00000E-01
 -1      1628 6.69577E+00-7.41109E+00-5.00000E-01
 -1      1629 1.00813E+01-4.81879E+00-5.00000E-01
 -1      1630-4.03881E-01-6.81024E+00-5.00000E-01
 -1      1631 1.13035E+01-3.61153E+00-5.00000E-01
 -1      1632 5.29753E+00-1.02170E+01 5.00000E-01
 -1      1633-4.97398E-01 3.67278E+00-5.00000E-01
 -1      1634 8.85023E+00-8.36786E+00-5.00000E-01
 -1      1635-1.25390E+01 1.93381E+00-5.00000E-01
 -1      1636-3.66936E+00-2.83673E+00-5.00000E-01
 -1      1637 5.42452E+00-4.27172E+00-5.00000E-01
 -1      1638-3.13668E+00 4.11490E+00-5.00000E-01
 -1      1639 6.62134E-01 9.13466E-01-5.00000E-01
 -1      1640 6.06911E+00 5.62377E+00-5.00000E-01
 -1      1641 2.98220E+00-5.02909E+00-5.00000E-01
 -1      1642 8.86488E+00 5.50698E+00 5.00000E-01
 -1      1643 1.34278E+01 1.64140E+00 5.00000E-01
 -1      1644 9.57178E+00 9.92504E+00 5.00000E-01
 -1      1645 9.97717E-01 2.67778E+00-5.00000E-01
 -1      1646-6.25435E+00-6.57655E+00-5.00000E-01
 -1      1647-3.68719E+00-1.11441E+01 5.00000E-01
 -1      1648 1.12769E+01-7.82829E+00-5.00000E-01
 -1      1649-5.62659E+00 4.86019E+00-5.00000E-01
 -1      1650 2.33626E+00-3.99807E+00-5.00000E-01
 -1      1651-5.39320E+00 7.18009E+00-5.00000E-01
 -1      1652 8.97049E-01 1.34253E+00 5.00000E-01
 -1      1653-1.49038E+00 6.17330E-01 5.00000E-01
 -1      1654 4.30890E+00 1.29383E+01 5.00000E-01
 -1      1655 2.77719E+00-7.79273E+00-5.00000E-01
 -1      1656-5.31361E+00-1.78185E+00-5.00000E-01
 -1      1657 1.07822E+01-2.25903E+00-5.00000E-01
 -1      1658 1.09772E+00-2.02115E+00-5.00000E-01
 -1      1659 7.27229E+00 2.63911E+00-5.00000E-01
 -1      1660-4.25397E+00 7.00298E+00-5.00000E-01
 -1      1661-5.30459E+00-8.68015E+00-5.00000E-01
 -1      1662-2.57273E+00-1.36296E+01 5.00000E-01
 -1      1663-8.53353E+00-1.09775E+01 5.00000E-01
 -1      1664-1.35898E+01-2.44651E+00-5.00000E-01
 -1      1665 6.99940E+00-5.47579E+00-5.00000E-01
 -1      1666 3.87515E+00 5.29775E+00-5.00000E-01
 -1      1667 5.08718E+00 4.68652E+00-5.00000E-01
 -1      1668 5.14963E+00-7.70697E+00 5.00000E-01
 -1      1669-2.96593E+00-9.47421E+00-5.00000E-01
 -1      1670-6.98833E+00 3.38773E+00-5.00000E-01
 -1      1671-5.64640E+00 6.03387E+00-5.00000E-01
 -1      1672-9.14283E+00 1.03115E+01-5.00000E-01
 -1      1673 1.00683E+01 7.91427E+00 5.00000E-01
 -1      1674-8.03426E-01-9.45669E+00-5.00000E-01
 -1      1675-1.01456E+01-4.70937E+00-5.00000E-01
 -1      1676 5.55625E+00 1.64122E+00-5.00000E-01
 -1      1677-3.05902E+00-1.26039E+00-5.00000E-01
 -1      1678-1.15373E+01-2.52322E+00-5.00000E-01
 -1      1679-1.11121E+01 6.35628E+00-5.00000E-01
 -1      1680 2.38293E+00 1.29442E+01-5.00000E-01
 -1      1681-8.07083E+00 2.36308E+00-5.00000E-01
 -1      1682-5.08107E+00-1.29514E+01-5.00000E-01
 -1      1683-1.09359E+01-3.31241E+00 5.00000E-01
 -1      1684-3.13764E+00 6.46882E+00-5.00000E-01
 -1      1685-1.00794E+01 3.04282E+00-5.00000E-01
 -1      1686 4.95523E+00 9.41713E+00-5.00000E-01
 -1      1687 1.02599E+01-4.02035E-01-5.00000E-01
 -1      1688 7.13463E+00 1.07791E+01-5.00000E-01
 -1      1689-8.61661E+00 1.71395E+00 5.00000E-01
 -1      1690-7.76787E+00 7.14146E+00-5.00000E-01
 -1      1691 1.23990E+01 4.48113E+00-5.00000E-01
 -1      1692-5.93792E+00-4.41961E+00-5.00000E-01
 -1      1693 1.22995E+01-1.04732E+00-5.00000E-01
 -1      1694-1.01278E+01-6.54846E+00-5.00000E-01
 -1      1695 6.86625E+00 1.36291E+00-5.00000E-01
 -1      1696-1.26764E-01 1.25369E+01-5.00000E-01
 -1      1697-7.91541E+00-1.15003E-01-5.00000E-01
 -1      1698 4.84465E+00 6.31867E+00-5.00000E-01
 -1      1699-1.37339E+01-9.83336E-01-5.00000E-01
 -1      1700-2.45611E+00-1.36873E+01-5.00000E-01
 -1      1701 7.32565E-01 3.90015E+00-5.00000E-01
 -1      1702 1.25626E+01-2.64573E+00 5.00000E-01
 -1      1703-1.29452E+01 5.07917E+00-5.00000E-01
 -1      1704-1.60716E+00 5.29249E+00-5.00000E-01
 -1      1705-1.69024E+00-2.51220E+00-5.00000E-01
 -1      1706 7.14695E+00 1.42162E+00 5.00000E-01
 -1      1707 1.02169E+01 5.65219E+00-5.00000E-01
 -1      1708 4.87948E+00-1.12005E+01-5.00000E-01
 -1      1709-4.20701E+00-1.04846E+01-5.00000E-01
 -1      1710-8.42190E+00 4.84567E+00-5.00000E-01
 -1      1711-8.97703E-01 3.45777E-01-5.00000E-01
 -1      1712 1.71360E+00-9.58361E+00-5.00000E-01
 -1      1713-1.26201E+01-3.30471E-01-5.00000E-01
 -1      1714 3.43297E+00 1.06941E+01-5.00000E-01
 -1      1715 3.50240E+00 6.42700E+00-5.00000E-01
 -1      1716 6.52033E+00-4.35675E+00 5.00000E-01
 -1      1717-6.33699E+00-1.21395E+01 5.00000E-01
 -1      1718 1.07892E+01-3.92571E+00 5.00000E-01
 -1      1719-7.17170E+00 1.02472E+01 5.00000E-01
 -1      1720 4.77457E+00 7.14565E+00 5.00000E-01
 -1      1721-3.78105E+00 2.62865E+00-5.00000E-01
 -1      1722-1.88109E+00-9.90844E+00-5.00000E-01
 -1      1723 6.18189E+00 2.53977E+00-5.00000E-01
 -1      1724-6.61239E-01 1.14440E+01 5.00000E-01
 -1      1725-6.59212E+00 7.87274E+00-5.00000E-01
 -1      1726-7.14695E+00-1.42162E+00 5.00000E-01
 -1      1727 3.41986E-01-6.33688E-01-5.00000E-01
 -1      1728-5.08916E+00-7.61973E+00-5.00000E-01
 -1      1729 9.30858E+00 1.59066E+00-5.00000E-01
 -1      1730-1.68553E+00 8.47375E+00 5.00000E-01
 -1      1731 1.60373E+00-1.00617E-01 5.00000E-01
 -1      1732 1.11469E+01 4.18327E+00-5.00000E-01
 -1      1733-1.75777E+00 1.20923E+00-5.00000E-01
 -1      1734-1.06402E+01 8.25672E+00-5.00000E-01
 -1      1735-1.14468E+01 5.08779E+00-5.00000E-01
 -1      1736 2.50183E+00 5.47057E+00-5.00000E-01
 -1      1737-1.34066E+01 5.77821E-01 5.00000E-01
 -1      1738-6.36100E+00-1.20475E+01-5.00000E-01
 -1      1739-1.15697E+01-4.38957E+00 5.00000E-01
 -1      1740-1.23151E+01 6.12898E+00-5.00000E-01
 -1      1741-7.99759E-02 4.85516E+00-5.00000E-01
 -1      1742 1.01071E+01 2.39381E+00 5.00000E-01
 -1      1743 6.98443E+00-1.18941E+01-5.00000E-01
 -1      1744 9.46080E+00 2.86594E+00-5.00000E-01
 -1      1745-9.71453E+00 5.69439E+00-5.00000E-01
 -1      1746-7.26798E+00-5.35171E+00-5.00000E-01
 -1      1747 1.11438E+01-1.15597E+00-5.00000E-01
 -1      1748 2.04432E+00 1.56463E+00-5.00000E-01
 -1      1749 6.65810E+00 4.55290E+00-5.00000E-01
 -1      1750 6.85495E+00 6.50357E+00-5.00000E-01
 -1      1751 4.22729E+00 3.20213E+00-5.00000E-01
 -1      1752 5.82526E+00 9.35389E+00 5.00000E-01
 -1      1753 6.17330E-01-1.49038E+00 5.00000E-01
 -1      1754 1.22749E+01-1.01638E+00 5.00000E-01
 -1      1755 3.45573E+00 1.10084E+01 5.00000E-01
 -1      1756 4.38809E+00-7.19427E+00-5.00000E-01
 -1      1757 8.58953E+00-1.70856E+00 5.00000E-01
 -1      1758-4.40274E+00 4.41704E+00-5.00000E-01
 -1      1759-7.25192E+00 1.15681E+01 5.00000E-01
 -1      1760 1.36590E+01-2.61953E+00 5.00000E-01
 -1      1761 8.85373E+00-7.17510E+00-5.00000E-01
 -1      1762 2.37782E-01 1.37870E+01 5.00000E-01
 -1      1763-1.23417E+01 1.11939E-02 5.00000E-01
 -1      1764-1.00858E+01 6.71681E+00-5.00000E-01
 -1      1765-1.12710E+01 8.98641E-02 5.00000E-01
 -1      1766 5.52758E+00-9.12754E+00-5.00000E-01
 -1      1767 1.07138E+01 8.31717E+00-5.00000E-01
 -1      1768 3.82737E+00-8.15225E+00-5.00000E-01
 -1      1769 1.41798E-01-8.49948E+00-5.00000E-01
 -1      1770 4.88931E+00-1.67341E+00-5.00000E-01
 -1      1771-1.89146E+00 3.44960E+00-5.00000E-01
 -1      1772-7.12870E+00-4.76325E+00 5.00000E-01
 -1      1773-3.56887E+00-4.56155E+00-5.00000E-01
 -1      1774 4.11203E+00 4.26016E+00-5.00000E-01
 -1      1775 9.15096E+00-4.13085E+00-5.00000E-01
 -1      1776 6.40738E+00 1.16445E+01 5.00000E-01
 -1      1777 3.04525E+00 8.12803E+00-5.00000E-01
 -1      1778 2.34590E+00 2.89677E+00-5.00000E-01
 -1      1779 4.04842E+00 6.05889E+00 5.00000E-01
 -1      1780-4.82207E+00 2.00516E+00-5.00000E-01
 -1      1781 1.21919E+00 1.21792E+01-5.00000E-01
 -1      1782-2.16520E+00 4.43520E+00-5.00000E-01
 -1      1783-1.31673E+01-4.42741E+00-5.00000E-01
 -1      1784 2.27787E+00-1.04888E+01-5.00000E-01
 -1      1785 8.54533E+00-1.46789E+00-5.00000E-01
 -1      1786-1.03229E+01 4.32630E+00 5.00000E-01
 -1      1787-5.76385E-01 1.05106E+01-5.00000E-01
 -1      1788 6.86338E-01-1.21374E+01-5.00000E-01
 -1      1789 2.67089E+00 1.17085E+01-5.00000E-01
 -1      1790-8.91103E-01 9.40751E+00-5.00000E-01
 -1      1791-5.11340E-01 1.68666E+00 5.00000E-01
 -1      1792-7.05110E+00 4.75978E+00-5.00000E-01
 -1      1793-1.69341E+00-8.84488E+00-5.00000E-01
 -1      1794-8.73313E+00-1.54353E+00-5.00000E-01
 -1      1795-1.22764E+01-5.21915E+00 5.00000E-01
 -1      1796-1.01335E+01-1.00340E+00-5.00000E-01
 -1      1797 8.44975E+00-1.08047E+01 5.00000E-01
 -1      1798-9.33281E+00-5.62113E+00-5.00000E-01
 -1      1799-1.07892E+01-3.58304E+00-5.00000E-01
 -1      1800 7.68876E-01 9.84936E+00-5.00000E-01
 -1      1801-1.36954E+01 1.81406E+00-5.00000E-01
 -1      1802 7.31354E+00-9.76407E+00-5.00000E-01
 -1      1803 4.94938E+00-8.16589E+00-5.00000E-01
 -1      1804 1.25358E+01 5.91902E+00-5.00000E-01
 -1      1805-1.06547E+01 1.21315E+00-5.00000E-01
 -1      1806 8.69114E+00 7.72959E+00-5.00000E-01
 -1      1807-4.07311E+00-9.38165E+00-5.00000E-01
 -1      1808 4.37040E+00-9.11645E+00-5.00000E-01
 -1      1809 1.50840E+00 7.58325E+00 5.00000E-01
 -1      1810-1.44697E+00 7.45921E+00-5.00000E-01
 -1      1811-7.38085E+00 4.93172E+00 5.00000E-01
 -1      1812-9.00565E+00 6.83984E+00 5.00000E-01
 -1      1813-8.42678E+00 9.36408E+00-5.00000E-01
 -1      1814-7.20441E+00 1.16963E+01-5.00000E-01
 -1      1815-1.00506E+00 2.37832E+00-5.00000E-01
 -1      1816 2.00851E+00-6.25500E-01-5.00000E-01
 -1      1817-8.43096E+00-8.32519E+00 5.00000E-01
 -1      1818 9.49317E+00-9.86451E+00-5.00000E-01
 -1      1819-2.92922E+00 1.34550E+01 5.00000E-01
 -1      1820-4.54549E+00 6.80280E+00 5.00000E-01
 -1      1821-8.00589E+00 5.96821E+00-5.00000E-01
 -1      1822 9.57097E+00-9.92405E+00 5.00000E-01
 -1      1823-5.46475E+00 7.37823E+00 5.00000E-01
 -1      1824 9.55811E+00 8.52040E+00-5.00000E-01
 -1      1825 1.42162E+00-7.14695E+00 5.00000E-01
 -1      1826 2.84675E+00 4.56154E-01-5.00000E-01
 -1      1827 3.51348E+00 1.33145E+01-5.00000E-01
 -1      1828-6.79546E+00-3.17715E+00-5.00000E-01
 -1      1829-5.08183E+00-3.22946E+00-5.00000E-01
 -1      1830-5.75221E+00-5.54853E+00-5.00000E-01
 -1      1831 5.65510E+00 1.21456E+01-5.00000E-01
 -1      1832-2.48994E-01 1.37780E+01-5.00000E-01
 -1      1833-6.23021E+00-2.29292E+00-5.00000E-01
 -1      1834-9.36029E+00-3.63161E+00-5.00000E-01
 -1      1835-3.16565E+00-8.41653E+00-5.00000E-01
 -1      1836 1.34734E+01 1.69636E+00-5.00000E-01
 -1      1837-1.13765E+01-1.26355E+00-5.00000E-01
 -1      1838-2.86605E+00 1.22700E+01 5.00000E-01
 -1      1839 1.16791E+00 5.25832E+00-5.00000E-01
 -1      1840-2.31479E-01 7.49149E+00-5.00000E-01
 -1      1841 4.42473E+00-7.46791E-02-5.00000E-01
 -1      1842-4.18130E+00-3.73189E+00-5.00000E-01
 -1      1843 7.11128E+00-2.42160E+00-5.00000E-01
 -1      1844 3.57057E-01-1.02912E+01-5.00000E-01
 -1      1845-3.12224E+00 1.21014E+01-5.00000E-01
 -1      1846-9.22958E+00 3.92489E+00-5.00000E-01
 -1      1847-8.17341E+00 1.11273E+00-5.00000E-01
 -1      1848-2.04100E+00-4.05983E-01 5.00000E-01
 -1      1849-6.44109E-01-5.56856E+00-5.00000E-01
 -1      1850-1.24707E+00-6.26945E+00 5.00000E-01
 -1      1851-1.11462E+01-5.35057E+00-5.00000E-01
 -1      1852-4.05903E+00-5.61393E+00-5.00000E-01
 -1      1853-6.05889E+00-4.04842E+00 5.00000E-01
 -1      1854 8.84481E+00-5.57308E+00 5.00000E-01
 -1      1855 4.04842E+00-6.05889E+00 5.00000E-01
 -1      1856-1.15370E+01-4.35181E+00-5.00000E-01
 -1      1857-1.02069E+00 6.33841E+00-5.00000E-01
 -1      1858 6.46055E+00-1.00575E+01 5.00000E-01
 -1      1859 5.02076E+00-3.10092E+00-5.00000E-01
 -1      1860-4.13319E+00-1.75081E+00-5.00000E-01
 -1      1861 7.93186E+00 6.05226E+00 5.00000E-01
 -1      1862 1.36049E+01 2.74845E+00 5.00000E-01
 -1      1863-2.73117E+00 5.41388E+00-5.00000E-01
 -1      1864-2.86201E+00 3.13101E+00-5.00000E-01
 -1      1865-4.38018E+00-1.03567E+01 5.00000E-01
 -1      1866 1.36135E+01-1.03513E+00-5.00000E-01
 -1      1867 5.50517E+00 1.26504E+01 5.00000E-01
 -1      1868 7.39495E+00-2.36862E-01-5.00000E-01
 -1      1869 6.55104E+00-4.43025E+00-5.00000E-01
 -1      1870 1.09743E+01 8.53095E+00 5.00000E-01
 -1      1871-8.01061E+00-2.65250E+00-5.00000E-01
 -1      1872-1.00800E+01 1.78728E-01-5.00000E-01
 -1      1873 8.46466E+00 1.06606E+01-5.00000E-01
 -1      1874-1.42162E+00 7.14695E+00 5.00000E-01
 -1      1875 3.03991E+00 3.82336E+00-5.00000E-01
 -1      1876-1.43346E+00 1.23581E+01-5.00000E-01
 -1      1877-2.74299E+00-2.28908E+00-5.00000E-01
 -1      1878-3.45134E+00-1.14517E+01-5.00000E-01
 -1      1879 2.48837E+00 9.99121E+00-5.00000E-01
 -1      1880-6.09271E+00 2.40265E+00-5.00000E-01
 -1      1881 1.16200E+00 1.35339E+01-5.00000E-01
 -1      1882-3.28849E-01-1.57466E+00-5.00000E-01
 -1      1883-1.15901E+01 7.48379E+00-5.00000E-01
 -1      1884 1.09797E+01 3.01606E+00-5.00000E-01
 -1      1885 5.11746E+00 2.61383E+00-5.00000E-01
 -1      1886 8.96177E+00-3.10106E+00-5.00000E-01
 -1      1887 7.49683E+00 5.26791E+00-5.00000E-01
 -1      1888 1.08207E+01 1.38183E+00 5.00000E-01
 -1      1889 8.40459E+00 2.38540E+00-5.00000E-01
 -1      1890 8.82240E+00 3.75298E+00-5.00000E-01
 -1      1891-4.05983E-01-2.04100E+00 5.00000E-01
 -1      1892-1.10195E+01 1.29116E+00 5.00000E-01
 -1      1893-1.23786E+01 1.22582E+00 5.00000E-01
 -1      1894-3.95038E-01 1.39143E+00-5.00000E-01
 -1      1895 4.93543E-01 1.11597E+01-5.00000E-01
 -1      1896 4.82328E+00 1.15576E+01-5.00000E-01
 -1      1897-2.58820E+00-3.63907E+00-5.00000E-01
 -1      1898 7.65127E+00 1.14046E+01 5.00000E-01
 -1      1899 8.43201E+00 1.57988E-01-5.00000E-01
 -1      1900 3.35381E+00 2.63533E+00-5.00000E-01
 -1      1901-1.45914E+00 1.35835E+01-5.00000E-01
 -1      1902-9.19350E-01-7.90951E+00-5.00000E-01
 -1      1903 8.54119E+00-1.09868E+01-5.00000E-01
 -1      1904-2.31398E+00 8.17589E+00-5.00000E-01
 -1      1905 3.43792E+00-3.97321E-01-5.00000E-01
 -1      1906-6.38380E+00 4.26552E+00 5.00000E-01
 -1      1907 2.18720E+00-1.73712E+00-5.00000E-01
 -1      1908-3.93146E+00 5.88384E+00 5.00000E-01
 -1      1909 8.61020E+00-9.39932E+00 5.00000E-01
 -1      1910 6.84621E+00 1.19510E+01-5.00000E-01
 -1      1911 1.37042E+01 2.70245E+00-5.00000E-01
 -1      1912 1.68347E+00 6.31588E+00-5.00000E-01
 -1      1913 5.92730E+00 1.65509E-01-5.00000E-01
 -1      1914 4.57071E+00 1.06009E+00-5.00000E-01
 -1      1915-8.14124E+00 3.52160E+00-5.00000E-01
 -1      1916-4.80832E+00-4.71762E+00-5.00000E-01
 -1      1917-3.93146E+00-5.88384E+00 5.00000E-01
 -1      1918 4.33386E+00-7.06010E+00 5.00000E-01
 -1      1919-2.06821E+00 6.58147E+00-5.00000E-01
 -1      1920 1.38419E+01-8.39485E-01 5.00000E-01
 -1      1921 7.87167E+00 1.15281E+01-5.00000E-01
 -1      1922-9.11844E+00-4.57089E-01-5.00000E-01
 -1      1923-6.63150E-01 1.15929E+01-5.00000E-01
 -1      1924 1.10664E+01 1.09804E+00-5.00000E-01
 -1      1925-1.18202E+01 1.01637E+00-5.00000E-01
 -1      1926 6.36015E+00-1.13348E+00-5.00000E-01
 -1      1927 6.26945E+00-1.24707E+00 5.00000E-01
 -1      1928-2.14554E+00-5.75365E+00-5.00000E-01
 -1      1929-7.00074E+00 3.55350E-01-5.00000E-01
 -1      1930 1.45852E-01-3.59365E+00-5.00000E-01
 -1      1931-1.33281E+00 8.48009E+00-5.00000E-01
 -1      1932 2.52186E+00 8.82826E+00 5.00000E-01
 -1      1933-9.22009E+00 8.36376E-01-5.00000E-01
 -1      1934-6.16122E+00 8.27356E-01-5.00000E-01
 -1      1935 4.60001E+00-3.90104E+00-5.00000E-01
 -1      1936 5.50096E+00-3.67563E+00 5.00000E-01
 -1      1937-8.93790E+00-4.62073E+00-5.00000E-01
 -1      1938-6.32867E+00 6.94480E+00-5.00000E-01
 -1      1939 1.20343E+00 6.05008E+00 5.00000E-01
 -1      1940-2.60911E+00 9.26702E+00 5.00000E-01
 -1      1941-7.91445E+00-1.94727E+00 5.00000E-01
 -1      1942-5.95583E+00 3.79877E+00-5.00000E-01
 -1      1943-7.01500E+00-4.24584E+00-5.00000E-01
 -1      1944 2.53063E+00-9.47185E+00 5.00000E-01
 -1      1945 5.55469E+00-7.16690E+00-5.00000E-01
 -1      1946-5.69883E+00 1.59638E+00-5.00000E-01
 -1      1947 1.02889E+00-5.17257E+00 5.00000E-01
 -1      1948 8.09194E+00 1.25687E+00 5.00000E-01
 -1      1949 4.70424E+00 8.34649E+00-5.00000E-01
 -1      1950 7.36632E+00-1.38331E+00 5.00000E-01
 -1      1951 7.44646E+00-1.34175E+00-5.00000E-01
 -1      1952-1.23742E+00-7.20886E+00 5.00000E-01
 -1      1953 3.44884E+00-7.13335E+00-5.00000E-01
 -1      1954-7.88242E+00 6.25806E+00 5.00000E-01
 -1      1955-7.86418E+00-1.09263E+00-5.00000E-01
 -1      1956 5.10516E+00-5.19935E+00-5.00000E-01
 -1      1957-3.41850E+00-5.11615E+00 5.00000E-01
 -1      1958 7.99229E+00 3.27266E+00-5.00000E-01
 -1      1959-5.59412E+00-7.30538E+00 5.00000E-01
 -1      1960-2.58793E+00-9.64499E+00 5.00000E-01
 -1      1961-5.61133E+00 1.11616E+00 5.00000E-01
 -1      1962-9.68406E+00-1.27827E+00 5.00000E-01
 -1      1963-6.22562E+00-1.23835E+00 5.00000E-01
 -1      1964-6.17965E+00-1.22702E+00-5.00000E-01
 -1      1965 7.73419E+00 1.99740E+00 5.00000E-01
 -1      1966 2.10117E+00-8.05272E+00 5.00000E-01
 -1      1967-3.35868E+00-3.07137E-01-5.00000E-01
 -1      1968 5.44931E+00-1.12691E+00 5.00000E-01
 -1      1969 6.13250E+00-7.96959E+00 5.00000E-01
 -1      1970-3.41850E+00 5.11615E+00 5.00000E-01
 -1      1971 4.73190E+00-6.28353E+00-5.00000E-01
 -1      1972 9.95795E-01 8.46017E+00-5.00000E-01
 -1      1973-2.27672E+00-6.87487E+00-5.00000E-01
 -1      1974 9.07943E+00 7.46359E-01-5.00000E-01
 -1      1975 6.61060E+00 4.83313E+00 5.00000E-01
 -1      1976-9.03724E+00-2.53152E+00-5.00000E-01
 -1      1977 6.76099E-01-5.08967E+00-5.00000E-01
 -1      1978-4.75705E+00 3.17856E+00 5.00000E-01
 -1      1979-4.98984E+00 5.45794E+00-5.00000E-01
 -1      1980-1.22129E+00 9.27246E+00 5.00000E-01
 -1      1981-3.95042E-02 9.54725E+00-5.00000E-01
 -1      1982 5.61133E+00 1.11616E+00 5.00000E-01
 -1      1983 8.38605E+00 4.73595E+00 5.00000E-01
 -1      1984 7.18457E+00 4.19707E+00 5.00000E-01
 -1      1985 7.02683E+00 3.61579E+00-5.00000E-01
 -1      1986 6.77067E+00-1.75679E+00 5.00000E-01
 -1      1987-2.99477E+00 9.27480E+00-5.00000E-01
 -1      1988 5.38056E+00-7.38290E-01-5.00000E-01
 -1      1989 8.15664E+00-6.78092E-01-5.00000E-01
 -1      1990 4.27231E+00-9.85840E-01-5.00000E-01
 -1      1991-1.16299E+00-8.43529E+00 5.00000E-01
 -1      1992-6.37622E+00 5.34022E+00-5.00000E-01
 -1      1993-1.20343E+00 6.05008E+00 5.00000E-01
 -1      1994-7.25652E-01 5.48559E+00-5.00000E-01
 -1      1995-6.33110E+00-4.79900E+00 5.00000E-01
 -1      1996 9.80825E+00 1.31432E+00 5.00000E-01
 -1      1997-8.14028E+00-4.79179E+00 5.00000E-01
 -1      1998 1.15964E+00-6.05008E+00 5.00000E-01
 -1      1999-4.55373E+00 7.74572E+00 5.00000E-01
 -1      2000-9.67073E+00 2.78099E+00 5.00000E-01
 -1      2001-7.45008E+00-6.31890E+00-5.00000E-01
 -1      2002-5.59124E+00 3.69089E+00 5.00000E-01
 -1      2003-7.08138E+00 2.36299E+00-5.00000E-01
 -1      2004-4.50899E+00-2.55334E+00-5.00000E-01
 -1      2005 3.42709E+00 5.12901E+00 5.00000E-01
 -1      2006 8.06497E+00-3.40519E+00-5.00000E-01
 -1      2007 8.84321E+00-2.48578E+00 5.00000E-01
 -1      2008 1.24120E+00-1.03321E+01-5.00000E-01
 -1      2009 1.28374E+00-9.71460E+00 5.00000E-01
 -1      2010 2.04794E+00 8.00119E+00-5.00000E-01
 -1      2011 7.47703E+00 6.77515E-01-5.00000E-01
 -1      2012-8.84032E+00 2.49275E+00 5.00000E-01
 -1      2013 9.24826E+00 2.57788E+00 5.00000E-01
 -1      2014 6.09656E+00-3.49945E+00-5.00000E-01
 -1      2015 1.19899E+00-8.14040E+00 5.00000E-01
 -1      2016-5.12901E+00-3.42709E+00 5.00000E-01
 -1      2017 7.90610E+00-6.01654E+00 5.00000E-01
 -1      2018-1.01783E+00-4.81939E+00-5.00000E-01
 -1      2019-1.17324E+00 4.39976E+00-5.00000E-01
 -1      2020-9.01824E+00 2.87093E+00-5.00000E-01
 -1      2021-7.18345E+00 4.14796E+00 5.00000E-01
 -1      2022 9.99883E+00-1.12809E+00 5.00000E-01
 -1      2023 6.26243E+00-6.64787E+00-5.00000E-01
 -1      2024 4.86356E+00 8.80810E+00 5.00000E-01
 -1      2025 4.55187E+00 7.99118E+00 5.00000E-01
 -1      2026 6.01446E+00-5.16514E+00-5.00000E-01
 -1      2027-2.95865E+00-5.27873E+00-5.00000E-01
 -1      2028 4.24770E+00 2.26540E+00-5.00000E-01
 -1      2029-2.48941E+00-8.83653E+00-5.00000E-01
 -1      2030 1.16579E+00 9.99883E+00 5.00000E-01
 -1      2031 5.04493E+00 3.47170E+00-5.00000E-01
 -1      2032-8.33993E+00 4.80338E+00 5.00000E-01
 -1      2033-9.43608E+00-2.52496E+00 5.00000E-01
 -1      2034-4.74119E+00-1.08949E+00-5.00000E-01
 -1      2035 5.01614E+00-8.71552E+00 5.00000E-01
 -1      2036 8.41409E+00-4.77360E+00 5.00000E-01
 -1      2037 1.14494E+00 9.19766E+00-5.00000E-01
 -1      2038 5.84199E+00 6.61749E+00-5.00000E-01
 -1      2039-3.93395E+00 3.57775E+00-5.00000E-01
 -1      2040-2.73253E+00-4.46814E+00-5.00000E-01
 -1      2041-8.21966E+00-1.14034E+00 5.00000E-01
 -1      2042-6.98341E+00-6.77105E-01-5.00000E-01
 -1      2043-3.05406E+00-7.43281E+00-5.00000E-01
 -1      2044 2.75176E+00 9.68973E+00 5.00000E-01
 -1      2045 1.02786E+00-8.89632E+00-5.00000E-01
 -1      2046-4.94342E+00-8.84441E+00 5.00000E-01
 -1      2047 1.60322E+00-2.82801E+00-5.00000E-01
 -1      2048-6.25199E+00-7.92663E+00 5.00000E-01
 -1      2049-5.23810E+00-5.56563E-02-5.00000E-01
 -1      2050 3.76887E+00 5.86466E-01-5.00000E-01
 -1      2051-1.30004E+00-9.90117E+00 5.00000E-01
 -1      2052 3.52653E+00-5.27783E+00 5.00000E-01
 -1      2053 6.28427E+00 8.17041E+00-5.00000E-01
 -1      2054 5.96618E+00 7.55381E+00 5.00000E-01
 -1      2055-9.96504E+00 9.19430E-01-5.00000E-01
 -1      2056 5.12901E+00 3.42709E+00 5.00000E-01
 -1      2057-6.27015E+00 8.23040E+00 5.00000E-01
 -1      2058 9.64728E+00-2.77180E+00 5.00000E-01
 -1      2059-9.43573E+00 1.24105E+00 5.00000E-01
 -3
    3C                          5880                                     1
 -1         1    3    0    1
 -2      1364      1454      1590      1664
 -1         2    3    0    1
 -2       415       688      1633      2019
 -1         3    3    0    1
 -2      1543      1681      1689      1847
 -1         4    3    0    1
 -2      1372       555      1032      2018
 -1         5    3    0    2
 -2       293      1274       264       934
 -1         6    3    0    1
 -2      1361      1440      1460      1812
 -1         7    3    0    1
 -2      1638      1771       864      1323
 -1         8    3    0    1
 -2       429       658      1507       841
 -1         9    3    0    1
 -2      1510      1484      1755      1896
 -1        10    3    0    1
 -2      1368       183      1744      1884
 -1        11    3    0    2
 -2       836       422       703       835
 -1        12    3    0    1
 -2       132      1374      1771      1815
 -1        13    3    0    1
 -2       209       484       464      1519
 -1        14    3    0    2
 -2        52       118        56       903
 -1        15    3    0    1
 -2       338      1381      1415      1530
 -1        16    3    0    2
 -2       380      1247       895      1248
 -1        17    3    0    1
 -2       244      1684      1863      1908
 -1        18    3    0    1
 -2        41      1271       161      1930
 -1        19    3    0    1
 -2       355       211       329      1804
 -1        20    3    0    2
 -2      1177        51      1178      1343
 -1        21    3    0    1
 -2        41        71      1403      1930
 -1        22    3    0    1
 -2      1245       644      1976      2033
 -1        23    3    0    2
 -2       678       954       633       953
 -1        24    3    0    1
 -2       343      1717      1430       508
 -1        25    3    0    1
 -2       251      1828      1853      1033
 -1        26    3    0    1
 -2      1528      1511      1606      1761
 -1        27    3    0    1
 -2      1410      1354      1669      1722
 -1        28    3    0    1
 -2       284      1426      1583      1598
 -1        29    3    0    1
 -2       665      1598      1769      1902
 -1        30    3    0    1
 -2      1655       551      1157      1966
 -1        31    3    0    1
 -2      1402      1482      1509      1851
 -1        32    3    0    1
 -2        14        50       324      1581
 -1        33    3    0    1
 -2        78       463       531      1760
 -1        34    3    0    1
 -2       116        51      1556      1178
 -1        35    3    0    1
 -2      1596      1500      1819      1838
 -1        36    3    0    1
 -2      1375      1391      1405      1505
 -1        37    3    0    1
 -2      1422      1570      1635      1801
 -1        38    3    0    2
 -2       778       394       777      1024
 -1        39    3    0    1
 -2      1433       328      1546      1648
 -1        40    3    0    1
 -2        59      1531      1540      1613
 -1        41    3    0    1
 -2      1462      1527      1578      1817
 -1        42    3    0    1
 -2       452         5      1524      1644
 -1        43    3    0    2
 -2       653      1182       722       719
 -1        44    3    0    2
 -2       419      1002       672       827
 -1        45    3    0    1
 -2       460       206      1452      1532
 -1        46    3    0    1
 -2       185      1535      1940      1987
 -1        47    3    0    1
 -2      1490      1435      1563      1685
 -1        48    3    0    1
 -2       206       459      1452      1532
 -1        49    3    0    1
 -2      1668      1803      1969      2035
 -1        50    3    0    1
 -2      1386      1350      1427      1719
 -1        51    3    0    1
 -2      1325        59      2053      2054
 -1        52    3    0    1
 -2       459       205       458      1532
 -1        53    3    0    2
 -2       893       411      1261      1262
 -1        54    3    0    1
 -2      1435      1563      1805      1892
 -1        55    3    0    2
 -2       788      1226       792       398
 -1        56    3    0    1
 -2      1347      1358      1515      1788
 -1        57    3    0    1
 -2      1476      1643      1836      1862
 -1        58    3    0    2
 -2       761      1284       766       631
 -1        59    3    0    2
 -2       686       647       753      1025
 -1        60    3    0    1
 -2      1543      1689      2012      2059
 -1        61    3    0    2
 -2       999       648       845      1000
 -1        62    3    0    2
 -2       822       428       824       852
 -1        63    3    0    1
 -2       195       196      1737      1801
 -1        64    3    0    1
 -2      1399      1363      1578      1585
 -1        65    3    0    2
 -2       833      1220       834       697
 -1        66    3    0    1
 -2       225       253      1408      1550
 -1        67    3    0    1
 -2      1605      1902      1952      1973
 -1        68    3    0    2
 -2       905       429       855       906
 -1        69    3    0    1
 -2      1378      1582      1591      1661
 -1        70    3    0    2
 -2       849      1238       265       850
 -1        71    3    0    1
 -2      1371      1382      1506      1643
 -1        72    3    0    1
 -2       324       445      1581      1881
 -1        73    3    0    1
 -2      1396      1587      1612      1631
 -1        74    3    0    1
 -2      1669      1647      1709      1878
 -1        75    3    0    1
 -2       375      1704      1994      2019
 -1        76    3    0    1
 -2       626      1406      1617      1641
 -1        77    3    0    1
 -2        17       510        82      1534
 -1        78    3    0    1
 -2       339       552      1515      1549
 -1        79    3    0    1
 -2       231       256      1664      1699
 -1        80    3    0    1
 -2      1406       388      1641       851
 -1        81    3    0    1
 -2       372      1407      1839      1049
 -1        82    3    0    1
 -2      1384      1398      1461      1483
 -1        83    3    0    1
 -2      1729      1491      1742      2013
 -1        84    3    0    1
 -2      1678      1496      1683      1799
 -1        85    3    0    2
 -2       812       432       671      1158
 -1        86    3    0    1
 -2       248      1153      1029      1916
 -1        87    3    0    1
 -2      1392      1428      1720      2054
 -1        88    3    0    1
 -2      1639      1357      1711      1727
 -1        89    3    0    1
 -2      1399      1363      1408      1578
 -1        90    3    0    1
 -2      1679      1359      1764      1883
 -1        91    3    0    1
 -2      1351      1383      1487      1788
 -1        92    3    0    1
 -2      1442      1423      1618      1728
 -1        93    3    0    2
 -2       383      1280       955      1279
 -1        94    3    0    1
 -2      1369      1621      1354      1504
 -1        95    3    0    1
 -2      1526      1607       919      1269
 -1        96    3    0    1
 -2      1889      1477      1948      1965
 -1        97    3    0    1
 -2      1436      1724      1787      1923
 -1        98    3    0    2
 -2       744      1196       408       748
 -1        99    3    0    1
 -2       524      1557       889       939
 -1       100    3    0    1
 -2       366      1828      1871       887
 -1       101    3    0    1
 -2       357       332      1644      1873
 -1       102    3    0    1
 -2      1809       260      1912      1237
 -1       103    3    0    2
 -2       517      1304       365      1303
 -1       104    3    0    1
 -2      1416      1369      1504      1621
 -1       105    3    0    1
 -2      1762      1696      1832      1881
 -1       106    3    0    1
 -2       679       415      1771       864
 -1       107    3    0    1
 -2       408      1195      1475       685
 -1       108    3    0    1
 -2      1874       649      1919      1249
 -1       109    3    0    2
 -2       286      1108       284      1107
 -1       110    3    0    1
 -2      1398      1384      1461      1502
 -1       111    3    0    2
 -2       642       982       981       399
 -1       112    3    0    1
 -2       272       210      1433      1458
 -1       113    3    0    1
 -2       327       483      1448      1862
 -1       114    3    0    1
 -2      1637       275       855      1936
 -1       115    3    0    1
 -2      1428      1392      2053      2054
 -1       116    3    0    2
 -2       645      1034       404      1033
 -1       117    3    0    1
 -2       266      1013       276      1913
 -1       118    3    0    2
 -2      1082       981       363       982
 -1       119    3    0    1
 -2      1587      1580      1612      1702
 -1       120    3    0    1
 -2       402       643      1677      1860
 -1       121    3    0    2
 -2       837       902       242       901
 -1       122    3    0    1
 -2      1688      1776      1898      1910
 -1       123    3    0    1
 -2       418      1241       949      1841
 -1       124    3    0    1
 -2       688       415      1633      1194
 -1       125    3    0    2
 -2       370      1020      1019      1306
 -1       126    3    0    2
 -2       721       652       724       985
 -1       127    3    0    1
 -2       456         7      1759      1814
 -1       128    3    0    2
 -2       734      1326      1159       650
 -1       129    3    0    1
 -2      1714      1510      1755      1896
 -1       130    3    0    1
 -2        13        68      1493      1743
 -1       131    3    0    1
 -2       230       353      1627      1703
 -1       132    3    0    1
 -2       381      1542      1546      1648
 -1       133    3    0    1
 -2      1513      1416      1521      1700
 -1       134    3    0    1
 -2        92        91       328      1546
 -1       135    3    0    1
 -2       515       352      1590      1783
 -1       136    3    0    1
 -2       689       636      1576      1009
 -1       137    3    0    1
 -2       657       421      1659      1011
 -1       138    3    0    1
 -2      1474       247       854      1255
 -1       139    3    0    1
 -2      1473      1347      1515      1788
 -1       140    3    0    1
 -2       953       497      1167      2039
 -1       141    3    0    1
 -2       506      1568      1835       868
 -1       142    3    0    1
 -2      1387        43      1479      1523
 -1       143    3    0    2
 -2       652       721       724       857
 -1       144    3    0    1
 -2       399      1251      1916       642
 -1       145    3    0    2
 -2       406      1305      1019      1306
 -1       146    3    0    1
 -2      1439       433       998      1121
 -1       147    3    0    1
 -2      1519        26      1691      1804
 -1       148    3    0    2
 -2       789      1310      1027       400
 -1       149    3    0    1
 -2       552      1358      1530      1549
 -1       150    3    0    1
 -2      1868      1223       700      2011
 -1       151    3    0    1
 -2      1679      1447      1735      1745
 -1       152    3    0    1
 -2      1139      1622      1949      2025
 -1       153    3    0    1
 -2      1688      1404      1776      1910
 -1       154    3    0    1
 -2      1720      1715       970      1622
 -1       155    3    0    1
 -2      1626      1539      1642      1707
 -1       156    3    0    2
 -2       688      1112       409      1111
 -1       157    3    0    1
 -2      1465        37      1705      1891
 -1       158    3    0    2
 -2       684      1228       394      1227
 -1       159    3    0    1
 -2      1416      1369      1621      1625
 -1       160    3    0    1
 -2      1497        69      1541      1632
 -1       161    3    0    2
 -2       419       425       873       874
 -1       162    3    0    1
 -2      1656      1964      1313      2034
 -1       163    3    0    2
 -2       384      1072       615       852
 -1       164    3    0    2
 -2       542       962       961       379
 -1       165    3    0    2
 -2       760      1168       765       633
 -1       166    3    0    2
 -2       583      1168       497       584
 -1       167    3    0    1
 -2       205       459       206      1532
 -1       168    3    0    1
 -2      1539       182      1642      1983
 -1       169    3    0    1
 -2      1929       241      1041      1934
 -1       170    3    0    2
 -2       673       396       771       897
 -1       171    3    0    1
 -2       701       697      1914      2050
 -1       172    3    0    1
 -2       415      1771      1125      2019
 -1       173    3    0    1
 -2      1440      1449      1460      1544
 -1       174    3    0    1
 -2      1436      1500      1724      1876
 -1       175    3    0    1
 -2      1446       627      1681      1329
 -1       176    3    0    2
 -2       798       868       801       437
 -1       177    3    0    1
 -2      1809      1624       845      1972
 -1       178    3    0    1
 -2      1769      1517      2015      2045
 -1       179    3    0    1
 -2       489       228       351      1481
 -1       180    3    0    2
 -2       745       412       742       850
 -1       181    3    0    1
 -2        41        71      1658      1753
 -1       182    3    0    1
 -2       467        91        92      1648
 -1       183    3    0    2
 -2       305      1174       241       306
 -1       184    3    0    1
 -2      1480      1552      1657      1747
 -1       185    3    0    1
 -2      1641      1617      1337      2052
 -1       186    3    0    1
 -2      1501      1518      1566      1766
 -1       187    3    0    2
 -2      1119       126      1120      1340
 -1       188    3    0    1
 -2      1366      1362      1462      1604
 -1       189    3    0    1
 -2      1389      1362      1534      1663
 -1       190    3    0    1
 -2       537       210       328      1433
 -1       191    3    0    2
 -2      1278       654       947      1277
 -1       192    3    0    1
 -2      1523      1527      1585      1623
 -1       193    3    0    1
 -2        77       439      1382      1537
 -1       194    3    0    1
 -2      1710       677      1846      1915
 -1       195    3    0    1
 -2      1714      1468      2044      1755
 -1       196    3    0    1
 -2      1425      1388      1665      1869
 -1       197    3    0    1
 -2       385       545      1507       878
 -1       198    3    0    1
 -2       528      1183       539      1899
 -1       199    3    0    2
 -2       643      1018      1017       402
 -1       200    3    0    1
 -2      1511       174      1569      1577
 -1       201    3    0    1
 -2       507      1602      1682      1717
 -1       202    3    0    2
 -2      1039      1312       409      1311
 -1       203    3    0    1
 -2       199       200      1513      1521
 -1       204    3    0    1
 -2      1449      1460      1544      1813
 -1       205    3    0    1
 -2       697      1914      1219      1241
 -1       206    3    0    1
 -2       538       212       330      1542
 -1       207    3    0    1
 -2      1394      1445      1696      1781
 -1       208    3    0    2
 -2       632      1130       764       763
 -1       209    3    0    1
 -2       251      1829      1833      1101
 -1       210    3    0    2
 -2       494       884       361       883
 -1       211    3    0    1
 -2      1459       153      1677      1877
 -1       212    3    0    1
 -2      1576      1557      1009      1999
 -1       213    3    0    1
 -2      1639      1731      1816      1826
 -1       214    3    0    1
 -2      1377      1400      1563      1570
 -1       215    3    0    1
 -2       665      1902      1205      1952
 -1       216    3    0    1
 -2       626      1641      1337      2052
 -1       217    3    0    1
 -2      1408       253      1441      1550
 -1       218    3    0    2
 -2       804       435      1063      1320
 -1       219    3    0    2
 -2       685      1196       408      1195
 -1       220    3    0    1
 -2       422      1485      1890       835
 -1       221    3    0    1
 -2      1452       460      1532      1819
 -1       222    3    0    1
 -2       212       538       273      1542
 -1       223    3    0    1
 -2       367        89       476      1408
 -1       224    3    0    1
 -2      1482      1455      1523      1585
 -1       225    3    0    2
 -2       383       529      1093      1094
 -1       226    3    0    1
 -2      1468      1445      1584      2030
 -1       227    3    0    1
 -2      1347      1416      1504      1621
 -1       228    3    0    2
 -2      1117      1128       690      1127
 -1       229    3    0    1
 -2       550       335      1381      1553
 -1       230    3    0    1
 -2       690       695      1640       872
 -1       231    3    0    1
 -2      1407       416      1875       840
 -1       232    3    0    1
 -2       253       512      1441      1550
 -1       233    3    0    1
 -2      1506      1476      1643      1836
 -1       234    3    0    1
 -2       673       396      1599      1143
 -1       235    3    0    1
 -2      1499      1476      1888      1924
 -1       236    3    0    1
 -2        19        83      1611      1783
 -1       237    3    0    1
 -2       263      1863      1919       862
 -1       238    3    0    1
 -2        85        22       369      1664
 -1       239    3    0    2
 -2       819      1109       972       430
 -1       240    3    0    1
 -2      1360      1490      1514      1614
 -1       241    3    0    1
 -2       221       556       473      1597
 -1       242    3    0    1
 -2      1450      1713      1737      1763
 -1       243    3    0    1
 -2       125        35      1771      1815
 -1       244    3    0    1
 -2      1510      1484      1831      1867
 -1       245    3    0    1
 -2       261      1857      1874      1263
 -1       246    3    0    1
 -2      1435      1377      1563      1892
 -1       247    3    0    1
 -2      1736       260      1912       894
 -1       248    3    0    2
 -2       287      1256       247      1255
 -1       249    3    0    2
 -2       695      1118       690      1117
 -1       250    3    0    1
 -2      1682       474      1717      1738
 -1       251    3    0    1
 -2      1636       365      1017      2004
 -1       252    3    0    1
 -2       681       437      1835       868
 -1       253    3    0    1
 -2      1374       137      1136      1253
 -1       254    3    0    2
 -2       141      1218      1023      1217
 -1       255    3    0    1
 -2      1415      1385      1516      1553
 -1       256    3    0    1
 -2      1722      1411      1793      2029
 -1       257    3    0    1
 -2       624       420      1886      2006
 -1       258    3    0    1
 -2      1440      1690      1812      1821
 -1       259    3    0    1
 -2      1624      1840       845      1972
 -1       260    3    0    1
 -2       230      1400      1514      1627
 -1       261    3    0    1
 -2       184       115      1645      1087
 -1       262    3    0    1
 -2       557       221       342      1602
 -1       263    3    0    1
 -2      1350      1386      1544      1813
 -1       264    3    0    1
 -2      1676       702      1137      1982
 -1       265    3    0    1
 -2        54      1633      1645      1815
 -1       266    3    0    1
 -2      1758       633       837       901
 -1       267    3    0    1
 -2      1444      1457      1493      1743
 -1       268    3    0    1
 -2      1509      1482      1694      1851
 -1       269    3    0    2
 -2       760       902       633       765
 -1       270    3    0    1
 -2      1890       422      1211      1983
 -1       271    3    0    1
 -2      1384      1349      1452      1483
 -1       272    3    0    1
 -2      1522      1443      1730      1980
 -1       273    3    0    1
 -2      1759         7       500      1814
 -1       274    3    0    1
 -2      1370       156      1807      2046
 -1       275    3    0    2
 -2       636       927       928      1171
 -1       276    3    0    1
 -2      1398      1461      1483      1719
 -1       277    3    0    2
 -2       763      1135       764       632
 -1       278    3    0    1
 -2       368        20       477      1550
 -1       279    3    0    1
 -2      1371      1352      1420      1506
 -1       280    3    0    1
 -2         8       460      1596      1819
 -1       281    3    0    1
 -2      1736       623      1235      2005
 -1       282    3    0    1
 -2       503         9        40      1551
 -1       283    3    0    1
 -2      1357      1727      1731      1753
 -1       284    3    0    2
 -2      1060      1096       420      1059
 -1       285    3    0    1
 -2        33       187      1677      1848
 -1       286    3    0    2
 -2       849      1238      1237       265
 -1       287    3    0    2
 -2       313       910       284       870
 -1       288    3    0    1
 -2      1598       434      1825       869
 -1       289    3    0    2
 -2       730       421       717      1076
 -1       290    3    0    1
 -2       431       705      1526      1650
 -1       291    3    0    1
 -2       458         9       459      1532
 -1       292    3    0    1
 -2      1457      1444      1493      1566
 -1       293    3    0    1
 -2      1560      1613      1673      1806
 -1       294    3    0    1
 -2       384       388      1406       851
 -1       295    3    0    1
 -2      1582      1413      1604      2048
 -1       296    3    0    1
 -2      1384      1461      1502      1562
 -1       297    3    0    2
 -2       301      1230       900       242
 -1       298    3    0    1
 -2      1776      1404      1831      1910
 -1       299    3    0    1
 -2       434       665      1598      1769
 -1       300    3    0    1
 -2      1376      1395      1472      1542
 -1       301    3    0    1
 -2      1433       272      1458      1546
 -1       302    3    0    1
 -2      1514      1360      1614      1735
 -1       303    3    0    1
 -2       389      1768       923      1187
 -1       304    3    0    1
 -2      1571       640      1897      1103
 -1       305    3    0    1
 -2      1575      1509      1611      1795
 -1       306    3    0    1
 -2      1658        71      1930      2047
 -1       307    3    0    1
 -2       439      1382      1537      1836
 -1       308    3    0    1
 -2      1522      1730      1904      1931
 -1       309    3    0    1
 -2      1645       106      1748      1778
 -1       310    3    0    1
 -2        11       536        93      1588
 -1       311    3    0    1
 -2       350       513      1575      1795
 -1       312    3    0    1
 -2      1485      1539      1887      1983
 -1       313    3    0    2
 -2       981      1082       363      1081
 -1       314    3    0    2
 -2       676      1330       627       769
 -1       315    3    0    1
 -2        14       324       445      1581
 -1       316    3    0    1
 -2      1515      1347      1521      1549
 -1       317    3    0    1
 -2      1611      1594      1783      1795
 -1       318    3    0    1
 -2       675       407      1872      1922
 -1       319    3    0    1
 -2       461       533      1580      1760
 -1       320    3    0    1
 -2       182       183      1368      1626
 -1       321    3    0    1
 -2       363       509      1646      1083
 -1       322    3    0    1
 -2      1675      1554      1798      1937
 -1       323    3    0    1
 -2      1470        65      1613      1806
 -1       324    3    0    2
 -2       541       530       915       916
 -1       325    3    0    1
 -2       491       226       238      1734
 -1       326    3    0    1
 -2      1438      1470      1613      1806
 -1       327    3    0    2
 -2      1113       393      1041      1114
 -1       328    3    0    1
 -2      1355      1790      1026      1981
 -1       329    3    0    1
 -2       622       398      1842       979
 -1       330    3    0    1
 -2      1711      1653      1791      1894
 -1       331    3    0    1
 -2      1470      1438      1560      1806
 -1       332    3    0    1
 -2      1653      1711      1733      1894
 -1       333    3    0    1
 -2        70        81       472      1553
 -1       334    3    0    1
 -2       200      1513      1521      1700
 -1       335    3    0    2
 -2        95      1290       985        64
 -1       336    3    0    2
 -2       158       988      1291      1292
 -1       337    3    0    1
 -2      2017      1388      2036      1606
 -1       338    3    0    1
 -2      1347      1513      1521      1549
 -1       339    3    0    1
 -2      1505       183      1626      1732
 -1       340    3    0    1
 -2      1880      1520      1942      1267
 -1       341    3    0    1
 -2       511       346      1408      1462
 -1       342    3    0    1
 -2       556       221       288      1597
 -1       343    3    0    1
 -2       465       210      1458      1588
 -1       344    3    0    1
 -2      1505      1742      1884      1888
 -1       345    3    0    1
 -2      1434      1417      1536      1688
 -1       346    3    0    1
 -2       490      1627      1703      1740
 -1       347    3    0    1
 -2      1183      1868       700      2011
 -1       348    3    0    1
 -2      1366      1462      1534      1663
 -1       349    3    0    1
 -2       512        48      1441      1550
 -1       350    3    0    1
 -2       250      1692      1916      1251
 -1       351    3    0    1
 -2      1416      1369      1625      1700
 -1       352    3    0    1
 -2       411      1736       894      1261
 -1       353    3    0    1
 -2       666       639      1928      1213
 -1       354    3    0    1
 -2      1425       430      1665      2017
 -1       355    3    0    2
 -2       160      1272        41       926
 -1       356    3    0    2
 -2       397       401       931       932
 -1       357    3    0    1
 -2       385      1425      1665      1716
 -1       358    3    0    1
 -2       108      1748      1778      1900
 -1       359    3    0    1
 -2        22        85      1590      1664
 -1       360    3    0    1
 -2      1389        17      1430      1534
 -1       361    3    0    2
 -2      1004        71       167      1300
 -1       362    3    0    2
 -2       804       435       709       963
 -1       363    3    0    1
 -2      1354      1410      1504      2051
 -1       364    3    0    1
 -2       220       523       262      1901
 -1       365    3    0    1
 -2       515        22        85      1590
 -1       366    3    0    1
 -2       388      1406      1641      1650
 -1       367    3    0    1
 -2      1350      1449      1453      1813
 -1       368    3    0    1
 -2       275      1637       938      1936
 -1       369    3    0    2
 -2       525       535       871       872
 -1       370    3    0    1
 -2        90        89       367      1408
 -1       371    3    0    1
 -2       212       381       467      1648
 -1       372    3    0    2
 -2      1234      1077       640      1078
 -1       373    3    0    1
 -2      1450      1414      1699      1713
 -1       374    3    0    1
 -2       259      1263      1840       261
 -1       375    3    0    1
 -2      1805        47      1872      2055
 -1       376    3    0    1
 -2      1621      1369      1354      1625
 -1       377    3    0    1
 -2       487        14       336      1581
 -1       378    3    0    2
 -2       662      1004       818       813
 -1       379    3    0    1
 -2       473      1593      1597      1700
 -1       380    3    0    2
 -2       743       410       416      1089
 -1       381    3    0    1
 -2       636       689      1576       928
 -1       382    3    0    1
 -2      1451      1593      1602      1682
 -1       383    3    0    2
 -2       997       166      1121      1122
 -1       384    3    0    1
 -2      1391      1505      1732      1884
 -1       385    3    0    1
 -2      1459      1465      1711      1848
 -1       386    3    0    1
 -2       398      1773      1842      1225
 -1       387    3    0    1
 -2      1456      1461      1494      1562
 -1       388    3    0    1
 -2      1441      1482      1509      1575
 -1       389    3    0    1
 -2      1447      1495      1745      1812
 -1       390    3    0    1
 -2       459         9      1452      1532
 -1       391    3    0    1
 -2      1417      1434      1595      1688
 -1       392    3    0    2
 -2      1232      1033       251      1034
 -1       393    3    0    1
 -2      1464       706      1947      1998
 -1       394    3    0    1
 -2        40         9       458      1532
 -1       395    3    0    1
 -2      1394      1500      1832      1901
 -1       396    3    0    1
 -2       135      1447      1495      1745
 -1       397    3    0    1
 -2      1391      1476      1505      1884
 -1       398    3    0    1
 -2      1488      1422      1635      1801
 -1       399    3    0    1
 -2       477       368      1550      1575
 -1       400    3    0    1
 -2      1435      1377      1490      1563
 -1       401    3    0    1
 -2        39       185      1456      1461
 -1       402    3    0    2
 -2      1312      1039       409      1040
 -1       403    3    0    1
 -2       209       464      1448      1519
 -1       404    3    0    1
 -2      1596      1500      1838      1876
 -1       405    3    0    1
 -2      1460      1440      1544      1690
 -1       406    3    0    2
 -2       846       520       845      1000
 -1       407    3    0    1
 -2       168        69      1808      1121
 -1       408    3    0    2
 -2       266      1182       289       290
 -1       409    3    0    1
 -2      1810      1730      1874       999
 -1       410    3    0    1
 -2       534       208       326      1612
 -1       411    3    0    1
 -2      1388       382      1425      1095
 -1       412    3    0    1
 -2      1666       651      1774      1273
 -1       413    3    0    1
 -2       210      1433      1458      1588
 -1       414    3    0    1
 -2      1455      1387      1479      1523
 -1       415    3    0    2
 -2       394       777      1024      1217
 -1       416    3    0    1
 -2      1794      1620      1962      1976
 -1       417    3    0    1
 -2      1577      1395      1634      1761
 -1       418    3    0    1
 -2      1434      1346      1536      1540
 -1       419    3    0    1
 -2      1438      1560      1579      1707
 -1       420    3    0    1
 -2        48      1441      1550      1575
 -1       421    3    0    1
 -2      1450      1414      1590      1664
 -1       422    3    0    2
 -2       275      1337       937       938
 -1       423    3    0    1
 -2      1640       695      1667      1749
 -1       424    3    0    1
 -2      1357      1639      1652      1731
 -1       425    3    0    2
 -2       517      1036       365       597
 -1       426    3    0    1
 -2       641      1442      1618       942
 -1       427    3    0    1
 -2      1554      1675      1694      1851
 -1       428    3    0    1
 -2      1465      1459      1882      1891
 -1       429    3    0    1
 -2        49      1675      1683      1799
 -1       430    3    0    1
 -2      1351      1487      1530      1788
 -1       431    3    0    2
 -2       191       175       172       971
 -1       432    3    0    1
 -2      1353      1447      1735      1786
 -1       433    3    0    2
 -2       631      1120       761      1340
 -1       434    3    0    1
 -2      1639      1357      1727      1731
 -1       435    3    0    1
 -2      1638       678      1758      2039
 -1       436    3    0    1
 -2       203       204      1429      1672
 -1       437    3    0    2
 -2      1182       266       289      1224
 -1       438    3    0    2
 -2      1003      1300      1004       705
 -1       439    3    0    1
 -2       259      1263      1141      1840
 -1       440    3    0    1
 -2       460       205       206      1532
 -1       441    3    0    1
 -2      1598       665      1630      1902
 -1       442    3    0    1
 -2      1325      1531      2038      2053
 -1       443    3    0    1
 -2       221       342      1602      1682
 -1       444    3    0    1
 -2       505      1897       929      1103
 -1       445    3    0    2
 -2       638       900       630       899
 -1       446    3    0    2
 -2       419       827       672       873
 -1       447    3    0    1
 -2      1357      1711      1791      1894
 -1       448    3    0    1
 -2      1423       399      1830      1081
 -1       449    3    0    1
 -2      1518      1538      1569      1628
 -1       450    3    0    1
 -2      1831       216      1867      1910
 -1       451    3    0    1
 -2       415      1633      1771      2019
 -1       452    3    0    1
 -2       216       234      1867      1910
 -1       453    3    0    1
 -2       488        27       469      1921
 -1       454    3    0    1
 -2      1353       135      1447      1786
 -1       455    3    0    1
 -2      1426       708      1849      1107
 -1       456    3    0    2
 -2       428      1337       938       937
 -1       457    3    0    2
 -2       688      1312       409       747
 -1       458    3    0    1
 -2      1441      1509      1550      1575
 -1       459    3    0    2
 -2       647       686       753       903
 -1       460    3    0    1
 -2      1390      1498      1541      1784
 -1       461    3    0    1
 -2        44        47      1397      1765
 -1       462    3    0    1
 -2        46        23      1570      1801
 -1       463    3    0    2
 -2       499       954       953       497
 -1       464    3    0    2
 -2       403      1102       784       669
 -1       465    3    0    1
 -2      1833       403       683      1101
 -1       466    3    0    2
 -2       113      1090      1089      1087
 -1       467    3    0    2
 -2       372      1050       570      1236
 -1       468    3    0    1
 -2      1355       520      1972      1307
 -1       469    3    0    2
 -2      1305       370      1019      1306
 -1       470    3    0    1
 -2      1358      1515      1530      1549
 -1       471    3    0    1
 -2       522       375      1994      2019
 -1       472    3    0    2
 -2       575      1000       520       846
 -1       473    3    0    1
 -2      1416      1513      1662      1700
 -1       474    3    0    2
 -2       967      1016       106       968
 -1       475    3    0    1
 -2      1771       634      1864       907
 -1       476    3    0    1
 -2       394      1227      1547       684
 -1       477    3    0    1
 -2      1396        93      1458      1588
 -1       478    3    0    1
 -2      1364      1454      1678      1683
 -1       479    3    0    1
 -2      1384      1349      1461      1562
 -1       480    3    0    1
 -2      1424      1433      1615      1629
 -1       481    3    0    1
 -2       352        22      1590      1664
 -1       482    3    0    1
 -2       701      1914      1241      2050
 -1       483    3    0    1
 -2       428      1406       851      1071
 -1       484    3    0    2
 -2       542       912       379       911
 -1       485    3    0    2
 -2       655      1302      1301      1005
 -1       486    3    0    1
 -2       548       546      1464      1650
 -1       487    3    0    1
 -2       184        72      1645      1652
 -1       488    3    0    1
 -2       660      1271       925      1930
 -1       489    3    0    2
 -2       902       837       633       901
 -1       490    3    0    1
 -2      1607      1859      1071      1935
 -1       491    3    0    1
 -2      1417      1434      1536      1540
 -1       492    3    0    1
 -2      1369      1593      1625      1700
 -1       493    3    0    1
 -2       474       222      1717      1738
 -1       494    3    0    1
 -2       417      1013       859      1913
 -1       495    3    0    1
 -2      1398      1367      1461      1719
 -1       496    3    0    1
 -2      1401      1496      1678      1837
 -1       497    3    0    1
 -2       647       904      1265      1981
 -1       498    3    0    1
 -2        60      1478      1775      1886
 -1       499    3    0    1
 -2      1451      1431      1608      1738
 -1       500    3    0    1
 -2       447       448      1521      1549
 -1       501    3    0    1
 -2      1595      1540      1752      2053
 -1       502    3    0    1
 -2      1610      1480      2007      2058
 -1       503    3    0    1
 -2       666      1605      1849      1850
 -1       504    3    0    2
 -2      1195       408       865      1196
 -1       505    3    0    2
 -2       911      1076       542       912
 -1       506    3    0    1
 -2       541      1914      1219      2028
 -1       507    3    0    1
 -2      1666       264      1667      1127
 -1       508    3    0    1
 -2      1915      1710      1175      2021
 -1       509    3    0    1
 -2      1349      1384      1461      1483
 -1       510    3    0    1
 -2       358       226       349      1361
 -1       511    3    0    1
 -2       268       207      1866      1920
 -1       512    3    0    1
 -2      1360      1353      1614      1735
 -1       513    3    0    1
 -2      1652      1639      1791      1894
 -1       514    3    0    1
 -2       503        40      1483      1551
 -1       515    3    0    1
 -2      1589      1651      1823      2057
 -1       516    3    0    1
 -2      1390      1351      1487      1541
 -1       517    3    0    1
 -2      1520       633       901      1978
 -1       518    3    0    1
 -2      1524      1644      1824      1870
 -1       519    3    0    1
 -2      1605      1630      1849      1107
 -1       520    3    0    1
 -2      1413      1366      1462      1604
 -1       521    3    0    1
 -2       221       288      1597      1602
 -1       522    3    0    1
 -2      1731      1639      1748      1826
 -1       523    3    0    1
 -2       215       333      1567      1743
 -1       524    3    0    1
 -2      1377      1422      1570      1635
 -1       525    3    0    1
 -2      1515       552      1530      1549
 -1       526    3    0    1
 -2        84       516      1699      1737
 -1       527    3    0    1
 -2      1347      1416      1515      1521
 -1       528    3    0    1
 -2      1436      1409      1443      1494
 -1       529    3    0    2
 -2       397       931      1221      1222
 -1       530    3    0    1
 -2      1369      1354      1625      1878
 -1       531    3    0    1
 -2      1594      1611      1783      1856
 -1       532    3    0    2
 -2       305      1114       241      1042
 -1       533    3    0    1
 -2      1771       679       864      1323
 -1       534    3    0    2
 -2       759       713       636       927
 -1       535    3    0    1
 -2         5       357       332      1644
 -1       536    3    0    1
 -2       909       286      1630      1952
 -1       537    3    0    1
 -2      1411      1722      1960      2029
 -1       538    3    0    1
 -2      1750      1470      1861      1887
 -1       539    3    0    1
 -2      1470      1438      1539      1560
 -1       540    3    0    2
 -2       692       850       412       849
 -1       541    3    0    1
 -2      1469      1394      1696      1781
 -1       542    3    0    1
 -2       632      1374      1864      1136
 -1       543    3    0    2
 -2       626       852       428       851
 -1       544    3    0    2
 -2      1140      1051       413      1139
 -1       545    3    0    1
 -2      1611        83       350      1795
 -1       546    3    0    2
 -2      1274       933       423      1273
 -1       547    3    0    1
 -2       426       427      1607       919
 -1       548    3    0    1
 -2       482       232      1525      1565
 -1       549    3    0    1
 -2      1404      1484      1533      1776
 -1       550    3    0    1
 -2        69       168      1497      1541
 -1       551    3    0    1
 -2      1381      1415      1516      1553
 -1       552    3    0    1
 -2        80        86       338      1381
 -1       553    3    0    1
 -2      1351      1358      1383      1788
 -1       554    3    0    1
 -2      1452      1384      1483      1551
 -1       555    3    0    1
 -2      1489      1749      1887      1984
 -1       556    3    0    1
 -2      1596      1838      1845      1876
 -1       557    3    0    1
 -2       193       194      1537      1643
 -1       558    3    0    1
 -2      1630      1605      1850      1107
 -1       559    3    0    1
 -2       277      1676      1695       960
 -1       560    3    0    1
 -2       369        22       481      1664
 -1       561    3    0    1
 -2      1400      1360      1514      1627
 -1       562    3    0    1
 -2      1602      1431      1682      1717
 -1       563    3    0    1
 -2       957       653      1868      1989
 -1       564    3    0    1
 -2       531       463      1612      1760
 -1       565    3    0    2
 -2       563       379       565       962
 -1       566    3    0    1
 -2         8       374        55      1819
 -1       567    3    0    1
 -2      1518       191      1538      1628
 -1       568    3    0    1
 -2      1444      1432      1553      1567
 -1       569    3    0    1
 -2      1494      1409      1562      1845
 -1       570    3    0    2
 -2       535       525       567      1161
 -1       571    3    0    1
 -2      2018       666      1928      1849
 -1       572    3    0    1
 -2       165       192      1658      1753
 -1       573    3    0    1
 -2       217       550       282      1553
 -1       574    3    0    1
 -2       393      1603      1041      1934
 -1       575    3    0    1
 -2      1367      1398      1461      1502
 -1       576    3    0    1
 -2      1488      1635      1893      1925
 -1       577    3    0    1
 -2      1373      1617      1855      1953
 -1       578    3    0    1
 -2       211       232      1525      1804
 -1       579    3    0    1
 -2      1351      1415      1487      1516
 -1       580    3    0    1
 -2       274       267      1471      1277
 -1       581    3    0    1
 -2        49      1675      1799      1834
 -1       582    3    0    1
 -2       361      1721       883      1978
 -1       583    3    0    1
 -2       364      1636      1842       979
 -1       584    3    0    1
 -2      1350      1427      1460      1544
 -1       585    3    0    2
 -2       554       390       963       964
 -1       586    3    0    2
 -2       274      1278       267      1277
 -1       587    3    0    1
 -2        17       343      1389      1430
 -1       588    3    0    2
 -2       498       586       493      1163
 -1       589    3    0    2
 -2       801       868       867      1333
 -1       590    3    0    1
 -2      1926      1181      1950      1951
 -1       591    3    0    1
 -2      1518      1538      1545      1569
 -1       592    3    0    1
 -2      1353      1490      1685      1786
 -1       593    3    0    1
 -2      1399      1482      1585      1694
 -1       594    3    0    1
 -2      1509      1402      1611      1795
 -1       595    3    0    1
 -2      1370      1378      1466      2046
 -1       596    3    0    1
 -2       407      1331      1872      1191
 -1       597    3    0    2
 -2       708      1108       661       803
 -1       598    3    0    1
 -2       462        77      1866      1920
 -1       599    3    0    1
 -2      1426      1849       879      1977
 -1       600    3    0    1
 -2      1571       710      1103      1115
 -1       601    3    0    1
 -2      1828       251      1833      1033
 -1       602    3    0    1
 -2       546       388      1641      1650
 -1       603    3    0    1
 -2       373      1777       970      1239
 -1       604    3    0    2
 -2       422       836       703       727
 -1       605    3    0    1
 -2      1478        60      1629      1718
 -1       606    3    0    1
 -2       660       662      1403      1003
 -1       607    3    0    1
 -2      1416      1347      1513      1521
 -1       608    3    0    1
 -2      1622       527      1777       970
 -1       609    3    0    1
 -2      1593      1451      1602      1878
 -1       610    3    0    2
 -2       993      1208      1207       663
 -1       611    3    0    1
 -2      1345        67      1907      1057
 -1       612    3    0    1
 -2      1681       493      1689      1329
 -1       613    3    0    2
 -2       702      1138       656      1137
 -1       614    3    0    1
 -2        39      1367      1508      1589
 -1       615    3    0    1
 -2      1651       504      1823       974
 -1       616    3    0    1
 -2       264      1666      1779      1127
 -1       617    3    0    2
 -2       506       602       392       941
 -1       618    3    0    2
 -2       301       902       242       838
 -1       619    3    0    2
 -2       702      1244       656       718
 -1       620    3    0    2
 -2       574      1286       576       371
 -1       621    3    0    1
 -2      1410      1722      1960      2051
 -1       622    3    0    1
 -2      1427       129      1460      1544
 -1       623    3    0    2
 -2       683       669       403      1287
 -1       624    3    0    2
 -2       377      1106       559       561
 -1       625    3    0    2
 -2       775      1294       407       989
 -1       626    3    0    1
 -2      1378      1362      1413      1604
 -1       627    3    0    1
 -2      1467      1412      1631      1657
 -1       628    3    0    2
 -2       966       883       395       884
 -1       629    3    0    2
 -2       788      1226       398       980
 -1       630    3    0    1
 -2      1381       335      1415      1553
 -1       631    3    0    1
 -2      1397        44      1555      1837
 -1       632    3    0    1
 -2      1424      1396      1588      1612
 -1       633    3    0    1
 -2       546      1650      1100      1155
 -1       634    3    0    2
 -2       973       631       974      1283
 -1       635    3    0    1
 -2      1477      1491      1729      1889
 -1       636    3    0    1
 -2      1397      1555      1713      1837
 -1       637    3    0    1
 -2      1852       399      1917       991
 -1       638    3    0    1
 -2      1736       411      1839      1049
 -1       639    3    0    1
 -2       199       447      1521      1549
 -1       640    3    0    1
 -2      1447      1360      1735      1786
 -1       641    3    0    1
 -2       430      1511      1665      2017
 -1       642    3    0    2
 -2       659       817       814      1061
 -1       643    3    0    2
 -2       735      1128       690      1118
 -1       644    3    0    2
 -2       382      1298       618       378
 -1       645    3    0    1
 -2        49       188      1554      1675
 -1       646    3    0    1
 -2       104       181      1826      2050
 -1       647    3    0    1
 -2      1592      1499      1888      1924
 -1       648    3    0    2
 -2       634       908       763       632
 -1       649    3    0    1
 -2      1448      1405      1519      1691
 -1       650    3    0    2
 -2       822      1338       824       428
 -1       651    3    0    1
 -2       848       666      1928      1213
 -1       652    3    0    1
 -2       650      1325      2038      2054
 -1       653    3    0    1
 -2      1568      1591      1618      1728
 -1       654    3    0    1
 -2       650       696      1750      1160
 -1       655    3    0    1
 -2      1388       382      1095      2006
 -1       656    3    0    1
 -2      1545      1395      1577      1909
 -1       657    3    0    1
 -2       228       489       237      1481
 -1       658    3    0    1
 -2      1467      1478      1631      1718
 -1       659    3    0    1
 -2      1350      1386      1427      1544
 -1       660    3    0    1
 -2        48        20       368      1550
 -1       661    3    0    1
 -2       264      1667       933      1273
 -1       662    3    0    1
 -2      1507       429       841       935
 -1       663    3    0    1
 -2      1557       635       889       939
 -1       664    3    0    1
 -2       267      1471      1843       921
 -1       665    3    0    1
 -2       174      1511      1110      2017
 -1       666    3    0    2
 -2       293      1274       294       264
 -1       667    3    0    1
 -2       447         4       448      1549
 -1       668    3    0    2
 -2       157       158      1291      1292
 -1       669    3    0    1
 -2      1456      1494      1535      1562
 -1       670    3    0    1
 -2      1525      1512      1626      1707
 -1       671    3    0    1
 -2       508        17        82      1430
 -1       672    3    0    1
 -2      1538       191      1569      1628
 -1       673    3    0    1
 -2      1753      1465      1882      1891
 -1       674    3    0    1
 -2       660      1403       925      1003
 -1       675    3    0    1
 -2        17       508       343      1430
 -1       676    3    0    1
 -2      1319       435      1674       709
 -1       677    3    0    1
 -2      1432       549      1516      1553
 -1       678    3    0    1
 -2      1449      1350      1460      1813
 -1       679    3    0    1
 -2      1460      1440      1690      1812
 -1       680    3    0    1
 -2      1548       257      1726      1231
 -1       681    3    0    1
 -2      1603      1929      1041      1934
 -1       682    3    0    1
 -2       197       444       198      1881
 -1       683    3    0    1
 -2        79       461      1580      1760
 -1       684    3    0    1
 -2       338       391      1381      1530
 -1       685    3    0    1
 -2       402       401      1636      1877
 -1       686    3    0    1
 -2      1396      1587      1588      1612
 -1       687    3    0    2
 -2       659       706      1061      1062
 -1       688    3    0    1
 -2      1414      1450      1555      1713
 -1       689    3    0    1
 -2       264      1666      1667      1774
 -1       690    3    0    2
 -2       654      1278       625      1277
 -1       691    3    0    1
 -2      1402      1509      1611      1851
 -1       692    3    0    1
 -2       330       212      1472      1542
 -1       693    3    0    1
 -2       444        53        76      1762
 -1       694    3    0    1
 -2      1351      1381      1415      1516
 -1       695    3    0    1
 -2      1512      1375      1525      1626
 -1       696    3    0    1
 -2      1461      1456      1502      1562
 -1       697    3    0    2
 -2       649      1250       756      1132
 -1       698    3    0    1
 -2      1580      1418      1702      1760
 -1       699    3    0    1
 -2       174       191      1569      1577
 -1       700    3    0    2
 -2       124      1194      1065      1193
 -1       701    3    0    1
 -2      1487      1385      1498      1541
 -1       702    3    0    1
 -2      1564       161      1571      1930
 -1       703    3    0    1
 -2       657      1659      1075      1965
 -1       704    3    0    1
 -2       502      1638      1782       864
 -1       705    3    0    1
 -2      1582      1959      1309      2048
 -1       706    3    0    1
 -2        70        81      1553      1567
 -1       707    3    0    1
 -2      1544       129      1690      1725
 -1       708    3    0    1
 -2       328       537      1433      1546
 -1       709    3    0    1
 -2       461        78       533      1760
 -1       710    3    0    2
 -2       601       362       598       980
 -1       711    3    0    1
 -2      1473      1347      1504      1621
 -1       712    3    0    1
 -2       230       492       480      1400
 -1       713    3    0    1
 -2      1406      1617      1935      1337
 -1       714    3    0    1
 -2        79        78       461      1760
 -1       715    3    0    2
 -2       591      1228       360       944
 -1       716    3    0    1
 -2      1819      1596      1838      1845
 -1       717    3    0    1
 -2       424      1015      1778       967
 -1       718    3    0    1
 -2      1351      1356      1390      1487
 -1       719    3    0    1
 -2       271       933      2031      2056
 -1       720    3    0    1
 -2      1414      1364      1678      1837
 -1       721    3    0    2
 -2       705      1156       813       662
 -1       722    3    0    1
 -2        62        67      1816      1907
 -1       723    3    0    1
 -2       552       219       339      1530
 -1       724    3    0    1
 -2      1378      1362      1604      1608
 -1       725    3    0    1
 -2       190      1356      1383      1492
 -1       726    3    0    1
 -2       276      1868      1913      2011
 -1       727    3    0    1
 -2       533      1418      1580      1760
 -1       728    3    0    1
 -2       205       460       457      1532
 -1       729    3    0    2
 -2       896       424       716      1248
 -1       730    3    0    1
 -2      1610      1480      1757      2007
 -1       731    3    0    1
 -2       207       462      1866      1920
 -1       732    3    0    2
 -2       663       994       432       993
 -1       733    3    0    1
 -2      1359      1745      1764      1812
 -1       734    3    0    1
 -2       710       640      1571      1103
 -1       735    3    0    1
 -2      1401      1555      1796      1837
 -1       736    3    0    1
 -2      1041       393      1934      1961
 -1       737    3    0    1
 -2      1721       396      1129      1143
 -1       738    3    0    1
 -2      1374       137      1572      1733
 -1       739    3    0    2
 -2       270      1012       292      1202
 -1       740    3    0    2
 -2       660      1166       806       983
 -1       741    3    0    1
 -2      1889       542       961      1958
 -1       742    3    0    2
 -2       149        33      1045      1046
 -1       743    3    0    1
 -2       401       397      1877       932
 -1       744    3    0    1
 -2       225       253       367      1408
 -1       745    3    0    1
 -2      1452      1483      1532      1551
 -1       746    3    0    1
 -2       641      1474      1973      2043
 -1       747    3    0    1
 -2       536       210       272      1458
 -1       748    3    0    2
 -2       666      1214       639      1213
 -1       749    3    0    1
 -2       426      1345      1057      1185
 -1       750    3    0    2
 -2        45       135       136       945
 -1       751    3    0    1
 -2        73      1473      1492      1504
 -1       752    3    0    2
 -2       243      1268       240      1267
 -1       753    3    0    1
 -2      1503       246      1908       899
 -1       754    3    0    2
 -2       650      1159      1160      1325
 -1       755    3    0    2
 -2       517      1036      1035       365
 -1       756    3    0    1
 -2      1659       421       911      1985
 -1       757    3    0    1
 -2         9       503       345      1551
 -1       758    3    0    1
 -2         2       516       354      1699
 -1       759    3    0    2
 -2       434       870       869       910
 -1       760    3    0    1
 -2      1355      1840       845       999
 -1       761    3    0    2
 -2       734      1328       738       650
 -1       762    3    0    1
 -2      1606      1615      1629      1854
 -1       763    3    0    2
 -2       417      1106       725       723
 -1       764    3    0    1
 -2       362       364      1842       979
 -1       765    3    0    2
 -2       627       676      1021      1022
 -1       766    3    0    1
 -2        32        18       454      1453
 -1       767    3    0    1
 -2      1493      1444      1567      1858
 -1       768    3    0    2
 -2       800       639       670      1031
 -1       769    3    0    1
 -2        43        42      1623      1028
 -1       770    3    0    1
 -2       362      1199      1636       364
 -1       771    3    0    2
 -2      1152      1083       400      1084
 -1       772    3    0    1
 -2       549       282      1516      1553
 -1       773    3    0    1
 -2       503       223       345      1551
 -1       774    3    0    2
 -2       728       655       731      1005
 -1       775    3    0    1
 -2      1730      1810      1874      1904
 -1       776    3    0    1
 -2      1633        54      1039      1311
 -1       777    3    0    2
 -2       360      1044      1043      1314
 -1       778    3    0    2
 -2       400      1027      1028      1309
 -1       779    3    0    1
 -2      1669       437      1960      2029
 -1       780    3    0    1
 -2       201       453       450      1870
 -1       781    3    0    1
 -2      1833      1963      1548       257
 -1       782    3    0    2
 -2       674      1306      1305       406
 -1       783    3    0    2
 -2       821      1270       427       920
 -1       784    3    0    1
 -2      1389      1362      1462      1534
 -1       785    3    0    1
 -2      1113      1603       646      1964
 -1       786    3    0    2
 -2       287      1256       311       247
 -1       787    3    0    1
 -2       348       491      1380      1734
 -1       788    3    0    1
 -2       394      1227       943      1547
 -1       789    3    0    1
 -2      1782       502       864      1125
 -1       790    3    0    1
 -2      1385      1432      1516      1553
 -1       791    3    0    2
 -2       706      1318       659       817
 -1       792    3    0    1
 -2       209       483       233      1448
 -1       793    3    0    2
 -2        33      1037      1045      1046
 -1       794    3    0    1
 -2      1698       525      1720      1259
 -1       795    3    0    1
 -2      1703      1360      1735      1740
 -1       796    3    0    1
 -2       640       397      1897       929
 -1       797    3    0    2
 -2       404       881       882       887
 -1       798    3    0    1
 -2      1667       271       933      2031
 -1       799    3    0    1
 -2      1569      1511      1577      1761
 -1       800    3    0    1
 -2      1383      1347      1492      1788
 -1       801    3    0    1
 -2      1619      1463      1793      2029
 -1       802    3    0    1
 -2      1843       419      1950      1986
 -1       803    3    0    1
 -2       265       260      1421      1736
 -1       804    3    0    1
 -2      1560      1438      1613      1806
 -1       805    3    0    1
 -2      1362      1366      1413      1604
 -1       806    3    0    2
 -2        52      1266       117       903
 -1       807    3    0    1
 -2      1345       426      1607      1279
 -1       808    3    0    2
 -2        94      1055      1315      1316
 -1       809    3    0    1
 -2      1899      1868       957      1183
 -1       810    3    0    1
 -2       410       416      1407       840
 -1       811    3    0    2
 -2       260       296       893      1262
 -1       812    3    0    1
 -2      1482      1441      1509      1694
 -1       813    3    0    2
 -2       849      1238       412      1237
 -1       814    3    0    1
 -2      1418      1412      1580      1702
 -1       815    3    0    2
 -2       526      1054       380      1053
 -1       816    3    0    1
 -2      1365      1468      1584      1789
 -1       817    3    0    1
 -2      1295      1526      1299      2047
 -1       818    3    0    2
 -2       426      1058       832      1186
 -1       819    3    0    2
 -2       703       962       727       836
 -1       820    3    0    1
 -2      1868       266      1926      1181
 -1       821    3    0    2
 -2      1060      1096      1059       382
 -1       822    3    0    1
 -2       397       640      1897      1077
 -1       823    3    0    1
 -2       342       557      1602      1682
 -1       824    3    0    1
 -2      1386       456      1429      1814
 -1       825    3    0    1
 -2        18       455      1453      1672
 -1       826    3    0    2
 -2       705      1156       662      1155
 -1       827    3    0    1
 -2      1574      1712      1944      2009
 -1       828    3    0    1
 -2       546      1641      1464      1650
 -1       829    3    0    1
 -2      1653      1733      1791      1894
 -1       830    3    0    2
 -2       373       527       969       970
 -1       831    3    0    1
 -2      1555      1414      1713      1837
 -1       832    3    0    1
 -2      1928      1474      1213      2027
 -1       833    3    0    2
 -2        51       116       111      1177
 -1       834    3    0    1
 -2         9      1452      1532      1551
 -1       835    3    0    2
 -2       398      1153      1029      1154
 -1       836    3    0    1
 -2      1454      1678      1683      1856
 -1       837    3    0    2
 -2       259      1142      1141      1264
 -1       838    3    0    1
 -2      1643       194       321       193
 -1       839    3    0    2
 -2       317      1338       937       275
 -1       840    3    0    1
 -2      1409      1443      1494      1535
 -1       841    3    0    1
 -2       387        13       470      1743
 -1       842    3    0    1
 -2      1674        73      1844      1319
 -1       843    3    0    1
 -2      1365      1469      1581      1680
 -1       844    3    0    1
 -2      1780       629      1880      1946
 -1       845    3    0    1
 -2      1674      1844      1064      1319
 -1       846    3    0    2
 -2      1269       384       919      1270
 -1       847    3    0    2
 -2       419       922       921       873
 -1       848    3    0    1
 -2       244       263      1863      1919
 -1       849    3    0    1
 -2      1397        44      1796      1872
 -1       850    3    0    2
 -2       821      1296       427       825
 -1       851    3    0    1
 -2      1873      1688      1898      1921
 -1       852    3    0    2
 -2       551      1074       610       389
 -1       853    3    0    1
 -2      1369      1354      1410      1504
 -1       854    3    0    2
 -2      1180      1053       380      1054
 -1       855    3    0    1
 -2      1731        98      1816      1826
 -1       856    3    0    1
 -2      1531      1434      1540      1806
 -1       857    3    0    1
 -2      1636      1842       979      2004
 -1       858    3    0    2
 -2       615      1270       384       617
 -1       859    3    0    1
 -2       552         4        74      1549
 -1       860    3    0    1
 -2        37        36      1564      1891
 -1       861    3    0    1
 -2      1605       287       848      1928
 -1       862    3    0    2
 -2       697       834       833       655
 -1       863    3    0    1
 -2      1414      1364      1590      1664
 -1       864    3    0    1
 -2        57         5       451      1644
 -1       865    3    0    1
 -2        39      1367      1502      1508
 -1       866    3    0    1
 -2      1421       412      1239      2010
 -1       867    3    0    2
 -2       540      1105      1210       377
 -1       868    3    0    2
 -2       657      1202       730      1012
 -1       869    3    0    1
 -2      1422        46      1570      1801
 -1       870    3    0    2
 -2       649       890       889       635
 -1       871    3    0    1
 -2      1457        13      1493      1743
 -1       872    3    0    1
 -2        36        37      1571      1077
 -1       873    3    0    2
 -2        36       159       155      1078
 -1       874    3    0    2
 -2       652       699       985       986
 -1       875    3    0    1
 -2      1524      1434      1536      1873
 -1       876    3    0    2
 -2       266      1013       859      1014
 -1       877    3    0    1
 -2      1555        44      1796      1837
 -1       878    3    0    2
 -2       652      1198       857      1197
 -1       879    3    0    1
 -2      1833       683      1964       914
 -1       880    3    0    1
 -2        39      1367      1461      1502
 -1       881    3    0    2
 -2      1142       648      1141      1264
 -1       882    3    0    1
 -2       703      1744      1092      2013
 -1       883    3    0    1
 -2       474       507      1682      1717
 -1       884    3    0    1
 -2      1543      1435      1685      1805
 -1       885    3    0    1
 -2      1375      1505      1626      1732
 -1       886    3    0    2
 -2      1023       394      1217      1218
 -1       887    3    0    2
 -2       652       857       858      1197
 -1       888    3    0    1
 -2       524      1557      1904       889
 -1       889    3    0    1
 -2      1573       425      1716      1297
 -1       890    3    0    1
 -2      1512      1626      1707      1732
 -1       891    3    0    2
 -2       102      1005      1301      1302
 -1       892    3    0    2
 -2       630       711       762       952
 -1       893    3    0    1
 -2      1491      1889       961      2013
 -1       894    3    0    1
 -2       422      1485       835      1983
 -1       895    3    0    1
 -2       394      1599       898      1218
 -1       896    3    0    1
 -2      1705       189      1877      1222
 -1       897    3    0    2
 -2       944       360       943      1228
 -1       898    3    0    1
 -2      1875      1900       895      1247
 -1       899    3    0    1
 -2      1453      1449      1672      1813
 -1       900    3    0    1
 -2      1474       247      1917       854
 -1       901    3    0    1
 -2      1582       400      1646      1309
 -1       902    3    0    1
 -2      1373       281      1641      1317
 -1       903    3    0    1
 -2      1389      1431      1717      1738
 -1       904    3    0    1
 -2      1505      1368      1732      1884
 -1       905    3    0    1
 -2       454        18       455      1453
 -1       906    3    0    1
 -2        49       188      1675      1834
 -1       907    3    0    1
 -2      1511      1528      1606      2017
 -1       908    3    0    1
 -2      1022       243      1942      2002
 -1       909    3    0    1
 -2      1435      1563      1685      1805
 -1       910    3    0    1
 -2      1539      1890      1211      1983
 -1       911    3    0    1
 -2       406      1305       674      1697
 -1       912    3    0    1
 -2       510        17       475      1534
 -1       913    3    0    1
 -2         4       552       339      1549
 -1       914    3    0    1
 -2      1548       645      1726      1941
 -1       915    3    0    2
 -2       436       641       853       854
 -1       916    3    0    1
 -2      1716      1637       855      1936
 -1       917    3    0    1
 -2       333      1444      1567      1743
 -1       918    3    0    1
 -2      1424      1396      1631      1718
 -1       919    3    0    2
 -2       139       134      1253      1254
 -1       920    3    0    1
 -2       409       410      1701      1047
 -1       921    3    0    1
 -2      1474       247      1928      1213
 -1       922    3    0    1
 -2        44      1397      1555      1765
 -1       923    3    0    1
 -2      1491       542      1889      1965
 -1       924    3    0    1
 -2       263      1863       862      1257
 -1       925    3    0    1
 -2      1455      1387      1585      1694
 -1       926    3    0    1
 -2       471        28      1831      1867
 -1       927    3    0    1
 -2       411      1736      1912       894
 -1       928    3    0    1
 -2      1475       261      1840      1857
 -1       929    3    0    1
 -2      1810      1730       999      1931
 -1       930    3    0    2
 -2       920       427       919      1270
 -1       931    3    0    1
 -2      1642      1861      1887      1983
 -1       932    3    0    1
 -2       451         5       452      1644
 -1       933    3    0    1
 -2      1381      1358      1415      1530
 -1       934    3    0    1
 -2      1616       405      1834      1086
 -1       935    3    0    1
 -2       366       518      1616       876
 -1       936    3    0    1
 -2      1489      1485      1983      1984
 -1       937    3    0    1
 -2      1828       251      1829      1833
 -1       938    3    0    1
 -2       421       657      1659      1075
 -1       939    3    0    1
 -2      1599      1609       943      1189
 -1       940    3    0    1
 -2       407      1922       990      1293
 -1       941    3    0    1
 -2       223       503       245      1551
 -1       942    3    0    1
 -2      1601       697      1006      2050
 -1       943    3    0    2
 -2       673      1144       396      1143
 -1       944    3    0    1
 -2      1358      1351      1381      1415
 -1       945    3    0    1
 -2      1599       396      1721      1143
 -1       946    3    0    1
 -2       351       489      1481      1883
 -1       947    3    0    2
 -2      1020       406      1019      1306
 -1       948    3    0    2
 -2       776       406       674       891
 -1       949    3    0    2
 -2       638       952       951       630
 -1       950    3    0    2
 -2      1057      1186        62      1058
 -1       951    3    0    1
 -2       184      1645      1701      1090
 -1       952    3    0    1
 -2       463        79      1580      1760
 -1       953    3    0    1
 -2       697       655      1601      1006
 -1       954    3    0    2
 -2       410       416      1089      1090
 -1       955    3    0    1
 -2       658      1507       841      1971
 -1       956    3    0    1
 -2       486        28        58      1867
 -1       957    3    0    1
 -2      1397      1765      1805      1892
 -1       958    3    0    1
 -2      1610      1757      1785      2007
 -1       959    3    0    1
 -2      1587      1412      1612      1631
 -1       960    3    0    2
 -2       681       988       987       437
 -1       961    3    0    1
 -2       402      1636      1860      1877
 -1       962    3    0    2
 -2       830       420       826      1096
 -1       963    3    0    1
 -2      1421       692      1715       970
 -1       964    3    0    2
 -2       781       405       785      1246
 -1       965    3    0    1
 -2      1454      1364      1590      1594
 -1       966    3    0    1
 -2       434       909      1598       665
 -1       967    3    0    2
 -2       246       838       242       837
 -1       968    3    0    1
 -2      1395      1472      1634      1761
 -1       969    3    0    1
 -2       361      1721      1129      1143
 -1       970    3    0    2
 -2      1220       833       530      1219
 -1       971    3    0    1
 -2      1398      1386      1759      1814
 -1       972    3    0    1
 -2       629       395      1880      1267
 -1       973    3    0    1
 -2      1499      1476      1884      1888
 -1       974    3    0    1
 -2       232       211      1525      1565
 -1       975    3    0    1
 -2      1586       699      1592      1974
 -1       976    3    0    2
 -2      1130       632      1129      1324
 -1       977    3    0    1
 -2       485       216       234      1867
 -1       978    3    0    1
 -2      1313       519      2034      2049
 -1       979    3    0    1
 -2      1367      1348      1398      1502
 -1       980    3    0    2
 -2       271       934       264       933
 -1       981    3    0    1
 -2         4       339      1515      1549
 -1       982    3    0    1
 -2      1508        39      1589      1171
 -1       983    3    0    1
 -2      1383      1356      1487      1788
 -1       984    3    0    1
 -2      1475       259       866      1939
 -1       985    3    0    2
 -2       416      1088       743      1089
 -1       986    3    0    1
 -2      1347      1473      1515      1621
 -1       987    3    0    2
 -2      1088       416      1087      1089
 -1       988    3    0    1
 -2      1407       410      1701      1090
 -1       989    3    0    2
 -2       427       996       995      1296
 -1       990    3    0    1
 -2      1386      1350      1429      1672
 -1       991    3    0    1
 -2      1777       413      1051      1139
 -1       992    3    0    1
 -2       340         8      1596      1819
 -1       993    3    0    1
 -2      1370      1378      1604      1608
 -1       994    3    0    1
 -2      1662        15       446         3
 -1       995    3    0    1
 -2      1439       707      1768      1187
 -1       996    3    0    2
 -2       418      1315      1056      1055
 -1       997    3    0    1
 -2        98        62      1905      1056
 -1       998    3    0    1
 -2       703      1744      1890      1092
 -1       999    3    0    1
 -2      1393      1376      1528      1761
 -1      1000    3    0    1
 -2      1500      1394      1724      1876
 -1      1001    3    0    1
 -2        75      1669       987      1960
 -1      1002    3    0    1
 -2      1646      1423      1151      1959
 -1      1003    3    0    1
 -2      1414      1364      1450      1590
 -1      1004    3    0    2
 -2       113       114      1087      1088
 -1      1005    3    0    1
 -2       391       219       285      1530
 -1      1006    3    0    1
 -2      1854      1606      2017      2036
 -1      1007    3    0    1
 -2      1717       343      1430      1738
 -1      1008    3    0    1
 -2      1389      1362      1431      1608
 -1      1009    3    0    1
 -2      1628       191       971      1969
 -1      1010    3    0    1
 -2      1354      1473      1504      1621
 -1      1011    3    0    1
 -2      1410      1354      1647      1669
 -1      1012    3    0    2
 -2       760      1168       633       954
 -1      1013    3    0    1
 -2      1800       647      1265      1981
 -1      1014    3    0    2
 -2       654      1322      1321       625
 -1      1015    3    0    2
 -2      1214       666       847      1213
 -1      1016    3    0    1
 -2       529      1770      1968      1321
 -1      1017    3    0    1
 -2      1367      1348      1502      1508
 -1      1018    3    0    2
 -2      1024      1023       394      1217
 -1      1019    3    0    1
 -2       106       115      1645      1652
 -1      1020    3    0    1
 -2       142      1572      1653      1848
 -1      1021    3    0    1
 -2       257      1548      1726      1963
 -1      1022    3    0    1
 -2        86        80       335      1381
 -1      1023    3    0    2
 -2      1240       692       969       742
 -1      1024    3    0    1
 -2      1368      1539      1626      1707
 -1      1025    3    0    1
 -2      1709        75      1807      1865
 -1      1026    3    0    2
 -2      1096      1060       420      1095
 -1      1027    3    0    1
 -2      1413        42      1623      1817
 -1      1028    3    0    1
 -2       858       539      1948      1974
 -1      1029    3    0    1
 -2       142       145      1572      1848
 -1      1030    3    0    1
 -2       635      1660      1820       939
 -1      1031    3    0    2
 -2       804       435       808      1063
 -1      1032    3    0    1
 -2       516       231       354      1699
 -1      1033    3    0    1
 -2      1360      1353      1490      1614
 -1      1034    3    0    2
 -2       707       433       811       997
 -1      1035    3    0    1
 -2      1358      1351      1530      1788
 -1      1036    3    0    2
 -2       811       433       815       997
 -1      1037    3    0    1
 -2      1496        49      1683      1799
 -1      1038    3    0    1
 -2       473      1597      1662      1700
 -1      1039    3    0    2
 -2      1025       520      1026      1307
 -1      1040    3    0    2
 -2       301       902       302       242
 -1      1041    3    0    1
 -2      1452      1819      1838      1845
 -1      1042    3    0    1
 -2       243       240      1880      1267
 -1      1043    3    0    1
 -2       356      1898      1910      1921
 -1      1044    3    0    1
 -2      1769       390       964      1281
 -1      1045    3    0    1
 -2       283      1373      1583      1070
 -1      1046    3    0    2
 -2       611       546       613      1099
 -1      1047    3    0    1
 -2        67        62      1345      1907
 -1      1048    3    0    1
 -2       408      1839      1939      1285
 -1      1049    3    0    2
 -2       408      1286       744       977
 -1      1050    3    0    1
 -2       553      1849      1145      2018
 -1      1051    3    0    2
 -2      1295        66       171      1296
 -1      1052    3    0    1
 -2       519      1547      2034      2049
 -1      1053    3    0    1
 -2       393      1609      1934      1961
 -1      1054    3    0    2
 -2       408      1195       865       866
 -1      1055    3    0    2
 -2       407      1294      1293       989
 -1      1056    3    0    1
 -2       399      1423      1852      1917
 -1      1057    3    0    1
 -2       257      1833       914      1101
 -1      1058    3    0    1
 -2       433       707      1439       998
 -1      1059    3    0    2
 -2       366      1124       595       875
 -1      1060    3    0    1
 -2       368        48      1550      1575
 -1      1061    3    0    1
 -2       554      1674      1769       964
 -1      1062    3    0    1
 -2      1432      1385      1516      1541
 -1      1063    3    0    1
 -2      1528      1393      1606      1854
 -1      1064    3    0    1
 -2       695       690      1667      1117
 -1      1065    3    0    1
 -2      1907        67       995      1057
 -1      1066    3    0    2
 -2       123       122      1171      1172
 -1      1067    3    0    1
 -2      1712      1390      1944      2009
 -1      1068    3    0    1
 -2       530       541      1219      2028
 -1      1069    3    0    2
 -2      1330       676      1163       769
 -1      1070    3    0    1
 -2      1542      1376      1546      1648
 -1      1071    3    0    2
 -2       149       146        33      1046
 -1      1072    3    0    1
 -2      1537      1382      1643      1836
 -1      1073    3    0    1
 -2        18       358       349      1453
 -1      1074    3    0    2
 -2       555      1204       505      1203
 -1      1075    3    0    1
 -2       233       483      1405      1448
 -1      1076    3    0    1
 -2      1434      1346      1524      1536
 -1      1077    3    0    1
 -2      1360      1481      1735      1740
 -1      1078    3    0    2
 -2       174       191       172       971
 -1      1079    3    0    2
 -2       590      1294       370       593
 -1      1080    3    0    1
 -2       208       534       269      1612
 -1      1081    3    0    2
 -2       240       917      1267      1268
 -1      1082    3    0    1
 -2      1742      1499      1744      1884
 -1      1083    3    0    1
 -2       402      1677      1038      1045
 -1      1084    3    0    1
 -2       246       242      1758       837
 -1      1085    3    0    1
 -2      1467      1480      1552      1657
 -1      1086    3    0    1
 -2      1713      1488      1737      1763
 -1      1087    3    0    1
 -2      1361      1440      1449      1460
 -1      1088    3    0    2
 -2       760       902       838       633
 -1      1089    3    0    2
 -2       244      1132       300      1250
 -1      1090    3    0    1
 -2       394       673      1599       943
 -1      1091    3    0    1
 -2      1365      1510      1755      1789
 -1      1092    3    0    1
 -2      1391      1375      1405      1691
 -1      1093    3    0    1
 -2      1566      1444      1632      1708
 -1      1094    3    0    1
 -2       194      1537      1643      1836
 -1      1095    3    0    1
 -2      1497       168      1498      1541
 -1      1096    3    0    1
 -2      1378      1370      1661      2046
 -1      1097    3    0    1
 -2      1496        49      1799      1834
 -1      1098    3    0    1
 -2      1331      1872        47      2055
 -1      1099    3    0    1
 -2      1539       182      1626      1642
 -1      1100    3    0    1
 -2       397      1636      1897       929
 -1      1101    3    0    1
 -2       185      1456      1461      1494
 -1      1102    3    0    2
 -2       106      1016       107       968
 -1      1103    3    0    2
 -2       244      1258       299       300
 -1      1104    3    0    1
 -2      1431      1451      1717      1738
 -1      1105    3    0    1
 -2      1373      1464      1070      1317
 -1      1106    3    0    1
 -2      1455      1387      1694      1798
 -1      1107    3    0    1
 -2       389       551      1655      1768
 -1      1108    3    0    1
 -2      1407       416      1778      1875
 -1      1109    3    0    1
 -2      1396      1424      1433      1615
 -1      1110    3    0    2
 -2      1295       427       995      1296
 -1      1111    3    0    1
 -2      1484      1510      1654      1867
 -1      1112    3    0    1
 -2      1482      1402      1509      1575
 -1      1113    3    0    1
 -2      1391      1476      1506      1911
 -1      1114    3    0    1
 -2      1397      1765      1892      1925
 -1      1115    3    0    1
 -2        41       161      1564      1930
 -1      1116    3    0    1
 -2      1373       663      1583      1655
 -1      1117    3    0    2
 -2      1008       661      1007      1108
 -1      1118    3    0    1
 -2      1404      1714      1755      1896
 -1      1119    3    0    1
 -2      1404      1776      1831      1896
 -1      1120    3    0    1
 -2       222       508       249      1717
 -1      1121    3    0    2
 -2        95       986        99        64
 -1      1122    3    0    1
 -2        28       485        58      1867
 -1      1123    3    0    1
 -2       108      1601      1900       967
 -1      1124    3    0    1
 -2      1690       128      1812      1954
 -1      1125    3    0    1
 -2       235       218      1654      1827
 -1      1126    3    0    1
 -2       382      1388      1573      2006
 -1      1127    3    0    1
 -2      1630      1426      1849      1107
 -1      1128    3    0    1
 -2      1586      1899       858      1974
 -1      1129    3    0    1
 -2      1412      1552      1693      1747
 -1      1130    3    0    1
 -2         2        84      1699      1737
 -1      1131    3    0    1
 -2      1438      1470      1539      1642
 -1      1132    3    0    2
 -2       971       430      1109      1110
 -1      1133    3    0    1
 -2       257      1548      1833      1231
 -1      1134    3    0    2
 -2      1111       409      1047      1112
 -1      1135    3    0    2
 -2       981      1082       399       982
 -1      1136    3    0    1
 -2       693       413      1556      1777
 -1      1137    3    0    1
 -2       225      1399      1408      1578
 -1      1138    3    0    1
 -2       187      1459      1677      1848
 -1      1139    3    0    1
 -2       678       633      1758      2039
 -1      1140    3    0    1
 -2       625       428      1859      1936
 -1      1141    3    0    1
 -2       271      1419      1486      2031
 -1      1142    3    0    1
 -2        54       125      1633      1815
 -1      1143    3    0    1
 -2      1364      1414      1555      1837
 -1      1144    3    0    1
 -2      1395      1472      1542      1909
 -1      1145    3    0    1
 -2      1362      1366      1462      1534
 -1      1146    3    0    1
 -2        72        54      1633      1645
 -1      1147    3    0    1
 -2      1457      1379      1493      1797
 -1      1148    3    0    1
 -2        80       338       391      1381
 -1      1149    3    0    1
 -2      1496      1401      1678      1683
 -1      1150    3    0    1
 -2      1465      1459      1727      1882
 -1      1151    3    0    1
 -2       480       230      1400      1570
 -1      1152    3    0    1
 -2      1584      1445      1781      1895
 -1      1153    3    0    1
 -2      1372      1571      1103      1115
 -1      1154    3    0    1
 -2      1384      1398      1759      1814
 -1      1155    3    0    2
 -2       614       545       385       877
 -1      1156    3    0    1
 -2      1203      1372      2027      2040
 -1      1157    3    0    1
 -2         5       332      1524      1644
 -1      1158    3    0    2
 -2       382       378      1059      1060
 -1      1159    3    0    1
 -2       430      1425      1665      1335
 -1      1160    3    0    2
 -2       695      1118       735       690
 -1      1161    3    0    1
 -2       696      1750      1861      1887
 -1      1162    3    0    1
 -2       321       438      1836      1911
 -1      1163    3    0    1
 -2        16       557       342      1682
 -1      1164    3    0    1
 -2      1399      1408      1441      1550
 -1      1165    3    0    1
 -2      1720      1327      2038      2054
 -1      1166    3    0    1
 -2      1543      1685      2000      2020
 -1      1167    3    0    1
 -2       191      1538      1569      1577
 -1      1168    3    0    1
 -2      1593       221      1597      1682
 -1      1169    3    0    1
 -2      1587       531      1612      1760
 -1      1170    3    0    1
 -2      1525      1512      1565      1804
 -1      1171    3    0    1
 -2      1369      1416      1504      1513
 -1      1172    3    0    1
 -2       512       225       347      1550
 -1      1173    3    0    1
 -2       244      1684      1131      1249
 -1      1174    3    0    1
 -2      1459       187      1465      1848
 -1      1175    3    0    2
 -2       876      1124       366       875
 -1      1176    3    0    2
 -2      1066       679       754      1193
 -1      1177    3    0    2
 -2       735      1128       737       690
 -1      1178    3    0    1
 -2      1750       650      1160      1325
 -1      1179    3    0    2
 -2       558      1184       528       958
 -1      1180    3    0    1
 -2      1364      1414      1454      1664
 -1      1181    3    0    2
 -2       548      1068       546       613
 -1      1182    3    0    1
 -2        17        82      1430      1534
 -1      1183    3    0    2
 -2       313      1108       284       314
 -1      1184    3    0    2
 -2      1117      1128      1118       690
 -1      1185    3    0    1
 -2      1605       287      1928      1973
 -1      1186    3    0    1
 -2      1494      1349      1838      1845
 -1      1187    3    0    1
 -2       226       491       348      1734
 -1      1188    3    0    2
 -2       687      1000       648       999
 -1      1189    3    0    2
 -2       804      1282       435       963
 -1      1190    3    0    1
 -2      1375      1391      1505      1732
 -1      1191    3    0    1
 -2       416       691      1778      1875
 -1      1192    3    0    1
 -2      1450      1414      1664      1699
 -1      1193    3    0    2
 -2       950       418       720      1242
 -1      1194    3    0    1
 -2      1670       676      1906      2021
 -1      1195    3    0    1
 -2       199       448       200      1521
 -1      1196    3    0    1
 -2       183      1368      1744      1890
 -1      1197    3    0    1
 -2       214       488       469      1873
 -1      1198    3    0    1
 -2       659      1464      1641      1317
 -1      1199    3    0    1
 -2       428      1337      1935       938
 -1      1200    3    0    1
 -2      1554        49      1675      1683
 -1      1201    3    0    1
 -2       390      1205      1097      1769
 -1      1202    3    0    1
 -2       230       239      1400      1627
 -1      1203    3    0    1
 -2      1387      1523      1585      1623
 -1      1204    3    0    1
 -2       439       193       194      1537
 -1      1205    3    0    1
 -2      1360      1514      1627      1703
 -1      1206    3    0    1
 -2      1323       497      1864      1129
 -1      1207    3    0    1
 -2       128      1339      1690       129
 -1      1208    3    0    2
 -2       614       936       385       842
 -1      1209    3    0    1
 -2      1559      1972      1307      2037
 -1      1210    3    0    2
 -2       623      1050       411      1049
 -1      1211    3    0    1
 -2       421      1659       911      1075
 -1      1212    3    0    1
 -2         8        55       457      1819
 -1      1213    3    0    1
 -2      1520       395      1978      1267
 -1      1214    3    0    1
 -2       425       419      1573      1843
 -1      1215    3    0    1
 -2        70       472       549      1553
 -1      1216    3    0    2
 -2      1161       650      1162      1327
 -1      1217    3    0    1
 -2      1444      1566      1632      1858
 -1      1218    3    0    2
 -2       714       411       741      1262
 -1      1219    3    0    2
 -2       789      1152       793       400
 -1      1220    3    0    1
 -2      1451      1682      1717      1738
 -1      1221    3    0    2
 -2       247       312       853      1256
 -1      1222    3    0    1
 -2      1436      1409      1838      1876
 -1      1223    3    0    2
 -2        96      1056        94      1055
 -1      1224    3    0    1
 -2        78        79       463      1760
 -1      1225    3    0    1
 -2       365      1656      1860      2004
 -1      1226    3    0    2
 -2       175       172       971       972
 -1      1227    3    0    1
 -2      1548       645      1828      1833
 -1      1228    3    0    1
 -2       394      1547      1599      1218
 -1      1229    3    0    1
 -2      1361      1359      1440      1812
 -1      1230    3    0    2
 -2       647       749       753      1025
 -1      1231    3    0    1
 -2       476       225      1408      1578
 -1      1232    3    0    2
 -2      1085       405      1245      1246
 -1      1233    3    0    1
 -2      1525       482      1565      1579
 -1      1234    3    0    1
 -2      1565      1560      1579      1767
 -1      1235    3    0    1
 -2      1385      1351      1487      1516
 -1      1236    3    0    1
 -2      1776      1831      1867      1910
 -1      1237    3    0    2
 -2       758       756       635       890
 -1      1238    3    0    1
 -2      1569      1577      1634      1761
 -1      1239    3    0    1
 -2      1555      1397      1713      1763
 -1      1240    3    0    1
 -2      1353      1360      1490      1786
 -1      1241    3    0    1
 -2       685       978      1993      1994
 -1      1242    3    0    2
 -2       407       675       775       989
 -1      1243    3    0    1
 -2      1366       511      1462      1663
 -1      1244    3    0    1
 -2       217       549       472      1553
 -1      1245    3    0    1
 -2      1452      1349      1562      1845
 -1      1246    3    0    1
 -2       276      1695      1706      1223
 -1      1247    3    0    1
 -2      1356      1383      1492      1788
 -1      1248    3    0    2
 -2       166       169      1121      1122
 -1      1249    3    0    2
 -2       384       920       919      1270
 -1      1250    3    0    1
 -2      1402      1509      1575      1795
 -1      1251    3    0    1
 -2      1742      1499      1884      1888
 -1      1252    3    0    1
 -2       360      1313      1043      2049
 -1      1253    3    0    2
 -2       498       493      1079      1080
 -1      1254    3    0    1
 -2         8       457       460      1819
 -1      1255    3    0    1
 -2       242      1520      1758       901
 -1      1256    3    0    1
 -2      1495      1710      1745      1821
 -1      1257    3    0    1
 -2      1481      1380      1679      1883
 -1      1258    3    0    2
 -2       649      1132       635      1131
 -1      1259    3    0    2
 -2       666       639      1031      1032
 -1      1260    3    0    1
 -2        59        65      1531      1613
 -1      1261    3    0    1
 -2      1363      1399      1441      1482
 -1      1262    3    0    1
 -2       106       108      1778       967
 -1      1263    3    0    2
 -2       392       506       941       942
 -1      1264    3    0    1
 -2      1655       663      1825      1966
 -1      1265    3    0    1
 -2      1345        62      1816      1907
 -1      1266    3    0    1
 -2      1899       539       858      1974
 -1      1267    3    0    1
 -2       282       550      1381      1553
 -1      1268    3    0    2
 -2       260       893      1261      1262
 -1      1269    3    0    2
 -2      1080      1176       498      1175
 -1      1270    3    0    2
 -2        45       135       945       946
 -1      1271    3    0    1
 -2      1362      1366      1534      1663
 -1      1272    3    0    1
 -2       510        82      1534      1663
 -1      1273    3    0    1
 -2       524       501      1557       939
 -1      1274    3    0    2
 -2      1131      1250       649      1132
 -1      1275    3    0    1
 -2       460      1452      1596      1819
 -1      1276    3    0    1
 -2      1434      1346      1806      1824
 -1      1277    3    0    2
 -2       284       909       869       910
 -1      1278    3    0    2
 -2       415      1126      1125       863
 -1      1279    3    0    1
 -2      1412      1467      1552      1657
 -1      1280    3    0    1
 -2      1677       402      1860      1877
 -1      1281    3    0    1
 -2       482       211       232      1565
 -1      1282    3    0    1
 -2       665      1598      1630       909
 -1      1283    3    0    1
 -2      1594      1611      1739      1795
 -1      1284    3    0    2
 -2       107       109       106       968
 -1      1285    3    0    2
 -2       424       968       716      1016
 -1      1286    3    0    1
 -2      1611      1594      1739      1856
 -1      1287    3    0    1
 -2      1538      1545      1569      1577
 -1      1288    3    0    2
 -2      1344       693      1177       739
 -1      1289    3    0    1
 -2      1864      1374       907      1136
 -1      1290    3    0    1
 -2      1721       632      1864      1129
 -1      1291    3    0    2
 -2       598      1200       362       601
 -1      1292    3    0    1
 -2      1493      1457      1566      1858
 -1      1293    3    0    1
 -2        92        91      1546      1648
 -1      1294    3    0    2
 -2        60       180       179      1133
 -1      1295    3    0    1
 -2       219       391       338      1530
 -1      1296    3    0    1
 -2      1435      1543      2000      2012
 -1      1297    3    0    1
 -2      1385      1351      1516      1541
 -1      1298    3    0    2
 -2       404       782       786       881
 -1      1299    3    0    1
 -2      1426      1630      1007      1107
 -1      1300    3    0    2
 -2       528       539       857       858
 -1      1301    3    0    1
 -2       692       412      1421       849
 -1      1302    3    0    1
 -2        24       464       484      1519
 -1      1303    3    0    1
 -2      1425       385      1665      1335
 -1      1304    3    0    1
 -2      1438      1626      1642      1707
 -1      1305    3    0    1
 -2      1447      1360      1481      1735
 -1      1306    3    0    1
 -2       270      1419      1486      1011
 -1      1307    3    0    1
 -2      1357      1465      1711      1727
 -1      1308    3    0    2
 -2       599       363       600       982
 -1      1309    3    0    1
 -2      1772      1746      1943      1995
 -1      1310    3    0    2
 -2       509       982       363       981
 -1      1311    3    0    1
 -2       153      1222      1877       189
 -1      1312    3    0    1
 -2       413      1777      1051      1932
 -1      1313    3    0    1
 -2       643       402      1677      1038
 -1      1314    3    0    2
 -2       524       940       501       939
 -1      1315    3    0    1
 -2       211       482       466      1565
 -1      1316    3    0    1
 -2       261      1857      1195      1993
 -1      1317    3    0    1
 -2      1538      1518      1545      1802
 -1      1318    3    0    2
 -2       257      1102       251      1101
 -1      1319    3    0    1
 -2      1473      1347      1492      1504
 -1      1320    3    0    1
 -2       705      1403      1650      1155
 -1      1321    3    0    1
 -2      1620      1794      1871      1976
 -1      1322    3    0    1
 -2      1741      1633      1111      2019
 -1      1323    3    0    1
 -2        26       464      1519      1691
 -1      1324    3    0    1
 -2      1687        64       986      1289
 -1      1325    3    0    1
 -2      1676       541      1982      1137
 -1      1326    3    0    1
 -2      1871       644       876      1976
 -1      1327    3    0    1
 -2      1491      1889      1948      1965
 -1      1328    3    0    1
 -2        62      1345      1816      1905
 -1      1329    3    0    1
 -2      1633       688      1194      1311
 -1      1330    3    0    2
 -2       497      1130      1129      1324
 -1      1331    3    0    1
 -2      1363      1399      1482      1585
 -1      1332    3    0    1
 -2       182      1368      1539      1626
 -1      1333    3    0    2
 -2       373      1052       573       571
 -1      1334    3    0    1
 -2      1468      1714      2044      1879
 -1      1335    3    0    1
 -2      1474       287      1255      1973
 -1      1336    3    0    2
 -2      1093       625      1321      1322
 -1      1337    3    0    1
 -2      1364      1414      1450      1555
 -1      1338    3    0    1
 -2       676      1670      1164      2021
 -1      1339    3    0    1
 -2      1645        54      1791        72
 -1      1340    3    0    1
 -2       545       385      1507       841
 -1      1341    3    0    1
 -2       520       999       521      1355
 -1      1342    3    0    1
 -2       704      1668      1945      1969
 -1      1343    3    0    1
 -2      1433      1424      1458      1588
 -1      1344    3    0    1
 -2      1807        75       987      1291
 -1      1345    3    0    2
 -2       582      1284       973       496
 -1      1346    3    0    1
 -2      1439      1574      1712      1944
 -1      1347    3    0    1
 -2      1609       360      1043      2049
 -1      1348    3    0    1
 -2       539       528      1899       858
 -1      1349    3    0    2
 -2        75       988       987      1291
 -1      1350    3    0    1
 -2      1382      1371      1537      1643
 -1      1351    3    0    2
 -2       540      1105      1209      1210
 -1      1352    3    0    1
 -2      1356      1351      1383      1487
 -1      1353    3    0    1
 -2       632      1374      1721      1864
 -1      1354    3    0    1
 -2      1558       378      1060      2007
 -1      1355    3    0    1
 -2      1677        33      1848      1967
 -1      1356    3    0    1
 -2      1593      1597      1602      1682
 -1      1357    3    0    1
 -2       706      1464      1070      1998
 -1      1358    3    0    1
 -2      1434      1540      1595      2053
 -1      1359    3    0    1
 -2      1620      1871       876      1976
 -1      1360    3    0    1
 -2       396       632      1721      1129
 -1      1361    3    0    1
 -2      1431      1451      1682      1717
 -1      1362    3    0    1
 -2      1829       251      1853      2016
 -1      1363    3    0    1
 -2       695      1486      1749      1975
 -1      1364    3    0    2
 -2       112        51       111      1177
 -1      1365    3    0    1
 -2      1456        39      1461      1502
 -1      1366    3    0    1
 -2      1565      1525      1579      1707
 -1      1367    3    0    1
 -2       357         5        57      1644
 -1      1368    3    0    1
 -2       630       638      1671       951
 -1      1369    3    0    1
 -2         1       439        77      1537
 -1      1370    3    0    2
 -2       263      1258       244      1257
 -1      1371    3    0    1
 -2       630      1649      1671      1979
 -1      1372    3    0    1
 -2        64        99      1687       986
 -1      1373    3    0    1
 -2        98      1315      1905       181
 -1      1374    3    0    1
 -2       625      1859      1071      1094
 -1      1375    3    0    1
 -2       375      1704      1782       885
 -1      1376    3    0    2
 -2       699       652       857       858
 -1      1377    3    0    1
 -2      1393      1606      1615      1629
 -1      1378    3    0    1
 -2      1841       377       949      1990
 -1      1379    3    0    1
 -2       135      1353      1447      1745
 -1      1380    3    0    2
 -2      1061       659      1062      1067
 -1      1381    3    0    1
 -2        15       473      1662      1700
 -1      1382    3    0    1
 -2      1470      1438      1613      1642
 -1      1383    3    0    1
 -2      1485       379       835      1984
 -1      1384    3    0    1
 -2      1660      1651      1820      1999
 -1      1385    3    0    1
 -2      1601      1900       967      1301
 -1      1386    3    0    2
 -2      1072       851       428       852
 -1      1387    3    0    1
 -2       551       389      1655      1073
 -1      1388    3    0    1
 -2        71       165      1299      2047
 -1      1389    3    0    1
 -2      1739      1675      1851      1856
 -1      1390    3    0    1
 -2       256      1450      1664      1699
 -1      1391    3    0    1
 -2      1409      1436      1787      1923
 -1      1392    3    0    1
 -2       410      1407      1701       843
 -1      1393    3    0    1
 -2        70       549      1432      1553
 -1      1394    3    0    2
 -2       545       385       877       878
 -1      1395    3    0    1
 -2      1407      1736      1049      1235
 -1      1396    3    0    1
 -2      1843      1471       874       921
 -1      1397    3    0    2
 -2       851      1072       384       852
 -1      1398    3    0    1
 -2      1561       496      1671      1283
 -1      1399    3    0    1
 -2      1863       244      1908      1970
 -1      1400    3    0    1
 -2      1673      1560      1806      1824
 -1      1401    3    0    1
 -2      1431      1647      1709      1865
 -1      1402    3    0    1
 -2      1371      1420      1476      1506
 -1      1403    3    0    1
 -2      1770       383       956      1279
 -1      1404    3    0    1
 -2      1823      1725      1938      1339
 -1      1405    3    0    2
 -2       607      1206       390       608
 -1      1406    3    0    1
 -2        89       476      1408      1578
 -1      1407    3    0    1
 -2       689      1576       928      1987
 -1      1408    3    0    1
 -2        76       444      1762      1832
 -1      1409    3    0    1
 -2      1373       281      1855      2052
 -1      1410    3    0    2
 -2       951       976       630       952
 -1      1411    3    0    1
 -2      1478      1467      1631      1657
 -1      1412    3    0    1
 -2      1476      1371      1506      1643
 -1      1413    3    0    1
 -2       645       404      1828      1033
 -1      1414    3    0    2
 -2      1192        44       140      1332
 -1      1415    3    0    1
 -2       687      1810      1874       999
 -1      1416    3    0    1
 -2      1638       499      1864      1323
 -1      1417    3    0    1
 -2       632      1323      1864      1129
 -1      1418    3    0    2
 -2       547       553       983       984
 -1      1419    3    0    1
 -2      1417      1688      1776      1898
 -1      1420    3    0    2
 -2      1077      1234        36      1078
 -1      1421    3    0    1
 -2        41      1403       925      1930
 -1      1422    3    0    1
 -2       649      1684      1919      1249
 -1      1423    3    0    1
 -2      1459      1465      1705      1891
 -1      1424    3    0    1
 -2       552       339      1515      1530
 -1      1425    3    0    1
 -2       693       413      1777      1139
 -1      1426    3    0    1
 -2      1507       429      2026      1956
 -1      1427    3    0    2
 -2       804      1282       808       435
 -1      1428    3    0    2
 -2       396       770       771       897
 -1      1429    3    0    1
 -2      1405      1391      1476      1505
 -1      1430    3    0    2
 -2       631       680       761       973
 -1      1431    3    0    1
 -2      1676       277      1723       960
 -1      1432    3    0    2
 -2       529      1093      1094      1321
 -1      1433    3    0    1
 -2       527       373      1777       970
 -1      1434    3    0    2
 -2      1091       101      1211      1212
 -1      1435    3    0    1
 -2      1571        37      1705      1077
 -1      1436    3    0    1
 -2      1554      1455      1694      1798
 -1      1437    3    0    1
 -2      1421       412      1809      1237
 -1      1438    3    0    2
 -2       304       240       303      1268
 -1      1439    3    0    2
 -2       416       410       839       840
 -1      1440    3    0    2
 -2       424       896       895      1248
 -1      1441    3    0    1
 -2       522       371      1741       978
 -1      1442    3    0    2
 -2       746       413       739      1140
 -1      1443    3    0    1
 -2       185        39      1456      1576
 -1      1444    3    0    2
 -2       297      1264       259       298
 -1      1445    3    0    2
 -2      1002       378       620      1298
 -1      1446    3    0    1
 -2      1446      1681      1689      1329
 -1      1447    3    0    1
 -2        89      1408      1462      1578
 -1      1448    3    0    2
 -2       371       522       977       978
 -1      1449    3    0    1
 -2      1484      1776      1831      1867
 -1      1450    3    0    1
 -2      1405       233      1448      1519
 -1      1451    3    0    1
 -2       484       209       233      1519
 -1      1452    3    0    1
 -2      1392      1428      1949      2025
 -1      1453    3    0    1
 -2       200       199      1513      1700
 -1      1454    3    0    1
 -2      1345       694       956      1990
 -1      1455    3    0    2
 -2       527      1052       373       571
 -1      1456    3    0    1
 -2      1857       685      1993      1994
 -1      1457    3    0    1
 -2      1780      1609       965      1946
 -1      1458    3    0    1
 -2      1487      1390      1541      1784
 -1      1459    3    0    1
 -2      1624       648      1809       845
 -1      1460    3    0    2
 -2       582       976       496       952
 -1      1461    3    0    1
 -2      1514       230      1627      1703
 -1      1462    3    0    1
 -2      1645       106      1652      1748
 -1      1463    3    0    1
 -2       129      1690      1938      1339
 -1      1464    3    0    1
 -2      1646       363      1083      1151
 -1      1465    3    0    1
 -2       637      1704       885      1215
 -1      1466    3    0    2
 -2       883       966       494       884
 -1      1467    3    0    1
 -2      1670       498      1915      1164
 -1      1468    3    0    1
 -2      1771       864      1125      2019
 -1      1469    3    0    1
 -2       548      1464      1062      1947
 -1      1470    3    0    1
 -2       370       495      1922       990
 -1      1471    3    0    1
 -2      1358      1347      1515      1549
 -1      1472    3    0    1
 -2      1362      1370      1378      1466
 -1      1473    3    0    1
 -2      1432      1444      1553      1708
 -1      1474    3    0    2
 -2       627       769       667      1021
 -1      1475    3    0    1
 -2      1744       703      1889      2013
 -1      1476    3    0    1
 -2       495      1689      1847       990
 -1      1477    3    0    1
 -2       192      1658      1753      1907
 -1      1478    3    0    2
 -2       517      1304       597       365
 -1      1479    3    0    1
 -2      1753      1658      1816      1907
 -1      1480    3    0    2
 -2       647      1308       749      1025
 -1      1481    3    0    2
 -2       777      1228       394       778
 -1      1482    3    0    2
 -2       495       370       989       990
 -1      1483    3    0    2
 -2      1150       677       945       768
 -1      1484    3    0    2
 -2       402       643       787      1037
 -1      1485    3    0    1
 -2      1791      1733      1815      1894
 -1      1486    3    0    2
 -2       979      1226       362       980
 -1      1487    3    0    1
 -2      1871      1794      1941      1955
 -1      1488    3    0    2
 -2       363       599       600      1084
 -1      1489    3    0    1
 -2       639       666      1372      1032
 -1      1490    3    0    1
 -2       510       224       252      1663
 -1      1491    3    0    1
 -2       681      1568      1591       868
 -1      1492    3    0    1
 -2      1595      1404      1686      1752
 -1      1493    3    0    1
 -2      1568       681      1835       868
 -1      1494    3    0    1
 -2      1829       250      1916      1153
 -1      1495    3    0    2
 -2       399       992       991      1252
 -1      1496    3    0    1
 -2       492       230       239      1400
 -1      1497    3    0    1
 -2      1599       494      1609      1189
 -1      1498    3    0    1
 -2      1628       704       971      2023
 -1      1499    3    0    1
 -2      1442       506      1618       942
 -1      1500    3    0    1
 -2       483       209       327      1448
 -1      1501    3    0    2
 -2      1030       398      1029      1154
 -1      1502    3    0    1
 -2      1605       287      1850       848
 -1      1503    3    0    1
 -2       346        89      1408      1462
 -1      1504    3    0    1
 -2      1479      1387      1746      2001
 -1      1505    3    0    1
 -2      1351      1385      1487      1541
 -1      1506    3    0    1
 -2      1649       630      1671       975
 -1      1507    3    0    2
 -2      1033      1232      1231       645
 -1      1508    3    0    1
 -2      1407       410       840       843
 -1      1509    3    0    2
 -2       528       539       560       857
 -1      1510    3    0    1
 -2       188      1675      1834      1937
 -1      1511    3    0    1
 -2        47        44      1397      1872
 -1      1512    3    0    1
 -2      1362      1389      1430      1663
 -1      1513    3    0    1
 -2      1559      1600      1932      2010
 -1      1514    3    0    1
 -2      1557       501      1009      1999
 -1      1515    3    0    1
 -2      1406       384       851      1071
 -1      1516    3    0    2
 -2       759       927      1171      1172
 -1      1517    3    0    2
 -2       699       652       724       857
 -1      1518    3    0    1
 -2      1872       675      1922      1933
 -1      1519    3    0    2
 -2       251      1034       307      1232
 -1      1520    3    0    1
 -2       361       494      1780      1189
 -1      1521    3    0    1
 -2      1517       434      1598      1097
 -1      1522    3    0    1
 -2       419      1843       874       921
 -1      1523    3    0    1
 -2       267       274      1471       921
 -1      1524    3    0    1
 -2      1641       851      1067      2052
 -1      1525    3    0    2
 -2       828       426       832      1186
 -1      1526    3    0    2
 -2      1300      1003        71      1299
 -1      1527    3    0    1
 -2      1413      1378      1604      2048
 -1      1528    3    0    1
 -2       625      1770      1859      1094
 -1      1529    3    0    1
 -2      1950      1785      1951      1989
 -1      1530    3    0    1
 -2      1597      1593      1662      1700
 -1      1531    3    0    1
 -2       399       642      1830       981
 -1      1532    3    0    1
 -2      1716      1637      1936      2014
 -1      1533    3    0    1
 -2      1495      1811      1821      1954
 -1      1534    3    0    1
 -2       425       419      1843       874
 -1      1535    3    0    2
 -2       673       396       897       898
 -1      1536    3    0    1
 -2      1633       688      1741      1111
 -1      1537    3    0    2
 -2        95       986        64       985
 -1      1538    3    0    1
 -2       512        20        48      1550
 -1      1539    3    0    1
 -2       229       514       479      1783
 -1      1540    3    0    2
 -2       841       936       385       935
 -1      1541    3    0    2
 -2       535       525      1161      1162
 -1      1542    3    0    2
 -2       572       372       570      1236
 -1      1543    3    0    2
 -2       651      1274       423      1273
 -1      1544    3    0    2
 -2       705      1004      1003       662
 -1      1545    3    0    1
 -2      1841       418      1905      1990
 -1      1546    3    0    1
 -2       285       552      1358      1530
 -1      1547    3    0    1
 -2       174      1511      1569      1628
 -1      1548    3    0    1
 -2      1400      1360      1490      1514
 -1      1549    3    0    1
 -2       391       285      1358      1530
 -1      1550    3    0    1
 -2      1520       395      1780       883
 -1      1551    3    0    1
 -2      1531        59      1540      2053
 -1      1552    3    0    1
 -2       391      1358      1381      1530
 -1      1553    3    0    1
 -2       174      1628       971      1110
 -1      1554    3    0    1
 -2      1594      1454      1739      1856
 -1      1555    3    0    1
 -2      1698       690      1779      1127
 -1      1556    3    0    2
 -2       590      1294       989       370
 -1      1557    3    0    1
 -2      1710       677      1915      1175
 -1      1558    3    0    2
 -2       697       834       655       731
 -1      1559    3    0    2
 -2       567      1328      1161       525
 -1      1560    3    0    1
 -2       498       493      1915      1164
 -1      1561    3    0    1
 -2       349       358      1361      1453
 -1      1562    3    0    1
 -2      1361      1350      1449      1453
 -1      1563    3    0    1
 -2      1828       404       887      1943
 -1      1564    3    0    1
 -2      1710       135      1846       946
 -1      1565    3    0    2
 -2       406       674       891       892
 -1      1566    3    0    1
 -2      1818      1797      1822      1909
 -1      1567    3    0    1
 -2        51       116      1556      1686
 -1      1568    3    0    1
 -2       215       544       279      1567
 -1      1569    3    0    1
 -2       389      1756      1768      1953
 -1      1570    3    0    1
 -2      1686      1428      1752      2024
 -1      1571    3    0    2
 -2       694      1280       426      1279
 -1      1572    3    0    2
 -2       749       647       753       903
 -1      1573    3    0    1
 -2       282      1381      1516      1553
 -1      1574    3    0    1
 -2      1607      1345       995      1057
 -1      1575    3    0    1
 -2        51      1533      1714      1755
 -1      1576    3    0    1
 -2      1583       283      1825      1207
 -1      1577    3    0    2
 -2       791      1200       795       397
 -1      1578    3    0    1
 -2       231       369       481      1664
 -1      1579    3    0    2
 -2      1133        60      1134      1341
 -1      1580    3    0    1
 -2      1520       633      1758       901
 -1      1581    3    0    1
 -2      1681       493      1915      1080
 -1      1582    3    0    1
 -2      1690      1119      1938      1339
 -1      1583    3    0    1
 -2        86       338      1381      1415
 -1      1584    3    0    1
 -2      1455      1387      1523      1585
 -1      1585    3    0    2
 -2       582       976       585       496
 -1      1586    3    0    1
 -2       137       133      1374      1136
 -1      1587    3    0    1
 -2      1863      1638      1215      1970
 -1      1588    3    0    2
 -2       497      1130       583       584
 -1      1589    3    0    1
 -2       637       414      1863      1257
 -1      1590    3    0    1
 -2       699      1586       858      1974
 -1      1591    3    0    1
 -2      1348      1427      1544      1725
 -1      1592    3    0    1
 -2      1485      1489      1887      1984
 -1      1593    3    0    2
 -2       863       415       864      1125
 -1      1594    3    0    1
 -2      1431      1389      1608      1738
 -1      1595    3    0    1
 -2      1438      1560      1613      1673
 -1      1596    3    0    1
 -2      1700       446        15       449
 -1      1597    3    0    1
 -2      1400      1563      1570      1614
 -1      1598    3    0    1
 -2        54        72      1633      1039
 -1      1599    3    0    1
 -2       125      1771      1065      1194
 -1      1600    3    0    1
 -2      1355      1840       999      1931
 -1      1601    3    0    2
 -2       132      1136       130       907
 -1      1602    3    0    2
 -2       416      1087      1089      1090
 -1      1603    3    0    1
 -2      1721       361      1780      1143
 -1      1604    3    0    1
 -2       514        83      1783      1795
 -1      1605    3    0    1
 -2      1840      1810      1857      1263
 -1      1606    3    0    2
 -2       689       636       927       928
 -1      1607    3    0    2
 -2       891       406       892      1173
 -1      1608    3    0    1
 -2       445        14      1581      1680
 -1      1609    3    0    1
 -2       636      1508      1589      1171
 -1      1610    3    0    1
 -2      1828       366      1943       887
 -1      1611    3    0    1
 -2      1730       521       999      1931
 -1      1612    3    0    2
 -2        49      1246      1085      1245
 -1      1613    3    0    1
 -2      1395      1545      1577      1634
 -1      1614    3    0    1
 -2       128      1690      1119      1954
 -1      1615    3    0    1
 -2       628       677      1846      1149
 -1      1616    3    0    1
 -2      1437      1446      1147      2003
 -1      1617    3    0    1
 -2       914      1833      1963      1964
 -1      1618    3    0    2
 -2       144       141      1023      1024
 -1      1619    3    0    2
 -2       495      1306       370      1305
 -1      1620    3    0    2
 -2       403      1102       669      1101
 -1      1621    3    0    1
 -2        25      1565      1579      1767
 -1      1622    3    0    1
 -2       404      1828      1853      1943
 -1      1623    3    0    1
 -2       244      1684      1908      1131
 -1      1624    3    0    1
 -2      1363      1523      1527      1585
 -1      1625    3    0    2
 -2       594       365       597      1304
 -1      1626    3    0    1
 -2       456      1386      1429      1672
 -1      1627    3    0    1
 -2      1376      1433      1546      1648
 -1      1628    3    0    1
 -2      1684       649      1131      1249
 -1      1629    3    0    1
 -2      1660       635      1684       939
 -1      1630    3    0    2
 -2       727       422       732      1091
 -1      1631    3    0    1
 -2      1810       649      1904      1919
 -1      1632    3    0    1
 -2      1494      1409      1535      1562
 -1      1633    3    0    1
 -2       644      1616      1871       876
 -1      1634    3    0    1
 -2       441       195       440      1801
 -1      1635    3    0    1
 -2       404       645      1828       882
 -1      1636    3    0    1
 -2      1839      1701       843      1047
 -1      1637    3    0    1
 -2      1346      1524      1536      1644
 -1      1638    3    0    1
 -2       190      1356      1492      1844
 -1      1639    3    0    2
 -2       690       871       872      1259
 -1      1640    3    0    1
 -2      1601       833      1219      2028
 -1      1641    3    0    1
 -2       536       465      1458      1588
 -1      1642    3    0    2
 -2       750      1264       648      1142
 -1      1643    3    0    1
 -2      1658        41      1753      1891
 -1      1644    3    0    1
 -2       332      1524      1644      1873
 -1      1645    3    0    2
 -2      1263       259      1141      1264
 -1      1646    3    0    1
 -2      1605       666      1849      1928
 -1      1647    3    0    1
 -2      1466      1431      1709      1865
 -1      1648    3    0    2
 -2        52      1266       903      1265
 -1      1649    3    0    2
 -2        35      1066       124      1065
 -1      1650    3    0    1
 -2       188      1834      1086      1937
 -1      1651    3    0    1
 -2       409      1311      1633      1039
 -1      1652    3    0    1
 -2      1401      1364      1678      1683
 -1      1653    3    0    1
 -2       241      1603      1929      1041
 -1      1654    3    0    1
 -2       646      1963      1964      1313
 -1      1655    3    0    1
 -2      1833       257       914      1963
 -1      1656    3    0    1
 -2      1543      2000      2012      2020
 -1      1657    3    0    1
 -2      1464       659      1641      1067
 -1      1658    3    0    2
 -2       499      1324       497      1323
 -1      1659    3    0    1
 -2      1411      1619      1793      2029
 -1      1660    3    0    1
 -2       380       530      1751       916
 -1      1661    3    0    1
 -2       535       525      1640       872
 -1      1662    3    0    1
 -2       116      1556      1686      1178
 -1      1663    3    0    1
 -2      1601       697      1914      1219
 -1      1664    3    0    1
 -2        65      1531      1750      1160
 -1      1665    3    0    2
 -2      1053      1180       423      1054
 -1      1666    3    0    1
 -2      1780       494       883       965
 -1      1667    3    0    1
 -2       183      1368      1626      1732
 -1      1668    3    0    1
 -2       225       367       476      1408
 -1      1669    3    0    2
 -2       700      1224      1223       653
 -1      1670    3    0    2
 -2        49      1085      1086      1245
 -1      1671    3    0    1
 -2        99      1592      1687       986
 -1      1672    3    0    1
 -2      1941      1726      1955      2041
 -1      1673    3    0    2
 -2       972       971       430      1109
 -1      1674    3    0    1
 -2      1417      1434      1540      1595
 -1      1675    3    0    1
 -2      1842       362       979      1225
 -1      1676    3    0    1
 -2      1369      1416      1513      1662
 -1      1677    3    0    1
 -2       504       496      1671       951
 -1      1678    3    0    1
 -2      1454      1364      1594      1739
 -1      1679    3    0    1
 -2       133       132      1653      1733
 -1      1680    3    0    2
 -2       958       528       957      1184
 -1      1681    3    0    1
 -2      1835       506       868      1334
 -1      1682    3    0    2
 -2        61      1302       102      1301
 -1      1683    3    0    1
 -2      1431      1451      1602      1682
 -1      1684    3    0    1
 -2      1366       511      1408      1462
 -1      1685    3    0    1
 -2       653      1183      1868       700
 -1      1686    3    0    1
 -2      1595      1428      1686      1949
 -1      1687    3    0    1
 -2      1745      1440      1764      1812
 -1      1688    3    0    1
 -2      1464      1583      1070      1998
 -1      1689    3    0    1
 -2      1509       350      1575      1611
 -1      1690    3    0    1
 -2      1620      1962      1976      2033
 -1      1691    3    0    1
 -2      1350      1361      1449      1460
 -1      1692    3    0    1
 -2       263      1874      1919      1249
 -1      1693    3    0    2
 -2       707      1188       924      1187
 -1      1694    3    0    2
 -2       406      1174      1173       891
 -1      1695    3    0    2
 -2       707       433       997       998
 -1      1696    3    0    1
 -2      1559      1809      1972      2010
 -1      1697    3    0    2
 -2       851      1072       428      1071
 -1      1698    3    0    1
 -2        73       190      1844      1064
 -1      1699    3    0    1
 -2      1730       524      1904       889
 -1      1700    3    0    1
 -2       439         1       322      1537
 -1      1701    3    0    1
 -2       384      1406      1607      1071
 -1      1702    3    0    2
 -2      1168       953       497      1167
 -1      1703    3    0    1
 -2      1451      1370      1466      1709
 -1      1704    3    0    2
 -2      1073      1158       551      1074
 -1      1705    3    0    1
 -2        42      1582      1309      2048
 -1      1706    3    0    1
 -2      1674       709      1769       964
 -1      1707    3    0    1
 -2      1600      1777      1932      2010
 -1      1708    3    0    1
 -2      1390      1712      2008      2009
 -1      1709    3    0    2
 -2       662      1099      1155      1156
 -1      1710    3    0    2
 -2      1143      1190       361      1189
 -1      1711    3    0    1
 -2        14       487        50      1581
 -1      1712    3    0    1
 -2      1464       706      1062      1947
 -1      1713    3    0    2
 -2       494      1190       361       588
 -1      1714    3    0    1
 -2      1765        47      1805      1892
 -1      1715    3    0    1
 -2      1563      1377      1570      1635
 -1      1716    3    0    2
 -2       430       704       877       878
 -1      1717    3    0    1
 -2      1671       630       951       975
 -1      1718    3    0    2
 -2       664       660       983       984
 -1      1719    3    0    2
 -2      1049      1236       623      1050
 -1      1720    3    0    1
 -2      1363      1482      1523      1585
 -1      1721    3    0    1
 -2      1412      1418      1693      1754
 -1      1722    3    0    1
 -2      1356      1390      1784      2008
 -1      1723    3    0    1
 -2       328        92      1546      1648
 -1      1724    3    0    1
 -2      1358      1351      1415      1530
 -1      1725    3    0    1
 -2      1363      1527      1578      1585
 -1      1726    3    0    1
 -2      1715       265      1779       849
 -1      1727    3    0    1
 -2      1568       506      1591       868
 -1      1728    3    0    1
 -2      1601       655      1900      1301
 -1      1729    3    0    1
 -2      1914       540      1219      1241
 -1      1730    3    0    2
 -2       529       383       955       956
 -1      1731    3    0    1
 -2       389      1756      1918       923
 -1      1732    3    0    2
 -2       425      1002       419       827
 -1      1733    3    0    2
 -2       647      1266      1265       903
 -1      1734    3    0    1
 -2       482       466      1565      1579
 -1      1735    3    0    1
 -2       498      1915      1175      2021
 -1      1736    3    0    2
 -2       267       947      1277      1278
 -1      1737    3    0    1
 -2       125        54      1633      1311
 -1      1738    3    0    1
 -2       488       469      1873      1921
 -1      1739    3    0    2
 -2        44      1192       140       143
 -1      1740    3    0    1
 -2       221       557       288      1602
 -1      1741    3    0    1
 -2       185        39      1576      1171
 -1      1742    3    0    2
 -2      1190      1143       361      1144
 -1      1743    3    0    1
 -2      1638       678       953      1970
 -1      1744    3    0    2
 -2       648       846       845      1000
 -1      1745    3    0    1
 -2       550       217       335      1553
 -1      1746    3    0    1
 -2       279       215      1567      1743
 -1      1747    3    0    1
 -2       161        41      1564      1891
 -1      1748    3    0    2
 -2      1331        44      1191      1332
 -1      1749    3    0    1
 -2      1792      1670      1906      2021
 -1      1750    3    0    1
 -2      1658      1753      1882      1891
 -1      1751    3    0    2
 -2       243      1148       240       303
 -1      1752    3    0    2
 -2       493       498      1163      1164
 -1      1753    3    0    2
 -2       240       304       917      1268
 -1      1754    3    0    1
 -2       673       394      1599       898
 -1      1755    3    0    1
 -2       677      1710      1846       946
 -1      1756    3    0    1
 -2      1552        64      1747      2022
 -1      1757    3    0    1
 -2       396       673      1599       898
 -1      1758    3    0    1
 -2      1467      1412      1552      1702
 -1      1759    3    0    1
 -2      1593      1369      1625      1878
 -1      1760    3    0    1
 -2      1611      1402      1739      1795
 -1      1761    3    0    1
 -2      1552      1412      1693      1754
 -1      1762    3    0    1
 -2       624      1388      1134      2036
 -1      1763    3    0    1
 -2      1741       522       978      1994
 -1      1764    3    0    2
 -2       409      1040       747      1312
 -1      1765    3    0    2
 -2       659      1068      1067      1061
 -1      1766    3    0    1
 -2      1591      1442      1618      1728
 -1      1767    3    0    2
 -2      1039      1312        54      1040
 -1      1768    3    0    1
 -2      1803       433      1808      1121
 -1      1769    3    0    1
 -2       494      1599      1780      1189
 -1      1770    3    0    2
 -2       988       798      1291      1292
 -1      1771    3    0    1
 -2      1387        43      1623      2001
 -1      1772    3    0    1
 -2       153       187      1877       932
 -1      1773    3    0    1
 -2       401       397      1636      1877
 -1      1774    3    0    1
 -2      1473      1492      1788      1844
 -1      1775    3    0    1
 -2      1922       407      1191      1962
 -1      1776    3    0    1
 -2       639      1372      1928      2027
 -1      1777    3    0    1
 -2        40         9      1532      1551
 -1      1778    3    0    1
 -2      1674       554      1769      1902
 -1      1779    3    0    1
 -2      1418      1693      1754      1866
 -1      1780    3    0    1
 -2      1857       261      1874      1993
 -1      1781    3    0    1
 -2      1412      1587      1612      1702
 -1      1782    3    0    1
 -2      1349      1452      1532      1838
 -1      1783    3    0    1
 -2       647       686       904      1981
 -1      1784    3    0    1
 -2      1360      1514      1703      1735
 -1      1785    3    0    1
 -2      1593      1369      1662      1700
 -1      1786    3    0    2
 -2        56        52       903       904
 -1      1787    3    0    2
 -2       520       521      1025      1026
 -1      1788    3    0    1
 -2      1399       225      1408      1550
 -1      1789    3    0    2
 -2       857       528       858      1197
 -1      1790    3    0    1
 -2       398      1153       622      1842
 -1      1791    3    0    2
 -2       390      1098      1097      1206
 -1      1792    3    0    1
 -2      1507       878      2023      1335
 -1      1793    3    0    1
 -2       356       216       334      1910
 -1      1794    3    0    1
 -2        37        36      1571      1705
 -1      1795    3    0    2
 -2      1010       636       689      1009
 -1      1796    3    0    1
 -2      1412      1467      1587      1702
 -1      1797    3    0    2
 -2       940       889       524       890
 -1      1798    3    0    1
 -2      1359      1361      1440      1734
 -1      1799    3    0    2
 -2       741       411       893      1262
 -1      1800    3    0    2
 -2       293      1128      1118       264
 -1      1801    3    0    1
 -2       211      1525      1565      1804
 -1      1802    3    0    1
 -2       132      1653      1733      1791
 -1      1803    3    0    1
 -2      1653      1357      1711      1791
 -1      1804    3    0    2
 -2       897       139      1253      1254
 -1      1805    3    0    1
 -2      1496      1794      1962      1976
 -1      1806    3    0    1
 -2       183      1742      1744      1884
 -1      1807    3    0    1
 -2       335        86      1381      1415
 -1      1808    3    0    1
 -2      1407      1701      1087      1090
 -1      1809    3    0    1
 -2       376      1407      1875       840
 -1      1810    3    0    2
 -2        51       116      1177      1178
 -1      1811    3    0    1
 -2       420      1886      2007      1341
 -1      1812    3    0    1
 -2      1477      1706      1948      1965
 -1      1813    3    0    1
 -2       260      1912       894      1939
 -1      1814    3    0    1
 -2       448       199       447      1521
 -1      1815    3    0    1
 -2      1349      1452      1483      1532
 -1      1816    3    0    1
 -2       383       529      1770       956
 -1      1817    3    0    2
 -2       829       625       831      1322
 -1      1818    3    0    1
 -2        20       512       347      1550
 -1      1819    3    0    1
 -2      1346      1673      1824      1870
 -1      1820    3    0    2
 -2        60       180      1133      1134
 -1      1821    3    0    1
 -2       250      1692      1829      1916
 -1      1822    3    0    2
 -2       655       697      1005      1006
 -1      1823    3    0    1
 -2       555      1372      1115      2018
 -1      1824    3    0    2
 -2      1076       911       421       912
 -1      1825    3    0    1
 -2       417      1013      1913       698
 -1      1826    3    0    1
 -2      1770       529      1968      1988
 -1      1827    3    0    1
 -2      1364      1454      1683      1739
 -1      1828    3    0    1
 -2      1853      1692      1251      1995
 -1      1829    3    0    1
 -2      1727      1658      1753      1882
 -1      1830    3    0    1
 -2       185      1576       928      1171
 -1      1831    3    0    1
 -2      1349      1384      1452      1562
 -1      1832    3    0    1
 -2      1354      1369      1410      1647
 -1      1833    3    0    1
 -2      1744       183      1890      1092
 -1      1834    3    0    1
 -2       420       624      1095      2006
 -1      1835    3    0    1
 -2      1510      1714      1755      1789
 -1      1836    3    0    2
 -2       833      1220       697      1219
 -1      1837    3    0    1
 -2      1605      1849      1850      1107
 -1      1838    3    0    1
 -2      1388       624      1775      2006
 -1      1839    3    0    2
 -2      1051      1140       527      1139
 -1      1840    3    0    1
 -2      1696      1394      1832      1901
 -1      1841    3    0    1
 -2      1367      1348      1508      1589
 -1      1842    3    0    1
 -2        47      1397      1765      1805
 -1      1843    3    0    1
 -2      1354      1647      1669      1878
 -1      1844    3    0    1
 -2      1922       407      1962      1293
 -1      1845    3    0    1
 -2      1797      1818      1903      1909
 -1      1846    3    0    1
 -2      1345        62      1057      1185
 -1      1847    3    0    2
 -2       417       860       859      1014
 -1      1848    3    0    1
 -2       256       516      1450      1699
 -1      1849    3    0    1
 -2      1659      1695      1706      1201
 -1      1850    3    0    2
 -2       703       422      1091      1092
 -1      1851    3    0    1
 -2       116      1404      1533      1686
 -1      1852    3    0    1
 -2       548       546      1650      1100
 -1      1853    3    0    2
 -2       429       816       820       842
 -1      1854    3    0    1
 -2      1404      1417      1688      1776
 -1      1855    3    0    2
 -2       546       548      1099      1100
 -1      1856    3    0    2
 -2       705      1004       662       813
 -1      1857    3    0    2
 -2      1003      1300       705      1299
 -1      1858    3    0    2
 -2       630       976       711       952
 -1      1859    3    0    1
 -2       706       659      1464      1062
 -1      1860    3    0    1
 -2      1442       506      1591      1618
 -1      1861    3    0    2
 -2      1143      1190      1189       673
 -1      1862    3    0    1
 -2      1377      1490      1563      1614
 -1      1863    3    0    1
 -2       218       486       235      1654
 -1      1864    3    0    1
 -2      1396      1424      1615      1629
 -1      1865    3    0    1
 -2      1537      1382      1866      1920
 -1      1866    3    0    2
 -2       271      1118      1117       264
 -1      1867    3    0    2
 -2       567      1260       525       871
 -1      1868    3    0    2
 -2       681       988       437       798
 -1      1869    3    0    1
 -2       543       213       331      1903
 -1      1870    3    0    1
 -2      1353      1490      1614      1685
 -1      1871    3    0    2
 -2       775      1294       780       407
 -1      1872    3    0    2
 -2       657      1012       421      1011
 -1      1873    3    0    1
 -2       641      1474      1917       854
 -1      1874    3    0    2
 -2       261      1264       259      1263
 -1      1875    3    0    1
 -2       271      1486      1667      1117
 -1      1876    3    0    2
 -2      1247       424       895      1248
 -1      1877    3    0    1
 -2      1695       276      1706      1013
 -1      1878    3    0    1
 -2       277      1695      1706       960
 -1      1879    3    0    1
 -2      1723      1659      1011      1201
 -1      1880    3    0    2
 -2       528      1183       957      1184
 -1      1881    3    0    2
 -2      1182       653      1181      1224
 -1      1882    3    0    1
 -2       418      1241      1841       701
 -1      1883    3    0    2
 -2      1186      1057       426      1058
 -1      1884    3    0    1
 -2       192       165      1658      2047
 -1      1885    3    0    2
 -2       661      1008       803      1108
 -1      1886    3    0    2
 -2       967      1016      1015       106
 -1      1887    3    0    1
 -2      1835      1807       987      1291
 -1      1888    3    0    1
 -2       423      1774       933      2031
 -1      1889    3    0    1
 -2      1841       540      1914      1241
 -1      1890    3    0    1
 -2      1659       542      1889      1958
 -1      1891    3    0    2
 -2       733       423       715      1054
 -1      1892    3    0    1
 -2       633       678      1758       837
 -1      1893    3    0    1
 -2       422       703      1890      1092
 -1      1894    3    0    1
 -2       696       650      1750      1162
 -1      1895    3    0    1
 -2      1507       545       841      1971
 -1      1896    3    0    2
 -2       703       962       836       961
 -1      1897    3    0    2
 -2       644      1246      1245       405
 -1      1898    3    0    1
 -2      1539      1642      1887      1983
 -1      1899    3    0    2
 -2       291       270       292      1202
 -1      1900    3    0    2
 -2      1011      1202       657      1012
 -1      1901    3    0    1
 -2      1749      1489      1975      1984
 -1      1902    3    0    1
 -2       703       422      1890       835
 -1      1903    3    0    2
 -2       734      1326       650       738
 -1      1904    3    0    1
 -2        65        59      1531      1160
 -1      1905    3    0    1
 -2      1834       644      1871      1976
 -1      1906    3    0    1
 -2       696      1750      1887      1162
 -1      1907    3    0    2
 -2        59        65      1159      1160
 -1      1908    3    0    1
 -2      1489       696      1887      1162
 -1      1909    3    0    1
 -2      1750       696      1861      1160
 -1      1910    3    0    1
 -2       697      1601       833      1219
 -1      1911    3    0    1
 -2       643      1547      1860      2034
 -1      1912    3    0    1
 -2      1517      1574      2015      2045
 -1      1913    3    0    2
 -2       639      1204       670      1031
 -1      1914    3    0    1
 -2       627       676      1670      1329
 -1      1915    3    0    1
 -2       623       411      1736      1049
 -1      1916    3    0    1
 -2      1019       370      1955      2041
 -1      1917    3    0    1
 -2      1645       184      1087      1090
 -1      1918    3    0    1
 -2      1949      1428      2024      2025
 -1      1919    3    0    1
 -2      1912       411       894      1939
 -1      1920    3    0    2
 -2       527      1052      1051       373
 -1      1921    3    0    2
 -2      1039      1312      1311        54
 -1      1922    3    0    2
 -2      1236      1049       372      1050
 -1      1923    3    0    1
 -2       527      1622      1720       970
 -1      1924    3    0    1
 -2       686      1790       904      1981
 -1      1925    3    0    2
 -2       123       928       927      1171
 -1      1926    3    0    1
 -2       648      1263      1840      1141
 -1      1927    3    0    2
 -2       687      1264      1263       648
 -1      1928    3    0    1
 -2      1475      1741       978      1994
 -1      1929    3    0    2
 -2       120        54       119      1040
 -1      1930    3    0    2
 -2       774      1314       779       393
 -1      1931    3    0    2
 -2       371      1111      1047      1112
 -1      1932    3    0    1
 -2       259      1195      1475       866
 -1      1933    3    0    2
 -2       305      1174       891       241
 -1      1934    3    0    1
 -2      1787        56      1790       904
 -1      1935    3    0    2
 -2       415       679       863       864
 -1      1936    3    0    1
 -2       638      1503       899      1979
 -1      1937    3    0    1
 -2       648       999      1840       687
 -1      1938    3    0    1
 -2      1638       502      1782      1215
 -1      1939    3    0    1
 -2      1730      1522      1904      1940
 -1      1940    3    0    2
 -2       750      1000       648       752
 -1      1941    3    0    1
 -2      1443      1522      1730      1940
 -1      1942    3    0    1
 -2       521       520      1355      1026
 -1      1943    3    0    1
 -2      1013      1913       698      1982
 -1      1944    3    0    1
 -2      1790      1787       904      1981
 -1      1945    3    0    1
 -2       686       647      1026      1981
 -1      1946    3    0    1
 -2      1464       548      1062      1067
 -1      1947    3    0    1
 -2      1080      1681      2012      2020
 -1      1948    3    0    1
 -2      1655       389      1768      1953
 -1      1949    3    0    1
 -2       642      1916      1692      1251
 -1      1950    3    0    2
 -2      1250      1131       244      1132
 -1      1951    3    0    2
 -2       179       177        60      1133
 -1      1952    3    0    1
 -2      1840      1810       999      1931
 -1      1953    3    0    1
 -2       504      1651      1671       974
 -1      1954    3    0    2
 -2       583      1168       954       497
 -1      1955    3    0    2
 -2       504       496       973       974
 -1      1956    3    0    1
 -2       648      1624      1840       845
 -1      1957    3    0    1
 -2      1841      1913      1105      1988
 -1      1958    3    0    2
 -2       711       630       762       900
 -1      1959    3    0    1
 -2       432       663      1373      1953
 -1      1960    3    0    1
 -2      1372       639      1203      2027
 -1      1961    3    0    2
 -2       130      1135       907      1136
 -1      1962    3    0    1
 -2      1915      1681      1080      2020
 -1      1963    3    0    2
 -2       414       886       712       755
 -1      1964    3    0    1
 -2      1437       240      1446       918
 -1      1965    3    0    1
 -2       493       498      1915      1080
 -1      1966    3    0    2
 -2       395       767       772       966
 -1      1967    3    0    1
 -2       135        45      1846       946
 -1      1968    3    0    1
 -2      1195      1475       685      1994
 -1      1969    3    0    1
 -2       520      1355      1026      1307
 -1      1970    3    0    1
 -2      1586      1687      1289      2022
 -1      1971    3    0    2
 -2       588       361       587      1190
 -1      1972    3    0    1
 -2      1704      1857      1993      1994
 -1      1973    3    0    1
 -2      1849      1426       879      1145
 -1      1974    3    0    2
 -2       361      1144       587      1190
 -1      1975    3    0    2
 -2       677      1150       628       768
 -1      1976    3    0    1
 -2        61       104      1601      1301
 -1      1977    3    0    1
 -2      1674      1319       709      2051
 -1      1978    3    0    1
 -2      1533      1686      1752      2024
 -1      1979    3    0    2
 -2       679      1066      1065      1193
 -1      1980    3    0    2
 -2      1066       124      1065      1193
 -1      1981    3    0    1
 -2      1574      1517      1712      2045
 -1      1982    3    0    2
 -2      1037       402      1038      1045
 -1      1983    3    0    2
 -2      1083      1152       400      1151
 -1      1984    3    0    2
 -2       301      1230       242       302
 -1      1985    3    0    2
 -2      1313       360      1043      1314
 -1      1986    3    0    1
 -2        44      1401      1796      1962
 -1      1987    3    0    1
 -2      1674        73      1319      2051
 -1      1988    3    0    1
 -2      1914      1841      1241      2050
 -1      1989    3    0    1
 -2      1677       402      1877      1045
 -1      1990    3    0    2
 -2       518       366       875       876
 -1      1991    3    0    2
 -2       645       404       881       882
 -1      1992    3    0    1
 -2       257       251      1833      1101
 -1      1993    3    0    1
 -2       145      1572      1848      1967
 -1      1994    3    0    1
 -2      1616       518      1871       876
 -1      1995    3    0    2
 -2       402       643      1037      1038
 -1      1996    3    0    1
 -2      1173      1929       258      2042
 -1      1997    3    0    1
 -2      1913       540      1105      1209
 -1      1998    3    0    2
 -2       643      1018       402       787
 -1      1999    3    0    1
 -2      1829       403      1833      1101
 -1      2000    3    0    1
 -2        49       188      1834      1086
 -1      2001    3    0    2
 -2       188        49      1085      1086
 -1      2002    3    0    1
 -2       640       710      1571      1233
 -1      2003    3    0    1
 -2      1828       645      1871       882
 -1      2004    3    0    2
 -2      1033      1232       645      1034
 -1      2005    3    0    1
 -2       674      1446      1847      1305
 -1      2006    3    0    2
 -2       622       980       398       979
 -1      2007    3    0    2
 -2      1208       993       281       994
 -1      2008    3    0    2
 -2       985       652       986      1289
 -1      2009    3    0    2
 -2        42        43      1027      1028
 -1      2010    3    0    2
 -2      1083      1152       363      1084
 -1      2011    3    0    1
 -2      1842      1916      1029      1153
 -1      2012    3    0    2
 -2       953      1168       954       633
 -1      2013    3    0    2
 -2       790      1252       399       794
 -1      2014    3    0    1
 -2      1491      1729      1742      1996
 -1      2015    3    0    2
 -2       810       660       806       983
 -1      2016    3    0    2
 -2       153      1222       189       150
 -1      2017    3    0    2
 -2       791       397       795       931
 -1      2018    3    0    2
 -2       692       850       742       412
 -1      2019    3    0    1
 -2       854      1474      1255      1973
 -1      2020    3    0    2
 -2       603       505       605      1116
 -1      2021    3    0    1
 -2       965       629      1946      1961
 -1      2022    3    0    2
 -2      1103      1116       710      1104
 -1      2023    3    0    1
 -2       416      1875       840      1247
 -1      2024    3    0    2
 -2       636      1010       689       713
 -1      2025    3    0    2
 -2       312       247       311      1256
 -1      2026    3    0    2
 -2       547      1145       879      1146
 -1      2027    3    0    1
 -2       692      1421      1715       849
 -1      2028    3    0    1
 -2       248      1852      1917       991
 -1      2029    3    0    2
 -2       773       628       768      1176
 -1      2030    3    0    2
 -2       645       404       786       881
 -1      2031    3    0    1
 -2       661      1145      1426       708
 -1      2032    3    0    1
 -2      1902       554      1205      1991
 -1      2033    3    0    1
 -2       390       554      1769       964
 -1      2034    3    0    2
 -2      1271       660       925      1272
 -1      2035    3    0    1
 -2       426       694      1345      1185
 -1      2036    3    0    1
 -2      1777      1421      1239      2010
 -1      2037    3    0    2
 -2       827       419       425       873
 -1      2038    3    0    1
 -2      1902      1205      1952      1991
 -1      2039    3    0    2
 -2       805      1206       434      1098
 -1      2040    3    0    2
 -2       909       434       869       910
 -1      2041    3    0    1
 -2      1834      1616      1086      1937
 -1      2042    3    0    2
 -2       665       910       434       909
 -1      2043    3    0    2
 -2       554      1206       390      1205
 -1      2044    3    0    2
 -2       546       548       613      1099
 -1      2045    3    0    1
 -2       553       547      1529       984
 -1      2046    3    0    2
 -2       664      1272       660      1271
 -1      2047    3    0    1
 -2       660       664      1529       984
 -1      2048    3    0    1
 -2      1820      1651      1823      1999
 -1      2049    3    0    1
 -2      1508      1589      1651      1999
 -1      2050    3    0    2
 -2       924       433       707       923
 -1      2051    3    0    1
 -2      1899      1868      1183      2011
 -1      2052    3    0    2
 -2       281       315       316      1208
 -1      2053    3    0    2
 -2        66      1295       995      1296
 -1      2054    3    0    2
 -2       993      1208       663       994
 -1      2055    3    0    2
 -2       165      1300        71      1299
 -1      2056    3    0    2
 -2       662       818      1099      1156
 -1      2057    3    0    1
 -2      1617       280      1337      2052
 -1      2058    3    0    1
 -2       647      1800      2030      2037
 -1      2059    3    0    2
 -2       841       936       429       842
 -1      2060    3    0    1
 -2       266      1913      1926       859
 -1      2061    3    0    1
 -2       655       424      1900      1301
 -1      2062    3    0    1
 -2       372       371      1839       843
 -1      2063    3    0    1
 -2      1872       675      1933      1331
 -1      2064    3    0    2
 -2       658       906       429       905
 -1      2065    3    0    1
 -2      1624       259      1809      1141
 -1      2066    3    0    2
 -2       873       419       874       921
 -1      2067    3    0    1
 -2       624      1388      1775      1134
 -1      2068    3    0    1
 -2      1616      1772      1123      1997
 -1      2069    3    0    2
 -2       384       615       617       852
 -1      2070    3    0    1
 -2       161        36      1571      1271
 -1      2071    3    0    2
 -2       267       922       319       320
 -1      2072    3    0    1
 -2      1868       653      1181      1951
 -1      2073    3    0    1
 -2       180        60      1775      1134
 -1      2074    3    0    1
 -2      1653      1572      1711      1848
 -1      2075    3    0    1
 -2      1674      1411      1793      2051
 -1      2076    3    0    1
 -2       529       383      1770      1094
 -1      2077    3    0    2
 -2       267       319       947      1278
 -1      2078    3    0    1
 -2       528      1586      1785      1989
 -1      2079    3    0    1
 -2       383      1607      1770      1094
 -1      2080    3    0    1
 -2      1571        36      1233      1271
 -1      2081    3    0    2
 -2       178        62       176      1058
 -1      2082    3    0    2
 -2       817       659       706      1061
 -1      2083    3    0    1
 -2      1345      1905      1185      1990
 -1      2084    3    0    1
 -2      1362      1389      1462      1608
 -1      2085    3    0    1
 -2      1512      1519      1691      1804
 -1      2086    3    0    1
 -2       187        33      1677      1045
 -1      2087    3    0    1
 -2       385      1507      1665      1335
 -1      2088    3    0    1
 -2       221       473      1593      1597
 -1      2089    3    0    1
 -2      1391      1375      1691      1732
 -1      2090    3    0    1
 -2      1391      1405      1448      1691
 -1      2091    3    0    2
 -2      1051      1140       413      1052
 -1      2092    3    0    1
 -2      1645      1639      1652      1894
 -1      2093    3    0    1
 -2      1852      1773      1957      2027
 -1      2094    3    0    1
 -2      1387        43      1523      1623
 -1      2095    3    0    1
 -2       534        11        93      1588
 -1      2096    3    0    1
 -2      1587       534      1588      1612
 -1      2097    3    0    1
 -2      1472      1376      1542      1648
 -1      2098    3    0    2
 -2       673      1190       771      1144
 -1      2099    3    0    1
 -2      1556       693      1622      1949
 -1      2100    3    0    1
 -2      1564        41      1658      1891
 -1      2101    3    0    1
 -2       544       215       333      1567
 -1      2102    3    0    2
 -2       889       940       939       635
 -1      2103    3    0    1
 -2         2       442        84      1737
 -1      2104    3    0    1
 -2      1365      1584      1781      1789
 -1      2105    3    0    1
 -2       192      1658      1907      2047
 -1      2106    3    0    1
 -2       428      1406      1071      1935
 -1      2107    3    0    1
 -2      1769       390      1281      2045
 -1      2108    3    0    1
 -2      1641       659      1317      2052
 -1      2109    3    0    1
 -2        89       511       346      1408
 -1      2110    3    0    2
 -2       729       656       718      1138
 -1      2111    3    0    1
 -2      1615      1396      1629      1718
 -1      2112    3    0    1
 -2      1445      1365      1584      1781
 -1      2113    3    0    1
 -2       556       473      1597      1662
 -1      2114    3    0    1
 -2        75      1669      1709      1807
 -1      2115    3    0    1
 -2       430       704       878      2023
 -1      2116    3    0    2
 -2       566      1180       568       380
 -1      2117    3    0    1
 -2      1460      1350      1544      1813
 -1      2118    3    0    1
 -2        65      1470      1531      1806
 -1      2119    3    0    1
 -2      1392      1720      2038      2054
 -1      2120    3    0    1
 -2      1475       261      1857      1195
 -1      2121    3    0    1
 -2       405       644      1834      1245
 -1      2122    3    0    1
 -2       181        98      1826      1905
 -1      2123    3    0    2
 -2       682      1084       789       400
 -1      2124    3    0    1
 -2      1714      1468      1755      1789
 -1      2125    3    0    1
 -2       352      1454      1590      1783
 -1      2126    3    0    2
 -2       398      1030       792       788
 -1      2127    3    0    1
 -2       549       217       282      1553
 -1      2128    3    0    2
 -2       927       123      1171      1172
 -1      2129    3    0    1
 -2       494       360      1609      1189
 -1      2130    3    0    1
 -2      1454       352      1590      1664
 -1      2131    3    0    1
 -2       999       521      1355      1931
 -1      2132    3    0    1
 -2       534       326      1588      1612
 -1      2133    3    0    1
 -2      1455      1482      1554      1694
 -1      2134    3    0    1
 -2      1615       180      1629      1854
 -1      2135    3    0    1
 -2      1766      1501      1803      2035
 -1      2136    3    0    1
 -2       463      1580      1612      1760
 -1      2137    3    0    1
 -2      1331        44      1872      1191
 -1      2138    3    0    1
 -2       193       439       322      1537
 -1      2139    3    0    1
 -2       334       356      1910      1921
 -1      2140    3    0    2
 -2       953      1168       633      1167
 -1      2141    3    0    1
 -2       219       552       285      1530
 -1      2142    3    0    1
 -2      1396      1424      1629      1718
 -1      2143    3    0    1
 -2      1447      1481      1679      1735
 -1      2144    3    0    1
 -2        83      1611      1783      1795
 -1      2145    3    0    2
 -2       851      1072      1071       384
 -1      2146    3    0    1
 -2        14      1581      1680      1827
 -1      2147    3    0    2
 -2       582      1284       496       585
 -1      2148    3    0    1
 -2       182      1539      1211      1983
 -1      2149    3    0    1
 -2       382      1573      1716      1297
 -1      2150    3    0    1
 -2       203      1429      1453      1672
 -1      2151    3    0    1
 -2       487       235      1654      1827
 -1      2152    3    0    2
 -2       250      1154       248      1153
 -1      2153    3    0    1
 -2       511       346      1462      1663
 -1      2154    3    0    1
 -2      1376      1393      1528      1854
 -1      2155    3    0    1
 -2       540      1913      1914      1209
 -1      2156    3    0    1
 -2        64        99      1352      1687
 -1      2157    3    0    1
 -2      1511      1528      1577      1761
 -1      2158    3    0    1
 -2       343      1389      1430      1738
 -1      2159    3    0    1
 -2      1512      1375      1519      1804
 -1      2160    3    0    1
 -2      1362      1370      1466      1608
 -1      2161    3    0    2
 -2       287      1214       247       311
 -1      2162    3    0    1
 -2      1727      1639      1731      1816
 -1      2163    3    0    1
 -2      1556      1879      1932      2044
 -1      2164    3    0    1
 -2      1415      1385      1487      1516
 -1      2165    3    0    1
 -2      1704      1782       885      1215
 -1      2166    3    0    1
 -2      1617       280       905      1956
 -1      2167    3    0    1
 -2      1776      1484      1831      1896
 -1      2168    3    0    1
 -2      1476      1505      1884      1888
 -1      2169    3    0    1
 -2      1811      1792      1906      2021
 -1      2170    3    0    2
 -2       382      1298       378      1297
 -1      2171    3    0    1
 -2      1417      1404      1533      1776
 -1      2172    3    0    1
 -2      1467      1412      1587      1631
 -1      2173    3    0    2
 -2       798       868       437       681
 -1      2174    3    0    1
 -2       180      1615      1629      1718
 -1      2175    3    0    1
 -2      1295       192      1526      2047
 -1      2176    3    0    1
 -2        74         4       447      1549
 -1      2177    3    0    2
 -2       628      1150       773       768
 -1      2178    3    0    1
 -2      1386      1429      1719      1759
 -1      2179    3    0    1
 -2       516         2        84      1699
 -1      2180    3    0    1
 -2       183      1890      1092      1211
 -1      2181    3    0    1
 -2       409      1111      1741       688
 -1      2182    3    0    2
 -2      1085       405      1086      1245
 -1      2183    3    0    1
 -2      1369      1416      1662      1700
 -1      2184    3    0    1
 -2      1365      1510      1654      1755
 -1      2185    3    0    1
 -2      1485       835      1983      1984
 -1      2186    3    0    1
 -2      1471       625      1770      1859
 -1      2187    3    0    1
 -2      1461      1349      1494      1562
 -1      2188    3    0    2
 -2       317       906       275       856
 -1      2189    3    0    1
 -2       433      1768      1803      1808
 -1      2190    3    0    1
 -2        60       180      1629      1718
 -1      2191    3    0    1
 -2         4      1515      1521      1549
 -1      2192    3    0    1
 -2        99      1592       986      1996
 -1      2193    3    0    1
 -2      1683      1675      1739      1799
 -1      2194    3    0    1
 -2      1675      1739      1799      1856
 -1      2195    3    0    1
 -2      1357      1465      1727      1753
 -1      2196    3    0    1
 -2       125      1633      1194      1311
 -1      2197    3    0    1
 -2        11       534       326      1588
 -1      2198    3    0    1
 -2      1587      1467      1631      1718
 -1      2199    3    0    1
 -2       153       189      1459      1465
 -1      2200    3    0    1
 -2        82      1430      1534      1663
 -1      2201    3    0    1
 -2       622      1829      1842      1153
 -1      2202    3    0    1
 -2      1369      1593      1597      1647
 -1      2203    3    0    1
 -2      1792      1710      1811      1821
 -1      2204    3    0    1
 -2        18       349      1449      1453
 -1      2205    3    0    2
 -2       529      1322       619      1093
 -1      2206    3    0    1
 -2       212      1472      1542      1648
 -1      2207    3    0    1
 -2       259      1475      1624      1912
 -1      2208    3    0    1
 -2      1447      1359      1745      1764
 -1      2209    3    0    1
 -2      1484      1404      1533      1755
 -1      2210    3    0    1
 -2      1415      1351      1487      1530
 -1      2211    3    0    1
 -2       349      1361      1449      1453
 -1      2212    3    0    1
 -2       187       153      1459      1465
 -1      2213    3    0    1
 -2       456       203       204      1429
 -1      2214    3    0    1
 -2       251      1828      1829      1853
 -1      2215    3    0    1
 -2      1387      1455      1479      1798
 -1      2216    3    0    1
 -2      1444      1493      1567      1743
 -1      2217    3    0    2
 -2       248      1030      1029      1154
 -1      2218    3    0    1
 -2       245       503      1483      1551
 -1      2219    3    0    2
 -2      1053      1180       380      1179
 -1      2220    3    0    1
 -2       624       420      1775      1886
 -1      2221    3    0    1
 -2       153       187      1459      1677
 -1      2222    3    0    1
 -2       358        18        32      1453
 -1      2223    3    0    1
 -2      1675      1554      1694      1798
 -1      2224    3    0    1
 -2       225       512       253      1550
 -1      2225    3    0    1
 -2      1633        72      1645      1701
 -1      2226    3    0    1
 -2       337      1510      1654      1827
 -1      2227    3    0    1
 -2       204       456      1429      1672
 -1      2228    3    0    1
 -2      1659      1889      1075      1965
 -1      2229    3    0    1
 -2      1393      1376      1472      1648
 -1      2230    3    0    1
 -2      1366      1462      1578      1817
 -1      2231    3    0    1
 -2       511        89        90      1408
 -1      2232    3    0    1
 -2      1609       494      1780       965
 -1      2233    3    0    1
 -2       185      1456      1494      1535
 -1      2234    3    0    1
 -2      1483      1398      1719      1759
 -1      2235    3    0    1
 -2       210       537       272      1433
 -1      2236    3    0    1
 -2      1513       199      1521      1549
 -1      2237    3    0    1
 -2      1350      1453      1672      1813
 -1      2238    3    0    1
 -2       231       516       256      1699
 -1      2239    3    0    2
 -2       632       907      1135      1136
 -1      2240    3    0    1
 -2       553      1529      1849      2018
 -1      2241    3    0    1
 -2       361      1780      1143      1189
 -1      2242    3    0    1
 -2      1433      1393      1615      1629
 -1      2243    3    0    1
 -2       452       451      1644      1870
 -1      2244    3    0    1
 -2      1352      1371      1382      1506
 -1      2245    3    0    1
 -2      1514      1400      1570      1614
 -1      2246    3    0    1
 -2      1675      1554      1683      1739
 -1      2247    3    0    1
 -2       627      1446      1681      2003
 -1      2248    3    0    2
 -2       423      1180       715      1054
 -1      2249    3    0    1
 -2      1456        39      1508      1576
 -1      2250    3    0    1
 -2      1379      1457      1493      1858
 -1      2251    3    0    1
 -2      1404      1417      1595      1688
 -1      2252    3    0    1
 -2       644      1616      1834      1871
 -1      2253    3    0    1
 -2      1656       365      1035      2004
 -1      2254    3    0    2
 -2       364       980       979       362
 -1      2255    3    0    1
 -2      1466      1709      1807      1865
 -1      2256    3    0    1
 -2      1828       404      1853      1033
 -1      2257    3    0    2
 -2       401      1200      1199       397
 -1      2258    3    0    1
 -2      1406      1607      1071      1935
 -1      2259    3    0    1
 -2      1560      1438      1579      1673
 -1      2260    3    0    1
 -2      1696      1394      1762      1832
 -1      2261    3    0    1
 -2       663       432      1373       993
 -1      2262    3    0    1
 -2      1483        40      1532      1551
 -1      2263    3    0    1
 -2      1430      1389      1534      1663
 -1      2264    3    0    1
 -2        36       161      1564      1891
 -1      2265    3    0    2
 -2       518       888       366       887
 -1      2266    3    0    1
 -2      1424      1396      1433      1458
 -1      2267    3    0    1
 -2      1430      1389      1717      1738
 -1      2268    3    0    1
 -2      1357      1639      1711      1894
 -1      2269    3    0    1
 -2      1838      1409      1845      1876
 -1      2270    3    0    2
 -2       637       886       414       755
 -1      2271    3    0    1
 -2      1647      1410      1669      1960
 -1      2272    3    0    2
 -2      1131      1250       244      1249
 -1      2273    3    0    2
 -2       653       958       957      1184
 -1      2274    3    0    1
 -2      1539      1438      1642      1707
 -1      2275    3    0    1
 -2      1434      1346      1540      1806
 -1      2276    3    0    1
 -2        62      1345      1905      1185
 -1      2277    3    0    1
 -2      1429      1350      1453      1672
 -1      2278    3    0    1
 -2       362       364      1636      1842
 -1      2279    3    0    1
 -2      1805      1435      1892      2055
 -1      2280    3    0    1
 -2      1527      1413      1623      1817
 -1      2281    3    0    1
 -2      1456        39      1502      1508
 -1      2282    3    0    1
 -2       132       133      1374      1733
 -1      2283    3    0    1
 -2      1416      1347      1504      1513
 -1      2284    3    0    1
 -2       361      1721      1780       883
 -1      2285    3    0    1
 -2       240      1880       918      1946
 -1      2286    3    0    1
 -2      1373       663      1655      1953
 -1      2287    3    0    1
 -2      1904      1730      1940      1169
 -1      2288    3    0    1
 -2       417      1926      1968      1988
 -1      2289    3    0    1
 -2      1599       186       898      1218
 -1      2290    3    0    1
 -2       328        91       537      1546
 -1      2291    3    0    1
 -2       649      1810      1874      1919
 -1      2292    3    0    1
 -2      1351      1356      1383      1390
 -1      2293    3    0    1
 -2      1382      1506      1643      1836
 -1      2294    3    0    1
 -2       464      1448      1519      1691
 -1      2295    3    0    1
 -2       226       358       238      1361
 -1      2296    3    0    2
 -2      1216       885       375      1215
 -1      2297    3    0    1
 -2       210       536       465      1458
 -1      2298    3    0    1
 -2       337       486      1654      1867
 -1      2299    3    0    1
 -2      1478      1629      1631      1718
 -1      2300    3    0    2
 -2       496      1284       973      1283
 -1      2301    3    0    1
 -2      1500      1436      1838      1876
 -1      2302    3    0    1
 -2       273       212      1542      1648
 -1      2303    3    0    1
 -2       238       226      1361      1734
 -1      2304    3    0    1
 -2      1433      1376      1458      1615
 -1      2305    3    0    1
 -2      1606      1393      1615      1854
 -1      2306    3    0    1
 -2      1363      1399      1408      1441
 -1      2307    3    0    2
 -2       545       842       385       841
 -1      2308    3    0    1
 -2       137       186      1572      1733
 -1      2309    3    0    1
 -2      1724      1696      1876      1394
 -1      2310    3    0    1
 -2       233       209      1448      1519
 -1      2311    3    0    1
 -2      1745      1440      1812      1821
 -1      2312    3    0    1
 -2       227       254       368      1575
 -1      2313    3    0    1
 -2      1362      1462      1604      1608
 -1      2314    3    0    1
 -2      1666      1698      1779      1127
 -1      2315    3    0    1
 -2       537       272      1433      1546
 -1      2316    3    0    2
 -2        43       152        42      1027
 -1      2317    3    0    1
 -2       153       187      1677      1877
 -1      2318    3    0    1
 -2      1846       677       946      1149
 -1      2319    3    0    1
 -2      1689      1543      1933      2059
 -1      2320    3    0    2
 -2       976       951       496       952
 -1      2321    3    0    1
 -2       478       490      1703      1740
 -1      2322    3    0    1
 -2        99        64      1352      1420
 -1      2323    3    0    1
 -2      1844        73      1064      1319
 -1      2324    3    0    1
 -2      1580      1587      1612      1760
 -1      2325    3    0    1
 -2      1423       399      1442      1917
 -1      2326    3    0    1
 -2       335        80       550      1381
 -1      2327    3    0    1
 -2      1437       674      1847      1929
 -1      2328    3    0    1
 -2      1315      1905       181      2050
 -1      2329    3    0    2
 -2      1077      1234      1233        36
 -1      2330    3    0    1
 -2      1395      1545      1634      1909
 -1      2331    3    0    1
 -2      1404      1417      1533      1752
 -1      2332    3    0    1
 -2      1601       104      1006      1301
 -1      2333    3    0    1
 -2       633       953      1167      2039
 -1      2334    3    0    1
 -2       690      1640      1667      1698
 -1      2335    3    0    1
 -2      1675      1554      1739      1851
 -1      2336    3    0    1
 -2      1572      1677      1848      1967
 -1      2337    3    0    1
 -2      1587      1580      1702      1760
 -1      2338    3    0    1
 -2       675       990      1933      2059
 -1      2339    3    0    1
 -2      1890       703       835       961
 -1      2340    3    0    1
 -2      1645      1791      1815      1894
 -1      2341    3    0    1
 -2       359       230       353      1627
 -1      2342    3    0    1
 -2       353       359      1627      1703
 -1      2343    3    0    1
 -2      1451      1431      1466      1608
 -1      2344    3    0    1
 -2      1432        70      1553      1567
 -1      2345    3    0    1
 -2      1810      1857      1874      1919
 -1      2346    3    0    1
 -2      1372      1571      1897      1103
 -1      2347    3    0    1
 -2      1756       389      1918      1953
 -1      2348    3    0    1
 -2        24        26       464      1519
 -1      2349    3    0    1
 -2        67        66      1907       995
 -1      2350    3    0    1
 -2        35       125      1771      1065
 -1      2351    3    0    1
 -2       203       456       325      1429
 -1      2352    3    0    1
 -2      1370      1362      1378      1608
 -1      2353    3    0    1
 -2      1515      1358      1530      1788
 -1      2354    3    0    2
 -2       681       988       798      1291
 -1      2355    3    0    1
 -2      1579      1560      1673      1767
 -1      2356    3    0    1
 -2       542      1491      1889       961
 -1      2357    3    0    1
 -2       442       195       196      1737
 -1      2358    3    0    1
 -2      1388      1425      1716      1869
 -1      2359    3    0    1
 -2       281      1373      1855       993
 -1      2360    3    0    2
 -2       266      1182      1181      1224
 -1      2361    3    0    1
 -2      1362      1389      1431      1717
 -1      2362    3    0    1
 -2       448         4      1521      1549
 -1      2363    3    0    1
 -2       703      1744      1889      1890
 -1      2364    3    0    2
 -2       645      1232       786      1034
 -1      2365    3    0    2
 -2       750      1264       752       648
 -1      2366    3    0    1
 -2      1485      1890       835      1958
 -1      2367    3    0    2
 -2      1001      1298      1002       425
 -1      2368    3    0    1
 -2        61       108      1601      1748
 -1      2369    3    0    1
 -2      1914      1601      1219      2028
 -1      2370    3    0    1
 -2      1376      1393      1433      1648
 -1      2371    3    0    2
 -2       579       501       581      1170
 -1      2372    3    0    1
 -2      1372       639      1032      1203
 -1      2373    3    0    1
 -2      1443      1522      1787      1790
 -1      2374    3    0    1
 -2      1597       221      1602      1682
 -1      2375    3    0    1
 -2        93       536      1458      1588
 -1      2376    3    0    2
 -2       806      1272       660       810
 -1      2377    3    0    1
 -2       417      1926      1927      1968
 -1      2378    3    0    1
 -2       191       174      1569      1628
 -1      2379    3    0    1
 -2       284      1426      1598      1630
 -1      2380    3    0    1
 -2      1680      1365      1781      1789
 -1      2381    3    0    1
 -2      1376      1433      1458      1546
 -1      2382    3    0    1
 -2      1647        75      1669      1709
 -1      2383    3    0    1
 -2      1393      1528      1606      1761
 -1      2384    3    0    2
 -2      1053      1180      1179       423
 -1      2385    3    0    1
 -2      1399      1441      1482      1694
 -1      2386    3    0    1
 -2       536        11       465      1588
 -1      2387    3    0    1
 -2      1482      1455      1585      1694
 -1      2388    3    0    1
 -2      1331      1933      2055      2059
 -1      2389    3    0    1
 -2      1375      1512      1519      1691
 -1      2390    3    0    1
 -2       115       184      1645      1652
 -1      2391    3    0    1
 -2      1361      1359      1380      1734
 -1      2392    3    0    2
 -2      1073      1158      1157       551
 -1      2393    3    0    2
 -2       501      1010       581      1170
 -1      2394    3    0    1
 -2      1555      1397      1763      1765
 -1      2395    3    0    1
 -2      1699      1450      1713      1737
 -1      2396    3    0    1
 -2       189      1459      1465      1705
 -1      2397    3    0    1
 -2      1380       348      1734      1883
 -1      2398    3    0    2
 -2       650      1326      1159      1325
 -1      2399    3    0    1
 -2       403      1656      1829      1833
 -1      2400    3    0    1
 -2      1380      1734      1764      1883
 -1      2401    3    0    1
 -2      1499      1476      1506      1884
 -1      2402    3    0    2
 -2       682       400       789      1027
 -1      2403    3    0    1
 -2       333        70       544      1567
 -1      2404    3    0    1
 -2        81       333      1444      1567
 -1      2405    3    0    1
 -2        81        70       333      1567
 -1      2406    3    0    1
 -2        81      1444      1553      1567
 -1      2407    3    0    1
 -2       411      1736      1839      1912
 -1      2408    3    0    1
 -2       366      1828      1943      1616
 -1      2409    3    0    1
 -2      1400       230      1514      1570
 -1      2410    3    0    1
 -2       492       480      1400      1570
 -1      2411    3    0    1
 -2      1379      1538      1545      1802
 -1      2412    3    0    1
 -2       492        23       480      1570
 -1      2413    3    0    1
 -2      1400      1377      1422      1570
 -1      2414    3    0    1
 -2        23       492        46      1570
 -1      2415    3    0    1
 -2       492      1400      1422      1570
 -1      2416    3    0    1
 -2        46       492      1422      1570
 -1      2417    3    0    2
 -2       418       950       949      1242
 -1      2418    3    0    1
 -2      1423       363      1442      1081
 -1      2419    3    0    2
 -2       689       636       713       927
 -1      2420    3    0    1
 -2      1636       362      1897       929
 -1      2421    3    0    1
 -2       161        36      1564      1571
 -1      2422    3    0    1
 -2      1223       266      1868      1181
 -1      2423    3    0    1
 -2       629       918      1946      1961
 -1      2424    3    0    2
 -2       640      1078       802      1234
 -1      2425    3    0    1
 -2       188      1554      1675      1937
 -1      2426    3    0    1
 -2       491       348      1380      1883
 -1      2427    3    0    2
 -2       415       754       757       863
 -1      2428    3    0    1
 -2       486       218       337      1654
 -1      2429    3    0    1
 -2      1490      1563      1614      1685
 -1      2430    3    0    1
 -2       189       153      1459      1705
 -1      2431    3    0    1
 -2       507       222       249      1717
 -1      2432    3    0    1
 -2       363      1830       981      1081
 -1      2433    3    0    1
 -2      1380      1359      1679      1883
 -1      2434    3    0    1
 -2      1359      1380      1764      1883
 -1      2435    3    0    1
 -2       227       513       254      1575
 -1      2436    3    0    1
 -2      1509       477      1550      1575
 -1      2437    3    0    1
 -2       227       477      1509      1575
 -1      2438    3    0    1
 -2       227       368       477      1575
 -1      2439    3    0    1
 -2       350       227      1509      1575
 -1      2440    3    0    1
 -2       513       227       350      1575
 -1      2441    3    0    1
 -2       174      1511      1528      1577
 -1      2442    3    0    1
 -2      1408      1366      1462      1578
 -1      2443    3    0    1
 -2      1472       330      1542      1818
 -1      2444    3    0    1
 -2      1363      1366      1408      1578
 -1      2445    3    0    1
 -2         6       466       482      1579
 -1      2446    3    0    1
 -2       645      1548      1828      1871
 -1      2447    3    0    1
 -2      1105       377      1841      1988
 -1      2448    3    0    1
 -2       466        25      1565      1579
 -1      2449    3    0    1
 -2         6        25       466      1579
 -1      2450    3    0    1
 -2      1375      1512      1525      1804
 -1      2451    3    0    1
 -2        24        26      1519      1804
 -1      2452    3    0    1
 -2      1676       277      1695      1723
 -1      2453    3    0    1
 -2      1424      1396      1458      1588
 -1      2454    3    0    1
 -2      1359      1447      1679      1764
 -1      2455    3    0    1
 -2       444      1762      1832      1881
 -1      2456    3    0    2
 -2       661      1008       807       803
 -1      2457    3    0    1
 -2      1679      1447      1745      1764
 -1      2458    3    0    1
 -2       516      1450      1699      1737
 -1      2459    3    0    2
 -2       541      1220       530      1219
 -1      2460    3    0    1
 -2      1371      1352      1382      1693
 -1      2461    3    0    2
 -2       639      1031      1032      1203
 -1      2462    3    0    1
 -2       222       343      1717      1738
 -1      2463    3    0    1
 -2      1669       437       987      1960
 -1      2464    3    0    1
 -2       397      1877       932      1222
 -1      2465    3    0    1
 -2      1860      1636      1017      2004
 -1      2466    3    0    1
 -2      1445      1365      1468      1584
 -1      2467    3    0    1
 -2      1469      1581      1680      1881
 -1      2468    3    0    2
 -2       677      1176       768       628
 -1      2469    3    0    1
 -2      1807       156      1291      2046
 -1      2470    3    0    1
 -2        62      1905      1056      1185
 -1      2471    3    0    1
 -2      1428      1595      1686      1752
 -1      2472    3    0    1
 -2       534        93      1396      1588
 -1      2473    3    0    1
 -2       534      1396      1587      1588
 -1      2474    3    0    1
 -2       546      1650      1155      1269
 -1      2475    3    0    1
 -2        22       515       352      1590
 -1      2476    3    0    1
 -2      1673      1767      1824      1870
 -1      2477    3    0    1
 -2      1533       116      1686      2024
 -1      2478    3    0    1
 -2         6        25      1579      1870
 -1      2479    3    0    1
 -2      1586       652       858      1197
 -1      2480    3    0    1
 -2       876      1620      1976      2033
 -1      2481    3    0    1
 -2      1770       654      1968      1321
 -1      2482    3    0    2
 -2       596       366       595       875
 -1      2483    3    0    2
 -2      1223       266      1181      1224
 -1      2484    3    0    1
 -2       228       351      1481      1740
 -1      2485    3    0    2
 -2       518       366       596       875
 -1      2486    3    0    1
 -2      1830       399       981      1081
 -1      2487    3    0    1
 -2      1360      1353      1735      1786
 -1      2488    3    0    1
 -2       208       531       463      1612
 -1      2489    3    0    1
 -2        65      1531      1613      1806
 -1      2490    3    0    1
 -2      1417      1536      1688      1898
 -1      2491    3    0    1
 -2      1465      1459      1711      1727
 -1      2492    3    0    2
 -2       504       952       496       951
 -1      2493    3    0    1
 -2      1651       504      1671      1820
 -1      2494    3    0    1
 -2      1346      1524      1644      1824
 -1      2495    3    0    1
 -2      1545      1379      1797      1909
 -1      2496    3    0    1
 -2      1346      1434      1524      1824
 -1      2497    3    0    1
 -2       475       510      1534      1663
 -1      2498    3    0    1
 -2      1015       691      1778      1087
 -1      2499    3    0    1
 -2      1812      1495      1821      1954
 -1      2500    3    0    1
 -2       137      1374      1572      1599
 -1      2501    3    0    1
 -2       186       137      1572      1599
 -1      2502    3    0    1
 -2      1794      1941      1955      2041
 -1      2503    3    0    2
 -2       709      1320      1319       435
 -1      2504    3    0    1
 -2       142       186      1572      1599
 -1      2505    3    0    1
 -2      1503      1863      1908      1970
 -1      2506    3    0    1
 -2        45       135      1353      1786
 -1      2507    3    0    1
 -2      1413      1462      1527      1604
 -1      2508    3    0    1
 -2       363      1423      1830      1081
 -1      2509    3    0    1
 -2      1419      1885      1243      2031
 -1      2510    3    0    1
 -2       218       487       336      1827
 -1      2511    3    0    1
 -2      1449        18      1453      1672
 -1      2512    3    0    1
 -2      1547       394      1599       943
 -1      2513    3    0    1
 -2      1486      1419      1667      1749
 -1      2514    3    0    1
 -2       485        28       471      1867
 -1      2515    3    0    1
 -2      1417      1404      1595      1752
 -1      2516    3    0    1
 -2      1369      1593      1647      1878
 -1      2517    3    0    1
 -2      1511       430      1665      2023
 -1      2518    3    0    1
 -2      1545      1569      1577      1634
 -1      2519    3    0    1
 -2      1540      1417      1595      1752
 -1      2520    3    0    1
 -2      1500      1596      1819      1901
 -1      2521    3    0    1
 -2      1581      1365      1680      1827
 -1      2522    3    0    1
 -2      1548      1871      1941      1955
 -1      2523    3    0    2
 -2       703       836       835       961
 -1      2524    3    0    1
 -2       644       405      1616      1123
 -1      2525    3    0    2
 -2       502      1216       578       375
 -1      2526    3    0    1
 -2      1365      1510      1789      1827
 -1      2527    3    0    1
 -2      1633        72      1701      1039
 -1      2528    3    0    1
 -2      1613      1470      1642      1861
 -1      2529    3    0    2
 -2       564       541       530       915
 -1      2530    3    0    1
 -2      1697       674      1847      1305
 -1      2531    3    0    1
 -2      1370      1451      1466      1608
 -1      2532    3    0    1
 -2      1431      1362      1466      1608
 -1      2533    3    0    1
 -2      1241      1841       701      2050
 -1      2534    3    0    2
 -2       136       138        45       945
 -1      2535    3    0    1
 -2      1677        33      1038      1045
 -1      2536    3    0    2
 -2      1227       394       943      1228
 -1      2537    3    0    1
 -2      1665      1507      2023      1335
 -1      2538    3    0    1
 -2      1365      1469      1680      1781
 -1      2539    3    0    1
 -2       108        61      1601       967
 -1      2540    3    0    2
 -2       395       884       767       966
 -1      2541    3    0    2
 -2       394       944       943      1228
 -1      2542    3    0    1
 -2      1313       393      1043      2049
 -1      2543    3    0    1
 -2      1378      1582      1604      2048
 -1      2544    3    0    2
 -2       696       650       734      1159
 -1      2545    3    0    1
 -2      1507       385       878      1335
 -1      2546    3    0    2
 -2      1057      1186      1185        62
 -1      2547    3    0    1
 -2      1736       623      1049      1235
 -1      2548    3    0    1
 -2      1875       526      1053      1235
 -1      2549    3    0    1
 -2      1633       415      1771      1194
 -1      2550    3    0    1
 -2      1498      1487      1541      1784
 -1      2551    3    0    1
 -2      1356      1390      1487      1784
 -1      2552    3    0    1
 -2      1724      1696      1895      1923
 -1      2553    3    0    1
 -2      1436      1409      1494      1838
 -1      2554    3    0    1
 -2       269       534      1587      1612
 -1      2555    3    0    1
 -2       531       208       269      1612
 -1      2556    3    0    1
 -2       531       269      1587      1612
 -1      2557    3    0    1
 -2        71       165      1658      1753
 -1      2558    3    0    1
 -2      1490      1400      1514      1614
 -1      2559    3    0    1
 -2      1400      1377      1563      1614
 -1      2560    3    0    2
 -2      1226       979       398       980
 -1      2561    3    0    1
 -2      1377      1400      1490      1614
 -1      2562    3    0    1
 -2      1726      1548      1941      1955
 -1      2563    3    0    1
 -2      1396      1433      1458      1615
 -1      2564    3    0    1
 -2        36        37      1564      1705
 -1      2565    3    0    1
 -2        59      1531      1325      2053
 -1      2566    3    0    1
 -2      1393      1376      1433      1615
 -1      2567    3    0    1
 -2       174      1511      1628      1110
 -1      2568    3    0    1
 -2      1404      1533      1686      1752
 -1      2569    3    0    1
 -2      1590      1454      1594      1783
 -1      2570    3    0    2
 -2       819      1336       823       430
 -1      2571    3    0    1
 -2      1721      1520      1978      2039
 -1      2572    3    0    1
 -2       287       247      1474      1255
 -1      2573    3    0    2
 -2       816       906       429       820
 -1      2574    3    0    1
 -2      1593      1602      1647      1878
 -1      2575    3    0    1
 -2      1388       382      1573      1869
 -1      2576    3    0    2
 -2       876      1124      1123       366
 -1      2577    3    0    1
 -2      1922       675       990      1933
 -1      2578    3    0    1
 -2      1420      1352      1693      1747
 -1      2579    3    0    1
 -2       265      1421      1715      1736
 -1      2580    3    0    1
 -2      1375      1512      1691      1732
 -1      2581    3    0    1
 -2      1626      1368      1707      1732
 -1      2582    3    0    1
 -2      1416      1347      1515      1621
 -1      2583    3    0    1
 -2       708      1849      1850      1145
 -1      2584    3    0    1
 -2      1889       542      1075      1965
 -1      2585    3    0    1
 -2      1510      1365      1581      1827
 -1      2586    3    0    1
 -2      1611      1739      1851      1856
 -1      2587    3    0    1
 -2      1683      1678      1799      1856
 -1      2588    3    0    1
 -2      1681      1543      2012      2020
 -1      2589    3    0    1
 -2       156      1466      1807      1865
 -1      2590    3    0    1
 -2      1539      1642      1861      1887
 -1      2591    3    0    1
 -2      1419       271      1486      1667
 -1      2592    3    0    1
 -2      1714      1468      1789      1879
 -1      2593    3    0    1
 -2      1693      1371      1754      1866
 -1      2594    3    0    1
 -2      1413      1582      1604      1623
 -1      2595    3    0    1
 -2      1413        42      1582      1623
 -1      2596    3    0    1
 -2       517       365      1860      1303
 -1      2597    3    0    1
 -2      1527      1413      1604      1623
 -1      2598    3    0    1
 -2       835      1890       961      1958
 -1      2599    3    0    1
 -2       389       551      1768      1187
 -1      2600    3    0    1
 -2      1566      1501      1632      1858
 -1      2601    3    0    1
 -2      1572      1653      1711      1733
 -1      2602    3    0    1
 -2      1444      1432      1632      1708
 -1      2603    3    0    1
 -2      1432      1385      1541      1708
 -1      2604    3    0    1
 -2      1385      1432      1553      1708
 -1      2605    3    0    1
 -2      1541      1497      1632      1708
 -1      2606    3    0    1
 -2      1498      1497      1541      1708
 -1      2607    3    0    1
 -2      1385      1498      1541      1708
 -1      2608    3    0    1
 -2       230       359       239      1627
 -1      2609    3    0    1
 -2        67        66      1816      1907
 -1      2610    3    0    2
 -2        51      1344      1343      1177
 -1      2611    3    0    2
 -2       266       860       290       289
 -1      2612    3    0    1
 -2      1396      1587      1631      1718
 -1      2613    3    0    1
 -2       547      1529       984      1165
 -1      2614    3    0    1
 -2      1617      1855      1953      1971
 -1      2615    3    0    1
 -2      1379      1545      1797      1903
 -1      2616    3    0    1
 -2      1457      1379      1797      1903
 -1      2617    3    0    1
 -2       487       218       235      1827
 -1      2618    3    0    2
 -2       735      1260       871       690
 -1      2619    3    0    2
 -2       567      1260       569       525
 -1      2620    3    0    1
 -2      1424      1396      1612      1631
 -1      2621    3    0    1
 -2      1350      1386      1429      1719
 -1      2622    3    0    1
 -2      1557       501      1660       939
 -1      2623    3    0    1
 -2      1444      1432      1567      1632
 -1      2624    3    0    1
 -2      1517       434      1097      2015
 -1      2625    3    0    1
 -2      1470        65      1531      1750
 -1      2626    3    0    1
 -2      1574      1517      1655      1712
 -1      2627    3    0    1
 -2      1354      1369      1647      1878
 -1      2628    3    0    1
 -2      1602      1451      1647      1878
 -1      2629    3    0    1
 -2      1368       183      1505      1732
 -1      2630    3    0    1
 -2      1581       445      1680      1881
 -1      2631    3    0    1
 -2       240      1437      1446      1147
 -1      2632    3    0    1
 -2      1352        64      1687      1747
 -1      2633    3    0    1
 -2      1506      1476      1836      1911
 -1      2634    3    0    1
 -2       395      1520      1880      1267
 -1      2635    3    0    2
 -2       421       912       717      1076
 -1      2636    3    0    1
 -2       375      1704       885      1994
 -1      2637    3    0    1
 -2       685      1475       978      1994
 -1      2638    3    0    1
 -2      1659       657      1011      1201
 -1      2639    3    0    1
 -2      1926       417      1927       859
 -1      2640    3    0    1
 -2       695       690      1640      1667
 -1      2641    3    0    1
 -2        64      1352      1420      1747
 -1      2642    3    0    2
 -2       276      1224       266      1223
 -1      2643    3    0    2
 -2       889       940       635       890
 -1      2644    3    0    1
 -2      1560      1673      1767      1824
 -1      2645    3    0    1
 -2       460       457      1532      1819
 -1      2646    3    0    2
 -2      1202      1011       270      1012
 -1      2647    3    0    2
 -2       652       699       724       985
 -1      2648    3    0    2
 -2       519      1228       360       592
 -1      2649    3    0    1
 -2      1438      1539      1560      1707
 -1      2650    3    0    1
 -2      1349      1452      1838      1845
 -1      2651    3    0    1
 -2      1361       349      1449      1734
 -1      2652    3    0    1
 -2       226       349      1361      1734
 -1      2653    3    0    1
 -2      1439      1574      1655      1712
 -1      2654    3    0    1
 -2       186       142      1572      1653
 -1      2655    3    0    1
 -2       483      1405      1448      1862
 -1      2656    3    0    1
 -2        44      1397      1796      1837
 -1      2657    3    0    1
 -2       658      1617      1855       905
 -1      2658    3    0    1
 -2      1496      1401      1796      1837
 -1      2659    3    0    1
 -2      1401      1364      1555      1837
 -1      2660    3    0    1
 -2      1532      1452      1819      1838
 -1      2661    3    0    1
 -2      1364      1401      1678      1837
 -1      2662    3    0    1
 -2       243      1880      1942      1267
 -1      2663    3    0    1
 -2       695      1486      1667      1749
 -1      2664    3    0    2
 -2       263      1250      1249       244
 -1      2665    3    0    1
 -2      1839      1049      1939      1285
 -1      2666    3    0    1
 -2      1868       266      1913      1926
 -1      2667    3    0    2
 -2       789      1310       400       793
 -1      2668    3    0    1
 -2      1623        43      1028      2001
 -1      2669    3    0    1
 -2       682      1646      1028      2001
 -1      2670    3    0    2
 -2      1238       265       850       295
 -1      2671    3    0    1
 -2      1671       638      1820       951
 -1      2672    3    0    2
 -2       506       392      1333      1334
 -1      2673    3    0    1
 -2      1552      1412      1657      1747
 -1      2674    3    0    1
 -2       330      1542      1818      1822
 -1      2675    3    0    1
 -2      1597      1593      1602      1647
 -1      2676    3    0    1
 -2      1451      1431      1602      1647
 -1      2677    3    0    2
 -2       926        41       925      1272
 -1      2678    3    0    1
 -2       468       386      1822      1903
 -1      2679    3    0    1
 -2        91       381      1546      1648
 -1      2680    3    0    1
 -2        91       467       381      1648
 -1      2681    3    0    1
 -2       212       273       381      1648
 -1      2682    3    0    1
 -2       381       273      1542      1648
 -1      2683    3    0    1
 -2       455       203       454      1672
 -1      2684    3    0    1
 -2       203       455       204      1672
 -1      2685    3    0    1
 -2      1561      1792      1811      1821
 -1      2686    3    0    1
 -2      1398      1386      1719      1759
 -1      2687    3    0    1
 -2       456       325      1429      1759
 -1      2688    3    0    1
 -2      1384      1398      1483      1759
 -1      2689    3    0    1
 -2      1483       245      1551      1759
 -1      2690    3    0    1
 -2       455       454      1453      1672
 -1      2691    3    0    1
 -2       454       203      1453      1672
 -1      2692    3    0    1
 -2       192        66      1526      1907
 -1      2693    3    0    2
 -2       408       977       978      1285
 -1      2694    3    0    1
 -2      1778       106       967      1015
 -1      2695    3    0    2
 -2       622      1154      1153       398
 -1      2696    3    0    1
 -2      1582      1378      1604      1661
 -1      2697    3    0    1
 -2      1378      1370      1604      1661
 -1      2698    3    0    1
 -2      1591      1568      1661      1728
 -1      2699    3    0    1
 -2      1365      1510      1581      1654
 -1      2700    3    0    1
 -2       218       337      1654      1827
 -1      2701    3    0    1
 -2       681      1568      1291      2046
 -1      2702    3    0    1
 -2      1437      1446      1681      1847
 -1      2703    3    0    1
 -2       643      1677      1860      1967
 -1      2704    3    0    1
 -2      1412      1418      1580      1693
 -1      2705    3    0    1
 -2      1509      1441      1550      1694
 -1      2706    3    0    1
 -2        45      1353      1685      1786
 -1      2707    3    0    1
 -2      1441      1399      1550      1694
 -1      2708    3    0    1
 -2      1414      1364      1454      1678
 -1      2709    3    0    1
 -2      1470      1539      1642      1861
 -1      2710    3    0    1
 -2      1529       660       984      1165
 -1      2711    3    0    1
 -2       412      1421       849      1237
 -1      2712    3    0    1
 -2      1352      1371      1420      1693
 -1      2713    3    0    1
 -2       337      1510      1831      1867
 -1      2714    3    0    1
 -2      1808      1803      1121      2035
 -1      2715    3    0    1
 -2      1582      1591      1661      1728
 -1      2716    3    0    1
 -2       397      1636      1877      1897
 -1      2717    3    0    1
 -2      1420      1552      1747      1754
 -1      2718    3    0    1
 -2      1418      1412      1702      1754
 -1      2719    3    0    2
 -2       309      1154       248       310
 -1      2720    3    0    1
 -2      1547       394      1023      1218
 -1      2721    3    0    1
 -2        65      1470      1613      1861
 -1      2722    3    0    1
 -2      1495      1745      1812      1821
 -1      2723    3    0    1
 -2       168      1808       998      1121
 -1      2724    3    0    1
 -2      1593      1369      1597      1662
 -1      2725    3    0    1
 -2        72       184      1645      1701
 -1      2726    3    0    1
 -2         3        15       473      1662
 -1      2727    3    0    1
 -2      1542      1472      1818      1822
 -1      2728    3    0    1
 -2        37      1564      1705      1891
 -1      2729    3    0    1
 -2         3       473       556      1662
 -1      2730    3    0    1
 -2       224       475      1534      1663
 -1      2731    3    0    1
 -2       224       510       475      1663
 -1      2732    3    0    1
 -2      1462       224      1534      1663
 -1      2733    3    0    1
 -2       224       511       252      1663
 -1      2734    3    0    1
 -2       511       224       346      1663
 -1      2735    3    0    1
 -2       346       224      1462      1663
 -1      2736    3    0    1
 -2       369      1450      1590      1664
 -1      2737    3    0    1
 -2        85       369      1590      1664
 -1      2738    3    0    1
 -2       231       256       369      1664
 -1      2739    3    0    1
 -2       369       256      1450      1664
 -1      2740    3    0    1
 -2      1673      1579      1767      1870
 -1      2741    3    0    1
 -2      1389      1362      1430      1717
 -1      2742    3    0    1
 -2       382      1388      1425      1716
 -1      2743    3    0    1
 -2      1579        25      1767      1870
 -1      2744    3    0    2
 -2       623      1236       714      1050
 -1      2745    3    0    1
 -2      1363      1366      1578      1817
 -1      2746    3    0    1
 -2      1440      1359      1734      1764
 -1      2747    3    0    1
 -2      1470      1539      1861      1887
 -1      2748    3    0    1
 -2       659       706      1464      1317
 -1      2749    3    0    1
 -2      1490        45      1685      1786
 -1      2750    3    0    1
 -2      1633       125      1771      1815
 -1      2751    3    0    1
 -2      1787        52      1800      1895
 -1      2752    3    0    1
 -2       365       364      1636      1199
 -1      2753    3    0    1
 -2      1357      1465      1653      1711
 -1      2754    3    0    1
 -2      1440      1361      1449      1734
 -1      2755    3    0    1
 -2        66      1753      1816      1907
 -1      2756    3    0    1
 -2      1469      1680      1781      1881
 -1      2757    3    0    1
 -2       153      1459      1705      1877
 -1      2758    3    0    1
 -2      1394      1696      1762      1881
 -1      2759    3    0    1
 -2      1754      1418      1866      1920
 -1      2760    3    0    2
 -2       551      1074       389      1073
 -1      2761    3    0    1
 -2      1787      1724      1895      1923
 -1      2762    3    0    1
 -2       707       433      1439      1768
 -1      2763    3    0    1
 -2      1491      1477      1729      1974
 -1      2764    3    0    1
 -2       547      1529      1165      1977
 -1      2765    3    0    1
 -2      1409      1494      1838      1845
 -1      2766    3    0    1
 -2       372       376      1407      1235
 -1      2767    3    0    1
 -2      1356       190      1390      2008
 -1      2768    3    0    1
 -2      1382      1371      1866      1920
 -1      2769    3    0    2
 -2       789      1152       400      1084
 -1      2770    3    0    1
 -2      1450      1555      1713      1763
 -1      2771    3    0    1
 -2       693      1556      1622      1139
 -1      2772    3    0    1
 -2      1468      1365      1755      1789
 -1      2773    3    0    1
 -2       644       876      1976      2033
 -1      2774    3    0    1
 -2      1684       635      1908      1131
 -1      2775    3    0    1
 -2       509      1746      1772      1995
 -1      2776    3    0    1
 -2      1359      1447      1481      1679
 -1      2777    3    0    1
 -2      1380      1359      1481      1679
 -1      2778    3    0    1
 -2       129       128      1460      1690
 -1      2779    3    0    1
 -2       129      1460      1544      1690
 -1      2780    3    0    1
 -2      1572       186      1653      1733
 -1      2781    3    0    1
 -2       507        16       474      1682
 -1      2782    3    0    1
 -2       557        88      1602      1682
 -1      2783    3    0    1
 -2       557        16        88      1682
 -1      2784    3    0    1
 -2        88       507      1602      1682
 -1      2785    3    0    1
 -2        16       507        88      1682
 -1      2786    3    0    1
 -2      1477       539      1899      1974
 -1      2787    3    0    1
 -2      1481      1679      1735      1740
 -1      2788    3    0    1
 -2        36      1564      1571      1705
 -1      2789    3    0    2
 -2       130      1135       908       907
 -1      2790    3    0    1
 -2       649       635      1557      1684
 -1      2791    3    0    1
 -2      1647      1451      1709      1878
 -1      2792    3    0    1
 -2      1688      1536      1873      1898
 -1      2793    3    0    2
 -2       299       244       300      1250
 -1      2794    3    0    1
 -2       540       541      1914      1219
 -1      2795    3    0    1
 -2      1352        99      1592      1687
 -1      2796    3    0    1
 -2      1639      1645      1652      1748
 -1      2797    3    0    1
 -2        75      1669      1807       987
 -1      2798    3    0    1
 -2      1669       437      1835       987
 -1      2799    3    0    2
 -2      1051      1140      1052       527
 -1      2800    3    0    1
 -2       259      1475      1912      1939
 -1      2801    3    0    1
 -2      1836      1476      1862      1911
 -1      2802    3    0    1
 -2        53        76      1762      1832
 -1      2803    3    0    1
 -2      1916       642      1692      1830
 -1      2804    3    0    2
 -2       383      1280       621       955
 -1      2805    3    0    1
 -2       374       262      1500      1901
 -1      2806    3    0    1
 -2      1692       250      1853      1251
 -1      2807    3    0    1
 -2       115       106      1645      1778
 -1      2808    3    0    1
 -2      1371      1754      1866      1920
 -1      2809    3    0    1
 -2      1488      1737      1763      1893
 -1      2810    3    0    1
 -2      1536      1434      1688      1873
 -1      2811    3    0    1
 -2      1405      1375      1519      1691
 -1      2812    3    0    1
 -2      2018       666      1849      1032
 -1      2813    3    0    1
 -2      1666      1698      1715      1779
 -1      2814    3    0    1
 -2       363      1423      1646      1830
 -1      2815    3    0    1
 -2      1405      1391      1448      1911
 -1      2816    3    0    1
 -2      1391      1405      1862      1911
 -1      2817    3    0    2
 -2       977       371       978      1285
 -1      2818    3    0    2
 -2       293      1128       264       294
 -1      2819    3    0    1
 -2      1561      1671       974      1283
 -1      2820    3    0    2
 -2       908       632       907      1135
 -1      2821    3    0    1
 -2      1393      1376      1615      1854
 -1      2822    3    0    1
 -2      1746       509      1772      1083
 -1      2823    3    0    1
 -2       382      1388      1716      1869
 -1      2824    3    0    1
 -2      1425      1665      1716      1869
 -1      2825    3    0    1
 -2      1560      1565      1579      1707
 -1      2826    3    0    1
 -2      1556      1686      1178      1949
 -1      2827    3    0    1
 -2       133       137      1374      1733
 -1      2828    3    0    1
 -2      1512      1525      1565      1707
 -1      2829    3    0    1
 -2      1438      1579      1626      1707
 -1      2830    3    0    2
 -2       744      1196       865       408
 -1      2831    3    0    2
 -2       308       251       307      1232
 -1      2832    3    0    1
 -2      1589      1508      1651      1725
 -1      2833    3    0    2
 -2       502      1216       375      1215
 -1      2834    3    0    1
 -2      1427       129      1544      1725
 -1      2835    3    0    1
 -2      1467      1478      1718      2058
 -1      2836    3    0    2
 -2       360      1227       943      1228
 -1      2837    3    0    2
 -2       684      1228       778       394
 -1      2838    3    0    2
 -2       258      1174       241      1173
 -1      2839    3    0    1
 -2        15      1662       446      1700
 -1      2840    3    0    1
 -2      1513       446      1662      1700
 -1      2841    3    0    1
 -2       199       446      1513      1700
 -1      2842    3    0    1
 -2       199       449       446      1700
 -1      2843    3    0    1
 -2       449       199       200      1700
 -1      2844    3    0    2
 -2       410       844       839       843
 -1      2845    3    0    1
 -2      1580      1412      1612      1702
 -1      2846    3    0    1
 -2       490        21       478      1703
 -1      2847    3    0    1
 -2        21       359       353      1703
 -1      2848    3    0    1
 -2        21       490        34      1703
 -1      2849    3    0    1
 -2      1444      1493      1566      1858
 -1      2850    3    0    1
 -2        34       490      1627      1703
 -1      2851    3    0    1
 -2       359        21        34      1703
 -1      2852    3    0    1
 -2       359        34      1627      1703
 -1      2853    3    0    2
 -2      1214       287       847       311
 -1      2854    3    0    1
 -2       128      1460      1690      1812
 -1      2855    3    0    1
 -2      1559      1600      1972      2037
 -1      2856    3    0    2
 -2       425      1298      1002       827
 -1      2857    3    0    2
 -2       682      1084       400      1083
 -1      2858    3    0    1
 -2      1769       435      1844      2045
 -1      2859    3    0    1
 -2       705      1403      1003      1299
 -1      2860    3    0    1
 -2      1871      1828       882       887
 -1      2861    3    0    1
 -2      1348      1367      1427      2057
 -1      2862    3    0    2
 -2       981      1082      1081       399
 -1      2863    3    0    1
 -2        37       189      1465      1705
 -1      2864    3    0    1
 -2      1582      1591      1728      1959
 -1      2865    3    0    2
 -2       969       373       970      1239
 -1      2866    3    0    1
 -2      1579      1525      1626      1707
 -1      2867    3    0    1
 -2      1497      1566      1632      1708
 -1      2868    3    0    1
 -2      1432      1541      1632      1708
 -1      2869    3    0    1
 -2      1451      1431      1647      1709
 -1      2870    3    0    1
 -2      1431      1451      1466      1709
 -1      2871    3    0    1
 -2      1725       129      1938      1339
 -1      2872    3    0    1
 -2      1468      1584      1789      1879
 -1      2873    3    0    1
 -2      1556        51      1714      1879
 -1      2874    3    0    1
 -2      1382      1371      1693      1866
 -1      2875    3    0    1
 -2      1437       674      1446      1847
 -1      2876    3    0    1
 -2      1681      1446      1689      1847
 -1      2877    3    0    1
 -2      1548       645      1833      1231
 -1      2878    3    0    1
 -2        68        13      1493      1903
 -1      2879    3    0    1
 -2       542      1659      1075      1958
 -1      2880    3    0    1
 -2       183      1368      1505      1884
 -1      2881    3    0    1
 -2      1452      1596      1819      1845
 -1      2882    3    0    1
 -2       650      1750      1327      2038
 -1      2883    3    0    1
 -2      1616       366      1772      1943
 -1      2884    3    0    1
 -2      1556        51      1686      1714
 -1      2885    3    0    1
 -2       116      1404      1686      1714
 -1      2886    3    0    1
 -2        51       116      1686      1714
 -1      2887    3    0    1
 -2      1796      1922      1191      1962
 -1      2888    3    0    1
 -2      1404       116      1533      1714
 -1      2889    3    0    1
 -2       142       186      1599      1218
 -1      2890    3    0    1
 -2      1843       267       921      1986
 -1      2891    3    0    1
 -2      1454      1683      1739      1856
 -1      2892    3    0    1
 -2       116        51      1533      1714
 -1      2893    3    0    1
 -2      1359      1380      1734      1764
 -1      2894    3    0    1
 -2       494      1599      1609      1780
 -1      2895    3    0    1
 -2       434      1205      1769      1097
 -1      2896    3    0    1
 -2      1598       434      1769      1097
 -1      2897    3    0    1
 -2      1644      1346      1824      1870
 -1      2898    3    0    1
 -2       222       507       474      1717
 -1      2899    3    0    1
 -2       508       222       343      1717
 -1      2900    3    0    2
 -2       431      1270      1269       427
 -1      2901    3    0    1
 -2      1629      1424      1631      1718
 -1      2902    3    0    1
 -2      1348      1367      1398      1719
 -1      2903    3    0    1
 -2      1367      1348      1427      1719
 -1      2904    3    0    1
 -2      1427      1386      1348      1544
 -1      2905    3    0    1
 -2      1386      1348      1398      1719
 -1      2906    3    0    1
 -2      1386      1427      1348      1719
 -1      2907    3    0    1
 -2       444       443      1762      1881
 -1      2908    3    0    1
 -2      1392      1622      1698      1720
 -1      2909    3    0    1
 -2      1698      1622      1715      1720
 -1      2910    3    0    1
 -2      1647        75      1709      1865
 -1      2911    3    0    1
 -2       693      1556      1178      1949
 -1      2912    3    0    1
 -2      1347      1473      1492      1788
 -1      2913    3    0    1
 -2      1358      1347      1383      1788
 -1      2914    3    0    2
 -2       126       127      1119      1120
 -1      2915    3    0    1
 -2       502       499      1638      1323
 -1      2916    3    0    1
 -2      1886      2007      1341      2058
 -1      2917    3    0    2
 -2        52       903       904      1265
 -1      2918    3    0    1
 -2       350      1575      1611      1795
 -1      2919    3    0    1
 -2      1704       375      1782      2019
 -1      2920    3    0    2
 -2       564       530       562       915
 -1      2921    3    0    1
 -2      1897       640       929      1103
 -1      2922    3    0    1
 -2       137       133      1653      1733
 -1      2923    3    0    1
 -2      1727      1731      1753      1816
 -1      2924    3    0    1
 -2      1359      1447      1745      1812
 -1      2925    3    0    1
 -2      1512      1375      1626      1732
 -1      2926    3    0    1
 -2       186       137      1653      1733
 -1      2927    3    0    1
 -2      1388      1425      1665      2017
 -1      2928    3    0    1
 -2      1862       327        63      1911
 -1      2929    3    0    1
 -2      1536       488      1873      1898
 -1      2930    3    0    1
 -2      1447      1353      1735      1745
 -1      2931    3    0    1
 -2       357       214       332      1873
 -1      2932    3    0    1
 -2        66       192      1753      1907
 -1      2933    3    0    2
 -2       405      1124       644       781
 -1      2934    3    0    1
 -2       496      1561      1671      1992
 -1      2935    3    0    1
 -2        71      1403      1930      2047
 -1      2936    3    0    1
 -2      1527      1363      1578      1817
 -1      2937    3    0    1
 -2      1371      1420      1693      1754
 -1      2938    3    0    1
 -2      1510       337      1654      1867
 -1      2939    3    0    1
 -2      1510      1484      1654      1755
 -1      2940    3    0    1
 -2      1693      1420      1747      1754
 -1      2941    3    0    1
 -2      1412      1552      1702      1754
 -1      2942    3    0    1
 -2      1552      1693      1747      1754
 -1      2943    3    0    1
 -2        42        43      1623      1817
 -1      2944    3    0    1
 -2      1440      1359      1764      1812
 -1      2945    3    0    2
 -2       604       602       392      1333
 -1      2946    3    0    1
 -2       491       238      1380      1734
 -1      2947    3    0    1
 -2       238      1361      1380      1734
 -1      2948    3    0    2
 -2       602       506       392      1333
 -1      2949    3    0    1
 -2      1475       259      1624      1840
 -1      2950    3    0    2
 -2       687      1264       648       752
 -1      2951    3    0    1
 -2      1666       265      1715      1736
 -1      2952    3    0    1
 -2      1477      1491      1948      1974
 -1      2953    3    0    1
 -2        60      1478      1629      1775
 -1      2954    3    0    1
 -2      1463      1619      1793      1902
 -1      2955    3    0    1
 -2       180        60      1629      1775
 -1      2956    3    0    1
 -2      1352        99      1420      1924
 -1      2957    3    0    1
 -2       442         2       323      1737
 -1      2958    3    0    1
 -2       195       442       323      1737
 -1      2959    3    0    1
 -2      1386      1350      1672      1813
 -1      2960    3    0    1
 -2      1488      1699      1713      1737
 -1      2961    3    0    1
 -2      1488         2      1699      1737
 -1      2962    3    0    1
 -2       323         2      1488      1737
 -1      2963    3    0    1
 -2       938      1637      1935      1936
 -1      2964    3    0    1
 -2      1627      1360      1703      1740
 -1      2965    3    0    1
 -2       237       228      1481      1740
 -1      2966    3    0    1
 -2       490      1481      1627      1740
 -1      2967    3    0    1
 -2       228       490       478      1740
 -1      2968    3    0    1
 -2      1481      1360      1627      1740
 -1      2969    3    0    1
 -2       490       237      1481      1740
 -1      2970    3    0    1
 -2       490       228       237      1740
 -1      2971    3    0    1
 -2       688       409      1633      1741
 -1      2972    3    0    1
 -2      1633       409      1701      1741
 -1      2973    3    0    1
 -2       261       259      1475      1840
 -1      2974    3    0    1
 -2      1624       648      1840      1141
 -1      2975    3    0    2
 -2       408      1286       977      1285
 -1      2976    3    0    1
 -2       409      1701      1741      1047
 -1      2977    3    0    2
 -2       371      1048       574      1112
 -1      2978    3    0    2
 -2       409      1048      1047      1112
 -1      2979    3    0    1
 -2      1493       387      1567      1743
 -1      2980    3    0    1
 -2       215       387       470      1743
 -1      2981    3    0    1
 -2        68       387      1493      1743
 -1      2982    3    0    1
 -2        68        13       387      1743
 -1      2983    3    0    1
 -2       215       279       387      1743
 -1      2984    3    0    1
 -2       387       279      1567      1743
 -1      2985    3    0    1
 -2      1499      1729      1742      1744
 -1      2986    3    0    1
 -2       629      1880       918      1267
 -1      2987    3    0    1
 -2      1770       529      1094      1321
 -1      2988    3    0    1
 -2      1428      1595      1752      2053
 -1      2989    3    0    2
 -2       732      1091      1211      1212
 -1      2990    3    0    2
 -2       529       619       383      1093
 -1      2991    3    0    1
 -2       625      1770      1094      1321
 -1      2992    3    0    1
 -2      1828      1692      1829      1853
 -1      2993    3    0    2
 -2       819      1336       430       877
 -1      2994    3    0    1
 -2        64      1420      1552      1747
 -1      2995    3    0    2
 -2       614      1336       385       616
 -1      2996    3    0    1
 -2      1639      1652      1731      1748
 -1      2997    3    0    2
 -2       735      1260       690       737
 -1      2998    3    0    1
 -2      1680      1365      1789      1827
 -1      2999    3    0    1
 -2        43      1523      1623      1817
 -1      3000    3    0    2
 -2       951       976       975       630
 -1      3001    3    0    1
 -2      1523      1527      1623      1817
 -1      3002    3    0    1
 -2      1366      1413      1462      1817
 -1      3003    3    0    1
 -2       106       108      1652      1748
 -1      3004    3    0    1
 -2       108        61      1652      1748
 -1      3005    3    0    1
 -2      1652        61      1731      1748
 -1      3006    3    0    1
 -2        61       104      1731      1748
 -1      3007    3    0    1
 -2      1523      1363      1527      1817
 -1      3008    3    0    1
 -2      1462      1413      1527      1817
 -1      3009    3    0    2
 -2       567      1328       525       569
 -1      3010    3    0    2
 -2       589       493       586      1163
 -1      3011    3    0    1
 -2      1394      1469      1696      1881
 -1      3012    3    0    1
 -2      1596       340      1819      1901
 -1      3013    3    0    2
 -2       296       260       295      1262
 -1      3014    3    0    1
 -2       191       174      1628       971
 -1      3015    3    0    1
 -2      1394      1696      1876      1901
 -1      3016    3    0    2
 -2        54      1312       119      1040
 -1      3017    3    0    1
 -2      1715      1698      1720      1779
 -1      3018    3    0    1
 -2       283      1373      1070      1317
 -1      3019    3    0    1
 -2      1610      1558      1886      2007
 -1      3020    3    0    1
 -2      1650       705      1155      1269
 -1      3021    3    0    1
 -2       523       341      1832      1901
 -1      3022    3    0    1
 -2      1533      1404      1714      1755
 -1      3023    3    0    1
 -2       323       195      1737      1801
 -1      3024    3    0    1
 -2       629      1780       965      1946
 -1      3025    3    0    1
 -2      1454      1594      1783      1856
 -1      3026    3    0    2
 -2      1205       390      1097      1206
 -1      3027    3    0    1
 -2       879      1849      1145      1977
 -1      3028    3    0    1
 -2      1739      1683      1799      1856
 -1      3029    3    0    1
 -2      1792      1649      1906      1942
 -1      3030    3    0    1
 -2      1616       366      1828      1871
 -1      3031    3    0    1
 -2      1349      1494      1562      1845
 -1      3032    3    0    1
 -2      1374       132      1733      1815
 -1      3033    3    0    1
 -2      1733       132      1791      1815
 -1      3034    3    0    1
 -2         7        38       325      1759
 -1      3035    3    0    1
 -2      1445      1696      1781      1895
 -1      3036    3    0    1
 -2         7       325       456      1759
 -1      3037    3    0    1
 -2      1376      1393      1472      1761
 -1      3038    3    0    1
 -2      1395      1376      1472      1761
 -1      3039    3    0    1
 -2      1376      1395      1528      1761
 -1      3040    3    0    1
 -2      1528      1395      1577      1761
 -1      3041    3    0    1
 -2        53       444       443      1762
 -1      3042    3    0    1
 -2      1465      1727      1753      1882
 -1      3043    3    0    1
 -2      1476      1391      1506      1884
 -1      3044    3    0    1
 -2      1422      1488      1635      1893
 -1      3045    3    0    1
 -2      1670      1792      1906      1942
 -1      3046    3    0    1
 -2       663      1583      1655      1825
 -1      3047    3    0    1
 -2      1531      1540      1613      1806
 -1      3048    3    0    1
 -2      1377      1422      1635      1893
 -1      3049    3    0    1
 -2      1478        60      1718      2058
 -1      3050    3    0    1
 -2      1566      1497      1632      1766
 -1      3051    3    0    1
 -2      1501      1566      1632      1766
 -1      3052    3    0    1
 -2       709       435      1674      1769
 -1      3053    3    0    1
 -2      1379      1457      1802      1903
 -1      3054    3    0    1
 -2        60      1886      2058      1478
 -1      3055    3    0    1
 -2       518       366      1616      1871
 -1      3056    3    0    1
 -2      1529       547       879      1977
 -1      3057    3    0    2
 -2       494       884       588       361
 -1      3058    3    0    2
 -2       689      1010      1009      1169
 -1      3059    3    0    1
 -2       494       361      1780       883
 -1      3060    3    0    1
 -2       425      1573      1001      1297
 -1      3061    3    0    1
 -2       241      1446      1041      1934
 -1      3062    3    0    1
 -2        44      1796      1191      1962
 -1      3063    3    0    2
 -2       390      1282       963      1281
 -1      3064    3    0    1
 -2       241      1437      1446      1934
 -1      3065    3    0    1
 -2      1573       382      1716      1869
 -1      3066    3    0    2
 -2       936       841       385       842
 -1      3067    3    0    1
 -2       625       654      1471      1770
 -1      3068    3    0    1
 -2      1757      1558      1785      2007
 -1      3069    3    0    1
 -2      1607       426       919      1279
 -1      3070    3    0    1
 -2      1630      1902       909      1952
 -1      3071    3    0    2
 -2       388      1270       384      1269
 -1      3072    3    0    1
 -2      1632      1501      1766      2035
 -1      3073    3    0    1
 -2      1886      1558      1060      2007
 -1      3074    3    0    1
 -2      1849       708      1850      1107
 -1      3075    3    0    1
 -2      1557       649      1904       889
 -1      3076    3    0    1
 -2       452       201       451      1870
 -1      3077    3    0    1
 -2      1524       452      1644      1870
 -1      3078    3    0    2
 -2       665      1206       434       809
 -1      3079    3    0    2
 -2       365      1036       594       597
 -1      3080    3    0    2
 -2       639      1204      1031      1203
 -1      3081    3    0    2
 -2       399       790       794       982
 -1      3082    3    0    1
 -2       663      1583      1825      1207
 -1      3083    3    0    2
 -2       263      1258       299       244
 -1      3084    3    0    2
 -2      1258       263       861      1257
 -1      3085    3    0    2
 -2       870       284       869       910
 -1      3086    3    0    1
 -2        76        53       341      1832
 -1      3087    3    0    1
 -2      1639      1357      1791      1894
 -1      3088    3    0    2
 -2        49      1246       147      1085
 -1      3089    3    0    1
 -2      1481      1679      1740      1883
 -1      3090    3    0    1
 -2      1448       327      1862      1911
 -1      3091    3    0    1
 -2      1500      1394      1876      1901
 -1      3092    3    0    1
 -2       410       409      1701      1090
 -1      3093    3    0    2
 -2       692      1240       412       742
 -1      3094    3    0    1
 -2       106       108      1748      1778
 -1      3095    3    0    1
 -2       402       643      1860      1017
 -1      3096    3    0    2
 -2      1016       967       424       968
 -1      3097    3    0    1
 -2      1696      1469      1781      1881
 -1      3098    3    0    1
 -2      1365      1445      1469      1781
 -1      3099    3    0    1
 -2      1445      1394      1469      1781
 -1      3100    3    0    2
 -2       297      1196       298       259
 -1      3101    3    0    1
 -2        75       156      1807      1865
 -1      3102    3    0    1
 -2       628      1846      1915      2020
 -1      3103    3    0    2
 -2      1126       502       863       578
 -1      3104    3    0    1
 -2       514        19       479      1783
 -1      3105    3    0    1
 -2       255      1590      1594      1783
 -1      3106    3    0    1
 -2       514       255      1594      1783
 -1      3107    3    0    1
 -2       514       229       255      1783
 -1      3108    3    0    1
 -2        19       514        83      1783
 -1      3109    3    0    1
 -2       515       229       352      1783
 -1      3110    3    0    1
 -2       255       515      1590      1783
 -1      3111    3    0    1
 -2       229       515       255      1783
 -1      3112    3    0    1
 -2      1586      1610      1757      1785
 -1      3113    3    0    1
 -2        73      1473      1674      1844
 -1      3114    3    0    1
 -2      1492      1356      1788      1844
 -1      3115    3    0    1
 -2       435      1674      1769      1844
 -1      3116    3    0    1
 -2      1841      1905      1315      2050
 -1      3117    3    0    1
 -2      1568      1591      1661      2046
 -1      3118    3    0    1
 -2      1404      1484      1776      1896
 -1      3119    3    0    1
 -2      1409      1436      1443      1787
 -1      3120    3    0    1
 -2      1443      1522      1535      1787
 -1      3121    3    0    1
 -2      1409      1443      1535      1787
 -1      3122    3    0    1
 -2      1422      1488      1737      1801
 -1      3123    3    0    1
 -2        23       441       440      1801
 -1      3124    3    0    1
 -2      1488       323      1737      1801
 -1      3125    3    0    1
 -2      1484      1404      1755      1896
 -1      3126    3    0    1
 -2      1484      1510      1831      1896
 -1      3127    3    0    1
 -2        56      1443      1724      1787
 -1      3128    3    0    1
 -2      1443      1436      1724      1787
 -1      3129    3    0    1
 -2      1437       240      1880      2003
 -1      3130    3    0    1
 -2      1724      1436      1876      1923
 -1      3131    3    0    1
 -2      1352      1420      1506      1924
 -1      3132    3    0    1
 -2      1639      1357      1652      1791
 -1      3133    3    0    1
 -2      1581       487      1654      1827
 -1      3134    3    0    1
 -2        72      1645      1652      1791
 -1      3135    3    0    1
 -2      1658      1727      1753      1816
 -1      3136    3    0    1
 -2      1558       378      1757      1001
 -1      3137    3    0    1
 -2       638      1503      1820      1908
 -1      3138    3    0    1
 -2      1818       468      1822      1903
 -1      3139    3    0    1
 -2      1545      1379      1802      1903
 -1      3140    3    0    1
 -2        13      1457      1493      1903
 -1      3141    3    0    1
 -2      1493      1457      1797      1903
 -1      3142    3    0    1
 -2      1797      1818      1822      1903
 -1      3143    3    0    1
 -2        98        62      1816      1905
 -1      3144    3    0    2
 -2       769       627       676      1021
 -1      3145    3    0    1
 -2      1436      1409      1876      1923
 -1      3146    3    0    1
 -2      1371      1382      1537      1920
 -1      3147    3    0    1
 -2      1696      1724      1876      1923
 -1      3148    3    0    1
 -2       496      1671       951       975
 -1      3149    3    0    1
 -2      1594       514      1783      1795
 -1      3150    3    0    1
 -2        83      1611       350        19
 -1      3151    3    0    1
 -2       350      1795        83       513
 -1      3152    3    0    1
 -2      1524      1536      1644      1873
 -1      3153    3    0    1
 -2       634      1771      1864      1323
 -1      3154    3    0    1
 -2        44      1401      1555      1796
 -1      3155    3    0    1
 -2      1428      1392      1720      2025
 -1      3156    3    0    1
 -2      1637       429      1716       855
 -1      3157    3    0    2
 -2       853       436       854      1255
 -1      3158    3    0    1
 -2       427      1526      1607       919
 -1      3159    3    0    1
 -2       423      1751      1774      2031
 -1      3160    3    0    1
 -2      1617       280      1855       905
 -1      3161    3    0    1
 -2      1209       698      1913      1982
 -1      3162    3    0    1
 -2      1419       271      1667      2031
 -1      3163    3    0    1
 -2      1790       686       904      1980
 -1      3164    3    0    1
 -2       441        46      1422      1801
 -1      3165    3    0    1
 -2       441        23        46      1801
 -1      3166    3    0    1
 -2       196      1422      1737      1801
 -1      3167    3    0    1
 -2       196       441      1422      1801
 -1      3168    3    0    1
 -2       195       441       196      1801
 -1      3169    3    0    1
 -2       680      1823      1938      1339
 -1      3170    3    0    2
 -2      1131      1250      1249       649
 -1      3171    3    0    1
 -2       644      1616       876      1123
 -1      3172    3    0    2
 -2       815       997      1121      1122
 -1      3173    3    0    1
 -2        26        24       329      1804
 -1      3174    3    0    1
 -2      1519      1375      1525      1804
 -1      3175    3    0    1
 -2       355        24      1525      1804
 -1      3176    3    0    1
 -2       329        24       355      1804
 -1      3177    3    0    1
 -2       232       355      1525      1804
 -1      3178    3    0    1
 -2       211       355       232      1804
 -1      3179    3    0    1
 -2        24      1519      1525      1804
 -1      3180    3    0    1
 -2      1488      1422      1737      1893
 -1      3181    3    0    1
 -2      1465      1653      1711      1848
 -1      3182    3    0    1
 -2      1571       664      1930      1271
 -1      3183    3    0    2
 -2      1158      1073       432      1074
 -1      3184    3    0    2
 -2       695       690       735       871
 -1      3185    3    0    1
 -2      1540      1346      1613      1806
 -1      3186    3    0    1
 -2      1370       156      1466      1807
 -1      3187    3    0    1
 -2      1418      1580      1693      1866
 -1      3188    3    0    1
 -2      1370      1466      1709      1807
 -1      3189    3    0    1
 -2       168        69      1497      1808
 -1      3190    3    0    1
 -2       168      1497      1498      1808
 -1      3191    3    0    1
 -2      1439       168      1498      1808
 -1      3192    3    0    2
 -2       860       266       859      1014
 -1      3193    3    0    1
 -2       259      1624      1840      1141
 -1      3194    3    0    1
 -2      1695      1477      1706      2011
 -1      3195    3    0    1
 -2      1829       250      1153      2016
 -1      3196    3    0    1
 -2      1477      1899      1183      2011
 -1      3197    3    0    1
 -2      1568      1807      1291      2046
 -1      3198    3    0    2
 -2       390      1282       607       963
 -1      3199    3    0    1
 -2        77      1537      1866      1920
 -1      3200    3    0    1
 -2       276      1695      1913      1013
 -1      3201    3    0    1
 -2      1419       270      1723      1011
 -1      3202    3    0    1
 -2      1181       653      1950      1951
 -1      3203    3    0    1
 -2      1596      1500      1876      1901
 -1      3204    3    0    1
 -2        98      1816      1826      1905
 -1      3205    3    0    1
 -2      1429       456      1759      1814
 -1      3206    3    0    1
 -2      1386      1429      1759      1814
 -1      3207    3    0    1
 -2      1483      1384      1759      1814
 -1      3208    3    0    1
 -2      1384      1483      1551      1814
 -1      3209    3    0    1
 -2      1551      1483      1759      1814
 -1      3210    3    0    1
 -2       245      1551      1759      1814
 -1      3211    3    0    1
 -2       245       223      1551      1814
 -1      3212    3    0    1
 -2       500         7       344      1814
 -1      3213    3    0    1
 -2         7      1759       500        38
 -1      3214    3    0    1
 -2       223       500       344      1814
 -1      3215    3    0    1
 -2       500       245      1759      1814
 -1      3216    3    0    1
 -2       500       223       245      1814
 -1      3217    3    0    1
 -2        35       132      1771      1815
 -1      3218    3    0    1
 -2       125        54      1791      1815
 -1      3219    3    0    1
 -2        35       125      1791      1815
 -1      3220    3    0    1
 -2        54      1645      1791      1815
 -1      3221    3    0    1
 -2       132        35      1791      1815
 -1      3222    3    0    1
 -2      1510      1581      1654      1827
 -1      3223    3    0    1
 -2       336       487      1581      1827
 -1      3224    3    0    1
 -2        98        62      1731      1816
 -1      3225    3    0    1
 -2      1731        66      1753      1816
 -1      3226    3    0    1
 -2        67        66      1731      1816
 -1      3227    3    0    1
 -2        62        67      1731      1816
 -1      3228    3    0    1
 -2        14       336      1581      1827
 -1      3229    3    0    1
 -2      1613      1673      1806      1824
 -1      3230    3    0    1
 -2      1886        60      2058      1341
 -1      3231    3    0    1
 -2      1543      1435      2055      2059
 -1      3232    3    0    1
 -2      1651       504      1820      1823
 -1      3233    3    0    1
 -2       643      1860      1017      1303
 -1      3234    3    0    1
 -2       374         8       340      1819
 -1      3235    3    0    1
 -2      1472      1818      1822      1909
 -1      3236    3    0    1
 -2      1542      1472      1822      1909
 -1      3237    3    0    1
 -2      1660      1651      1671      1820
 -1      3238    3    0    1
 -2      1503      1660      1671      1820
 -1      3239    3    0    1
 -2      1538      1379      1545      1909
 -1      3240    3    0    1
 -2      1808      1439       998      1121
 -1      3241    3    0    1
 -2       330       538      1542      1822
 -1      3242    3    0    1
 -2        87        12       386      1822
 -1      3243    3    0    1
 -2       468        12      1818      1822
 -1      3244    3    0    1
 -2       386        12       468      1822
 -1      3245    3    0    1
 -2       538        12        87      1822
 -1      3246    3    0    1
 -2        12       538       330      1822
 -1      3247    3    0    1
 -2        12       330      1818      1822
 -1      3248    3    0    1
 -2      1346      1613      1806      1824
 -1      3249    3    0    1
 -2      1613      1346      1673      1824
 -1      3250    3    0    1
 -2      1446      1437      1681      2003
 -1      3251    3    0    1
 -2      1583       284      1598      1825
 -1      3252    3    0    1
 -2      1561      1690      1119      1938
 -1      3253    3    0    1
 -2       697       701      1914      1241
 -1      3254    3    0    1
 -2      1373       663       993      1207
 -1      3255    3    0    2
 -2       432      1074       671      1158
 -1      3256    3    0    2
 -2      1230       899       630       900
 -1      3257    3    0    2
 -2       172      1110       174       971
 -1      3258    3    0    2
 -2       689      1170      1010      1169
 -1      3259    3    0    1
 -2      1508       636      1576      1171
 -1      3260    3    0    1
 -2      1583      1517      1655      1825
 -1      3261    3    0    1
 -2      1517      1583      1598      1825
 -1      3262    3    0    1
 -2       502       375      1782      1215
 -1      3263    3    0    2
 -2       509       982       600       363
 -1      3264    3    0    1
 -2      1667       690      1698      1127
 -1      3265    3    0    2
 -2       708      1108      1107       661
 -1      3266    3    0    1
 -2        61       104      1748      1826
 -1      3267    3    0    1
 -2       104        61      1601      1826
 -1      3268    3    0    1
 -2      1601        61      1748      1826
 -1      3269    3    0    1
 -2       104      1731      1748      1826
 -1      3270    3    0    1
 -2       181        98      1731      1826
 -1      3271    3    0    1
 -2       661      1107       708      1426
 -1      3272    3    0    1
 -2       104       181      1731      1826
 -1      3273    3    0    1
 -2       378      1558      1757      2007
 -1      3274    3    0    1
 -2      1557       524      1904      1169
 -1      3275    3    0    2
 -2       172      1110       971      1109
 -1      3276    3    0    1
 -2       509       363      1646      1830
 -1      3277    3    0    2
 -2       953      1168       497       954
 -1      3278    3    0    2
 -2       992       248       991      1252
 -1      3279    3    0    2
 -2       868       506      1333      1334
 -1      3280    3    0    1
 -2       911       379      1958      1985
 -1      3281    3    0    1
 -2       270      1723      1011      1201
 -1      3282    3    0    2
 -2       868       801       437      1333
 -1      3283    3    0    2
 -2       656       915      1137      1138
 -1      3284    3    0    1
 -2      1659       911      1958      1985
 -1      3285    3    0    1
 -2       341        53       523      1832
 -1      3286    3    0    1
 -2      1500       523      1762      1832
 -1      3287    3    0    1
 -2      1394      1500      1762      1832
 -1      3288    3    0    1
 -2       523        53      1762      1832
 -1      3289    3    0    2
 -2       988       681       987      1291
 -1      3290    3    0    2
 -2       883       966       965       494
 -1      3291    3    0    2
 -2        44      1192      1191      1332
 -1      3292    3    0    1
 -2       405       644      1616      1834
 -1      3293    3    0    1
 -2        47      1397      1805      1872
 -1      3294    3    0    1
 -2      1568       681      1807      1835
 -1      3295    3    0    1
 -2       284       909       286      1630
 -1      3296    3    0    1
 -2      1841      1315       701      2050
 -1      3297    3    0    1
 -2      1722      1669      1960      2029
 -1      3298    3    0    1
 -2       194       439      1537      1836
 -1      3299    3    0    1
 -2      1836       321       194       438
 -1      3300    3    0    1
 -2       194      1643       321      1836
 -1      3301    3    0    1
 -2       648      1263       687      1840
 -1      3302    3    0    1
 -2        77         1      1537      1920
 -1      3303    3    0    2
 -2        59      1326      1159       105
 -1      3304    3    0    1
 -2      1463       392      1275      2043
 -1      3305    3    0    2
 -2       574      1286       371       977
 -1      3306    3    0    1
 -2       266       276      1868      1913
 -1      3307    3    0    2
 -2      1107       284      1007      1108
 -1      3308    3    0    2
 -2      1052       413       746      1140
 -1      3309    3    0    2
 -2      1159        59      1160      1325
 -1      3310    3    0    1
 -2       392       506      1835      1334
 -1      3311    3    0    1
 -2      1780      1599      1143      1189
 -1      3312    3    0    2
 -2       408       744       748       977
 -1      3313    3    0    1
 -2       399      1423      1442      1081
 -1      3314    3    0    2
 -2       547      1166      1165       983
 -1      3315    3    0    2
 -2       983       547       984      1165
 -1      3316    3    0    1
 -2       658      1617       905      1956
 -1      3317    3    0    2
 -2       377      1241       949      1242
 -1      3318    3    0    1
 -2      1531      1750      1160      1325
 -1      3319    3    0    2
 -2       660       983       984      1165
 -1      3320    3    0    2
 -2       504       952       582       496
 -1      3321    3    0    1
 -2       690      1698      1779      1259
 -1      3322    3    0    1
 -2        35      1771       907      1065
 -1      3323    3    0    2
 -2       162      1064        73      1063
 -1      3324    3    0    1
 -2      1473        73      1492      1844
 -1      3325    3    0    1
 -2        73       190      1492      1844
 -1      3326    3    0    1
 -2       878       430      2023      1335
 -1      3327    3    0    1
 -2      1710       135      1745      1846
 -1      3328    3    0    1
 -2       135      1353      1745      1846
 -1      3329    3    0    1
 -2       135        45      1353      1846
 -1      3330    3    0    1
 -2      1353        45      1685      1846
 -1      3331    3    0    2
 -2       309      1252       248       992
 -1      3332    3    0    1
 -2       554      1769      1902      1205
 -1      3333    3    0    2
 -2       700      1184       653      1183
 -1      3334    3    0    1
 -2       399      1251       991      1916
 -1      3335    3    0    2
 -2       668      1306       406      1020
 -1      3336    3    0    1
 -2      1572      1459      1711      1848
 -1      3337    3    0    1
 -2      1459      1572      1677      1848
 -1      3338    3    0    2
 -2      1021       627      1022      1147
 -1      3339    3    0    1
 -2      1757      1586      1785      1197
 -1      3340    3    0    1
 -2       365       517      1656      1035
 -1      3341    3    0    1
 -2       284      1107      1630       286
 -1      3342    3    0    1
 -2      1482      1554      1694      1851
 -1      3343    3    0    1
 -2      1554      1402      1739      1851
 -1      3344    3    0    1
 -2      1402      1611      1739      1851
 -1      3345    3    0    1
 -2      1482      1402      1554      1851
 -1      3346    3    0    1
 -2       641      1474      1618      1917
 -1      3347    3    0    2
 -2      1011      1202      1201       657
 -1      3348    3    0    1
 -2      1401      1496      1796      1962
 -1      3349    3    0    1
 -2      1547      1038       643      1967
 -1      3350    3    0    1
 -2      1423      1442      1618      1917
 -1      3351    3    0    1
 -2      1782       375       885      1215
 -1      3352    3    0    1
 -2      1704       637      1863      1215
 -1      3353    3    0    1
 -2      1442       641      1618      1917
 -1      3354    3    0    1
 -2      1871       518       882      1941
 -1      3355    3    0    1
 -2       892       406      1929      1173
 -1      3356    3    0    1
 -2      1880       629       918      1946
 -1      3357    3    0    1
 -2      1668      1756      1918      1945
 -1      3358    3    0    2
 -2       915       541       916      1137
 -1      3359    3    0    1
 -2      1629       180      1775      1854
 -1      3360    3    0    1
 -2      1606      1629      1775      1854
 -1      3361    3    0    1
 -2      1641       626       851      2052
 -1      3362    3    0    1
 -2      1617      1373      1855      2052
 -1      3363    3    0    1
 -2        47      1805      1892      2055
 -1      3364    3    0    1
 -2      1418       268      1866      1920
 -1      3365    3    0    1
 -2       685      1857      1195      1994
 -1      3366    3    0    1
 -2      1567      1444      1632      1858
 -1      3367    3    0    1
 -2      1457      1379      1802      1858
 -1      3368    3    0    1
 -2      1379      1538      1802      1858
 -1      3369    3    0    1
 -2      1518      1501      1566      1858
 -1      3370    3    0    1
 -2      1501      1518      1538      1858
 -1      3371    3    0    1
 -2      1538      1518      1802      1858
 -1      3372    3    0    1
 -2      1566      1457      1802      1858
 -1      3373    3    0    1
 -2      1518      1566      1802      1858
 -1      3374    3    0    1
 -2       635      1557      1684       939
 -1      3375    3    0    2
 -2       141      1023      1024      1217
 -1      3376    3    0    1
 -2      1660       501      1820       939
 -1      3377    3    0    1
 -2        69      1497      1808      2035
 -1      3378    3    0    1
 -2       517       365      1656      1860
 -1      3379    3    0    2
 -2       265      1238       260       295
 -1      3380    3    0    1
 -2      1391      1405      1476      1862
 -1      3381    3    0    1
 -2      1624      1421      1809      1912
 -1      3382    3    0    1
 -2       644      1834      1245      1976
 -1      3383    3    0    1
 -2      1598       284      1630       869
 -1      3384    3    0    1
 -2       260      1421      1736      1912
 -1      3385    3    0    1
 -2       648      1624      1809      1141
 -1      3386    3    0    1
 -2       637       414      1704      1863
 -1      3387    3    0    1
 -2      1538      1545      1577      1909
 -1      3388    3    0    1
 -2        29       488      1898      1921
 -1      3389    3    0    1
 -2       488      1873      1898      1921
 -1      3390    3    0    1
 -2      1382        77      1537      1866
 -1      3391    3    0    1
 -2      1418       533      1580      1866
 -1      3392    3    0    1
 -2       533       461      1580      1866
 -1      3393    3    0    1
 -2        27       488        29      1921
 -1      3394    3    0    1
 -2      1898      1688      1910      1921
 -1      3395    3    0    1
 -2        27       356       334      1921
 -1      3396    3    0    1
 -2       207       533       268      1866
 -1      3397    3    0    1
 -2       268       533      1418      1866
 -1      3398    3    0    1
 -2       533       207       461      1866
 -1      3399    3    0    1
 -2        28       337      1831      1867
 -1      3400    3    0    1
 -2       216       471      1831      1867
 -1      3401    3    0    1
 -2       216       485       471      1867
 -1      3402    3    0    1
 -2        28       486       337      1867
 -1      3403    3    0    1
 -2      1841       540      1913      1914
 -1      3404    3    0    1
 -2      1751       380      1875      1900
 -1      3405    3    0    1
 -2       691       424      1778      1900
 -1      3406    3    0    1
 -2       424      1247      1900       691
 -1      3407    3    0    1
 -2       108      1601      1748      1900
 -1      3408    3    0    1
 -2       453       202      1767      1870
 -1      3409    3    0    1
 -2       453       201       202      1870
 -1      3410    3    0    1
 -2       453         6       450      1870
 -1      3411    3    0    1
 -2        25       453      1767      1870
 -1      3412    3    0    1
 -2       202       452      1767      1870
 -1      3413    3    0    1
 -2       201       452       202      1870
 -1      3414    3    0    1
 -2         6       453        25      1870
 -1      3415    3    0    1
 -2      1767      1524      1824      1870
 -1      3416    3    0    1
 -2       452      1524      1767      1870
 -1      3417    3    0    2
 -2       124      1194       125      1065
 -1      3418    3    0    1
 -2      1536       236      1644      1873
 -1      3419    3    0    2
 -2      1049      1236      1235       623
 -1      3420    3    0    1
 -2       488       214       236      1873
 -1      3421    3    0    1
 -2       214       357       236      1873
 -1      3422    3    0    1
 -2       236       357      1644      1873
 -1      3423    3    0    1
 -2       488       236      1536      1873
 -1      3424    3    0    1
 -2       383      1607       919      1279
 -1      3425    3    0    1
 -2       340       374      1819      1901
 -1      3426    3    0    1
 -2      1500       523      1832      1901
 -1      3427    3    0    1
 -2       260       265      1421      1237
 -1      3428    3    0    1
 -2       418      1315      1841      1056
 -1      3429    3    0    1
 -2      1476      1391      1862      1911
 -1      3430    3    0    1
 -2       189       153      1705      1877
 -1      3431    3    0    1
 -2       280      1935      1956      1337
 -1      3432    3    0    1
 -2      1773       362      1842      1225
 -1      3433    3    0    2
 -2       277      1244       270      1243
 -1      3434    3    0    2
 -2       151      1222      1221       150
 -1      3435    3    0    2
 -2        49       148       188      1085
 -1      3436    3    0    1
 -2       390      1769      2015      2045
 -1      3437    3    0    2
 -2       147       148        49      1085
 -1      3438    3    0    1
 -2       142       145      1023      1967
 -1      3439    3    0    1
 -2       427      1269       431      1526
 -1      3440    3    0    1
 -2      1875       691      1900      1247
 -1      3441    3    0    1
 -2       395      1520      1780      1880
 -1      3442    3    0    1
 -2      1607      1406       919      1269
 -1      3443    3    0    2
 -2       821      1270       825       427
 -1      3444    3    0    1
 -2       629       395      1780      1880
 -1      3445    3    0    1
 -2       409      1633      1701      1039
 -1      3446    3    0    1
 -2        72       184      1701      1039
 -1      3447    3    0    1
 -2       444       197       443      1881
 -1      3448    3    0    1
 -2       445       197       198      1881
 -1      3449    3    0    1
 -2      1469      1394      1762      1881
 -1      3450    3    0    1
 -2       197      1469      1762      1881
 -1      3451    3    0    1
 -2       443       197      1762      1881
 -1      3452    3    0    1
 -2       197       445       324      1881
 -1      3453    3    0    1
 -2       197       324      1469      1881
 -1      3454    3    0    1
 -2      1469       324      1581      1881
 -1      3455    3    0    1
 -2       351      1481      1740      1883
 -1      3456    3    0    1
 -2        30        31       348      1883
 -1      3457    3    0    1
 -2        31        30       351      1883
 -1      3458    3    0    1
 -2        30       491      1380      1883
 -1      3459    3    0    1
 -2        30       348       491      1883
 -1      3460    3    0    1
 -2       489      1380      1481      1883
 -1      3461    3    0    1
 -2       489        30      1380      1883
 -1      3462    3    0    1
 -2       351        30       489      1883
 -1      3463    3    0    1
 -2       183      1505      1742      1884
 -1      3464    3    0    1
 -2      1434      1531      1540      2053
 -1      3465    3    0    1
 -2      1617       280      1956      1337
 -1      3466    3    0    1
 -2       405      1834      1086      1245
 -1      3467    3    0    1
 -2       677       628      1846      1915
 -1      3468    3    0    1
 -2       990      1689      1933      2059
 -1      3469    3    0    1
 -2       283       281      1373      1317
 -1      3470    3    0    2
 -2       626      1338      1337       428
 -1      3471    3    0    2
 -2       805      1206       809       434
 -1      3472    3    0    2
 -2       162      1064       190        73
 -1      3473    3    0    2
 -2       420       830      1059      1096
 -1      3474    3    0    2
 -2       659      1318       814       817
 -1      3475    3    0    1
 -2      1489       696      1861      1887
 -1      3476    3    0    1
 -2       645      1548      1726      1231
 -1      3477    3    0    1
 -2       251      1833      1033      1231
 -1      3478    3    0    1
 -2       156        75      1807      1291
 -1      3479    3    0    1
 -2      1805      1397      1892      1925
 -1      3480    3    0    1
 -2       165        71      1658      2047
 -1      3481    3    0    1
 -2      1368       182      1539      1890
 -1      3482    3    0    2
 -2       379       836       565       962
 -1      3483    3    0    1
 -2      1442      1423      1728      1959
 -1      3484    3    0    1
 -2       360       519      1313      2049
 -1      3485    3    0    1
 -2       183       182      1368      1890
 -1      3486    3    0    1
 -2       400      1582      1646      1959
 -1      3487    3    0    1
 -2      1564      1658      1882      1891
 -1      3488    3    0    1
 -2      1705      1564      1882      1891
 -1      3489    3    0    1
 -2      1459      1705      1882      1891
 -1      3490    3    0    1
 -2       654      1471      1770      1926
 -1      3491    3    0    1
 -2      1630       286      1850      1952
 -1      3492    3    0    2
 -2       172       971       972      1109
 -1      3493    3    0    1
 -2      1645      1652      1791      1894
 -1      3494    3    0    1
 -2      1774      1667       933      2031
 -1      3495    3    0    1
 -2      1476      1499      1506      1924
 -1      3496    3    0    1
 -2      1445      1394      1696      1895
 -1      3497    3    0    1
 -2      1696      1394      1724      1895
 -1      3498    3    0    1
 -2        56        52      1787      1895
 -1      3499    3    0    1
 -2      1724        56      1787      1895
 -1      3500    3    0    1
 -2      1445        52      1724      1895
 -1      3501    3    0    1
 -2      1394      1445      1724      1895
 -1      3502    3    0    1
 -2        52        56      1724      1895
 -1      3503    3    0    2
 -2       797       640       802      1234
 -1      3504    3    0    1
 -2       362      1773      1842      1897
 -1      3505    3    0    1
 -2      1636       362      1842      1897
 -1      3506    3    0    1
 -2      1671       496       974      1283
 -1      3507    3    0    1
 -2      1794      1620      1941      2041
 -1      3508    3    0    1
 -2      1875       376       840      1247
 -1      3509    3    0    1
 -2      1935      1617      1956      1337
 -1      3510    3    0    2
 -2      1199       362       929      1200
 -1      3511    3    0    2
 -2       899      1230      1229       242
 -1      3512    3    0    1
 -2      1405      1448      1862      1911
 -1      3513    3    0    2
 -2       679       415       754      1193
 -1      3514    3    0    1
 -2      1913       417      1926       859
 -1      3515    3    0    1
 -2       266      1926      1927       859
 -1      3516    3    0    1
 -2       244       263      1684      1249
 -1      3517    3    0    1
 -2       374       220       262      1901
 -1      3518    3    0    1
 -2       262       523      1500      1901
 -1      3519    3    0    1
 -2       220       374       340      1901
 -1      3520    3    0    1
 -2       523       220       341      1901
 -1      3521    3    0    1
 -2       374      1500      1819      1901
 -1      3522    3    0    2
 -2      1098       434      1097      1206
 -1      3523    3    0    2
 -2       805       910       434       809
 -1      3524    3    0    1
 -2       213       386       468      1903
 -1      3525    3    0    1
 -2       543      1493      1797      1903
 -1      3526    3    0    1
 -2       278       543      1797      1903
 -1      3527    3    0    1
 -2       213       543       278      1903
 -1      3528    3    0    1
 -2       386      1797      1822      1903
 -1      3529    3    0    1
 -2       386       278      1797      1903
 -1      3530    3    0    1
 -2       213       278       386      1903
 -1      3531    3    0    1
 -2        13       543       331      1903
 -1      3532    3    0    1
 -2       543        13        68      1903
 -1      3533    3    0    1
 -2       543        68      1493      1903
 -1      3534    3    0    1
 -2      1666       265      1736      1261
 -1      3535    3    0    2
 -2       110        59        65      1159
 -1      3536    3    0    2
 -2       110       105        59      1159
 -1      3537    3    0    2
 -2       525      1161      1162      1327
 -1      3538    3    0    1
 -2      1918       545      1945      1971
 -1      3539    3    0    1
 -2      1756      1918      1945      1971
 -1      3540    3    0    1
 -2      1617       658      1855      1971
 -1      3541    3    0    1
 -2      1855       658       841      1971
 -1      3542    3    0    1
 -2      1660       635      1820      1908
 -1      3543    3    0    1
 -2       635      1660      1684      1908
 -1      3544    3    0    1
 -2      1503      1660      1820      1908
 -1      3545    3    0    1
 -2      1684      1503      1863      1908
 -1      3546    3    0    1
 -2      1660      1503      1684      1908
 -1      3547    3    0    1
 -2      1545      1797      1903      1909
 -1      3548    3    0    1
 -2      1472      1395      1634      1909
 -1      3549    3    0    1
 -2      1634      1545      1818      1909
 -1      3550    3    0    1
 -2      1818      1545      1903      1909
 -1      3551    3    0    1
 -2      1472      1634      1818      1909
 -1      3552    3    0    1
 -2      1776       356      1898      1910
 -1      3553    3    0    1
 -2       216       356       234      1910
 -1      3554    3    0    1
 -2       234      1776      1867      1910
 -1      3555    3    0    1
 -2       234       356      1776      1910
 -1      3556    3    0    1
 -2      1862      1836       321      1643
 -1      3557    3    0    1
 -2      1836      1862       321      1911
 -1      3558    3    0    1
 -2       321        10       438      1911
 -1      3559    3    0    1
 -2       327      1862        63       483
 -1      3560    3    0    1
 -2        63        10       321      1911
 -1      3561    3    0    1
 -2        63      1911       327        10
 -1      3562    3    0    1
 -2        63       321      1862      1911
 -1      3563    3    0    1
 -2      1605      1630      1850      1952
 -1      3564    3    0    1
 -2      1756       389      1768       923
 -1      3565    3    0    2
 -2       433       924       707       811
 -1      3566    3    0    2
 -2       950       377       949      1242
 -1      3567    3    0    2
 -2       834       530       562      1220
 -1      3568    3    0    2
 -2       628       773      1079      1176
 -1      3569    3    0    2
 -2       639       800       666      1031
 -1      3570    3    0    1
 -2      1423       399      1852      1916
 -1      3571    3    0    1
 -2       399      1423      1830      1916
 -1      3572    3    0    2
 -2      1251       399       991      1252
 -1      3573    3    0    2
 -2       642      1252       399      1251
 -1      3574    3    0    2
 -2       434      1205      1097      1206
 -1      3575    3    0    2
 -2       660       926       925      1272
 -1      3576    3    0    1
 -2       642       399      1830      1916
 -1      3577    3    0    1
 -2      1890       961      1889       703
 -1      3578    3    0    1
 -2      1618      1474      1852      1917
 -1      3579    3    0    1
 -2      1423      1618      1852      1917
 -1      3580    3    0    2
 -2       614       936       616       385
 -1      3581    3    0    1
 -2       263       244      1684      1919
 -1      3582    3    0    1
 -2      1684       244      1863      1919
 -1      3583    3    0    1
 -2       649      1557      1904      1919
 -1      3584    3    0    1
 -2      1557       649      1684      1919
 -1      3585    3    0    2
 -2       415       679       754       863
 -1      3586    3    0    1
 -2       207       532       462      1920
 -1      3587    3    0    1
 -2         1       462       532      1920
 -1      3588    3    0    1
 -2       532       207       268      1920
 -1      3589    3    0    1
 -2         1        77       462      1920
 -1      3590    3    0    1
 -2       356        29      1898      1921
 -1      3591    3    0    1
 -2       356        27        29      1921
 -1      3592    3    0    1
 -2       399      1852      1916       991
 -1      3593    3    0    1
 -2      1852       248      1916       991
 -1      3594    3    0    1
 -2       370       495      1697      1922
 -1      3595    3    0    1
 -2      1420      1476      1506      1924
 -1      3596    3    0    1
 -2        99      1592      1888      1924
 -1      3597    3    0    1
 -2        99      1352      1592      1924
 -1      3598    3    0    1
 -2      1420        99      1888      1924
 -1      3599    3    0    1
 -2      1476      1420      1888      1924
 -1      3600    3    0    1
 -2      1563      1805      1892      1925
 -1      3601    3    0    1
 -2      1563      1377      1635      1925
 -1      3602    3    0    1
 -2      1635      1377      1893      1925
 -1      3603    3    0    1
 -2      1763      1488      1893      1925
 -1      3604    3    0    1
 -2      1713      1488      1763      1925
 -1      3605    3    0    1
 -2      1397      1713      1763      1925
 -1      3606    3    0    1
 -2      1397      1763      1765      1925
 -1      3607    3    0    1
 -2      1377      1563      1892      1925
 -1      3608    3    0    1
 -2      1892      1765      1893      1925
 -1      3609    3    0    1
 -2      1765      1763      1893      1925
 -1      3610    3    0    1
 -2      1377      1892      1893      1925
 -1      3611    3    0    2
 -2       380       896       566      1248
 -1      3612    3    0    1
 -2      1785      1950      1558      1757
 -1      3613    3    0    1
 -2       655       697      1601       833
 -1      3614    3    0    2
 -2       868       602       867      1333
 -1      3615    3    0    1
 -2       638      1503      1908       899
 -1      3616    3    0    2
 -2       899      1230       242       900
 -1      3617    3    0    2
 -2       655       834       728       731
 -1      3618    3    0    1
 -2       287      1605      1850      1952
 -1      3619    3    0    1
 -2      1463      1619      1902      1952
 -1      3620    3    0    2
 -2       602       868       506      1333
 -1      3621    3    0    2
 -2       931       397       932      1222
 -1      3622    3    0    2
 -2       836       379       961       962
 -1      3623    3    0    1
 -2      1877       397      1897      1222
 -1      3624    3    0    1
 -2      1486      1749      1984      1985
 -1      3625    3    0    2
 -2       530       564       562      1220
 -1      3626    3    0    2
 -2       422       836       727       732
 -1      3627    3    0    1
 -2      1756      1855      1918      1971
 -1      3628    3    0    1
 -2      1503       246      1758       837
 -1      3629    3    0    2
 -2       246       838       301       242
 -1      3630    3    0    2
 -2       678       838       837       633
 -1      3631    3    0    1
 -2      1855      1756      1953      1971
 -1      3632    3    0    2
 -2       410       743       416       839
 -1      3633    3    0    2
 -2       678       838       633       760
 -1      3634    3    0    2
 -2       743       410       740       839
 -1      3635    3    0    2
 -2       376       844       372       843
 -1      3636    3    0    1
 -2      1518       191      1628      1969
 -1      3637    3    0    2
 -2       691      1248       424      1247
 -1      3638    3    0    2
 -2       545       842       614       385
 -1      3639    3    0    2
 -2       658       842       841       429
 -1      3640    3    0    1
 -2      1750       650      1325      2038
 -1      3641    3    0    1
 -2      1695      1706      1223      2011
 -1      3642    3    0    2
 -2       410       844       740       839
 -1      3643    3    0    1
 -2      1407       372      1839       843
 -1      3644    3    0    2
 -2       658       842       429       820
 -1      3645    3    0    2
 -2       410       839       840       843
 -1      3646    3    0    2
 -2      1048       371      1047      1112
 -1      3647    3    0    1
 -2       376      1407       840       843
 -1      3648    3    0    1
 -2       376       372      1407       843
 -1      3649    3    0    2
 -2       844       376       839       843
 -1      3650    3    0    2
 -2       376       844       572       372
 -1      3651    3    0    1
 -2      1701      1407      1839       843
 -1      3652    3    0    1
 -2       681      1568      1807      1291
 -1      3653    3    0    1
 -2       648       999       845      1840
 -1      3654    3    0    2
 -2       839       376       840       843
 -1      3655    3    0    2
 -2       372       844       572       570
 -1      3656    3    0    2
 -2       376       844       839       572
 -1      3657    3    0    2
 -2       521      1000       999       520
 -1      3658    3    0    2
 -2       575      1000       577       520
 -1      3659    3    0    2
 -2       436      1256      1255       853
 -1      3660    3    0    1
 -2       520       999      1355       845
 -1      3661    3    0    2
 -2       750      1000       846       648
 -1      3662    3    0    1
 -2       692      1715      1779       849
 -1      3663    3    0    1
 -2      1421       265      1715       849
 -1      3664    3    0    1
 -2       541      1676      1914      2028
 -1      3665    3    0    1
 -2       247       287      1474      1928
 -1      3666    3    0    1
 -2      1605       666       848      1850
 -1      3667    3    0    1
 -2       666       639      1372      1928
 -1      3668    3    0    1
 -2       499       502      1638      1215
 -1      3669    3    0    1
 -2       499      1638       953      1215
 -1      3670    3    0    1
 -2       666      1605       848      1928
 -1      3671    3    0    2
 -2      1068       548      1061       613
 -1      3672    3    0    1
 -2       626      1406      1641       851
 -1      3673    3    0    2
 -2       911      1076      1075       542
 -1      3674    3    0    1
 -2       626       428      1406       851
 -1      3675    3    0    2
 -2       626       852       824       428
 -1      3676    3    0    2
 -2       388       852       851       384
 -1      3677    3    0    2
 -2       436       799       796       853
 -1      3678    3    0    2
 -2       799       436       641       853
 -1      3679    3    0    2
 -2       388       852       384       617
 -1      3680    3    0    2
 -2       247       853      1255      1256
 -1      3681    3    0    1
 -2      1902      1463      1952      1973
 -1      3682    3    0    1
 -2       287      1605      1952      1973
 -1      3683    3    0    1
 -2       398      1773      1225      1957
 -1      3684    3    0    2
 -2       280       906       905       275
 -1      3685    3    0    2
 -2       317       906       318       275
 -1      3686    3    0    1
 -2       132      1136      1374       133
 -1      3687    3    0    2
 -2       429       856       855       906
 -1      3688    3    0    2
 -2       856       275       855       906
 -1      3689    3    0    2
 -2       629      1268       772       395
 -1      3690    3    0    2
 -2       558       528       560       857
 -1      3691    3    0    1
 -2      1773       398      1029      1957
 -1      3692    3    0    2
 -2       816       906       856       429
 -1      3693    3    0    1
 -2      1636       402      1017      1199
 -1      3694    3    0    1
 -2       263       244      1863      1257
 -1      3695    3    0    1
 -2       652       699      1586       858
 -1      3696    3    0    1
 -2       365      1636      1017      1199
 -1      3697    3    0    1
 -2      1863       414       862      1257
 -1      3698    3    0    2
 -2       637      1258       755       414
 -1      3699    3    0    2
 -2       871       525       872      1259
 -1      3700    3    0    2
 -2       276      1014      1013       266
 -1      3701    3    0    2
 -2       417       860       723       725
 -1      3702    3    0    1
 -2       525      1640       872      1259
 -1      3703    3    0    2
 -2       414       861      1257      1258
 -1      3704    3    0    1
 -2       266      1013      1913       859
 -1      3705    3    0    2
 -2       414       712       861      1258
 -1      3706    3    0    2
 -2       502      1126       375       578
 -1      3707    3    0    2
 -2       637      1258       414      1257
 -1      3708    3    0    2
 -2       261      1196      1195       259
 -1      3709    3    0    2
 -2       297      1196       259       865
 -1      3710    3    0    1
 -2       414      1704      1863       862
 -1      3711    3    0    2
 -2       525      1260      1259       871
 -1      3712    3    0    2
 -2       712       414       755      1258
 -1      3713    3    0    1
 -2      1857      1475      1195      1994
 -1      3714    3    0    1
 -2      1863      1704      1919       862
 -1      3715    3    0    2
 -2      1117      1128       264      1118
 -1      3716    3    0    1
 -2      1666      1667      1698      1127
 -1      3717    3    0    2
 -2      1128      1117       264      1127
 -1      3718    3    0    2
 -2      1323       497      1129      1324
 -1      3719    3    0    2
 -2       632      1130       763      1324
 -1      3720    3    0    2
 -2       632      1323      1129      1324
 -1      3721    3    0    1
 -2      1638      1771      1782       864
 -1      3722    3    0    2
 -2       634      1324      1323       632
 -1      3723    3    0    2
 -2       259      1195       866       865
 -1      3724    3    0    2
 -2       652      1198       721       857
 -1      3725    3    0    1
 -2       424      1247       895      1900
 -1      3726    3    0    1
 -2       284      1598      1825       869
 -1      3727    3    0    2
 -2       430      1336      1335       877
 -1      3728    3    0    1
 -2       430      1665      2023      1335
 -1      3729    3    0    1
 -2       434       909       869      1598
 -1      3730    3    0    1
 -2       506      1568      1591      1618
 -1      3731    3    0    1
 -2       437      1835       868      1334
 -1      3732    3    0    2
 -2       868       798       801       867
 -1      3733    3    0    2
 -2       437       868      1333      1334
 -1      3734    3    0    2
 -2       286       910       909       284
 -1      3735    3    0    2
 -2       313       910       314       284
 -1      3736    3    0    2
 -2       525       535       567       871
 -1      3737    3    0    1
 -2       284       909      1630       869
 -1      3738    3    0    2
 -2       805       910       870       434
 -1      3739    3    0    1
 -2       379      1485      1958      1985
 -1      3740    3    0    2
 -2      1124       405       644      1123
 -1      3741    3    0    1
 -2      1749      1485      1984      1985
 -1      3742    3    0    2
 -2       695       690       871       872
 -1      3743    3    0    1
 -2      1826       181      1905      2050
 -1      3744    3    0    1
 -2      1860       517      1303      2034
 -1      3745    3    0    1
 -2      1656       517      1860      2034
 -1      3746    3    0    1
 -2       643      1860      1303      2034
 -1      3747    3    0    2
 -2       274       922       267       320
 -1      3748    3    0    2
 -2       389       924       612      1188
 -1      3749    3    0    1
 -2      1573       425      1843       874
 -1      3750    3    0    1
 -2      1517      1574      1966      2015
 -1      3751    3    0    1
 -2      1829       403      1101      2016
 -1      3752    3    0    2
 -2       922       274       873       320
 -1      3753    3    0    1
 -2       434      1205       665      1769
 -1      3754    3    0    1
 -2      1471      1573      1843       874
 -1      3755    3    0    2
 -2       665      1206      1205       434
 -1      3756    3    0    2
 -2       781       644       875      1124
 -1      3757    3    0    2
 -2      1124       876       644       875
 -1      3758    3    0    2
 -2       614      1336       877       385
 -1      3759    3    0    2
 -2       430       704       819       877
 -1      3760    3    0    1
 -2      1796      1794      1922      1962
 -1      3761    3    0    1
 -2       679       634      1771      1065
 -1      3762    3    0    2
 -2       162      1320      1063        73
 -1      3763    3    0    2
 -2       661       880       879      1146
 -1      3764    3    0    1
 -2       661      1145       879      1426
 -1      3765    3    0    2
 -2       553      1146      1145       547
 -1      3766    3    0    2
 -2       606      1146       609       547
 -1      3767    3    0    1
 -2       547      1145       553      1529
 -1      3768    3    0    2
 -2       880       547       879      1146
 -1      3769    3    0    1
 -2       547      1145      1529       879
 -1      3770    3    0    2
 -2       661       880       803       807
 -1      3771    3    0    1
 -2      1650      1403      1100      1155
 -1      3772    3    0    2
 -2       546      1156      1155      1099
 -1      3773    3    0    2
 -2      1099       546      1100      1155
 -1      3774    3    0    2
 -2       404       888       881       887
 -1      3775    3    0    1
 -2       635       649      1557       889
 -1      3776    3    0    1
 -2       885      1704      1993      1994
 -1      3777    3    0    2
 -2       689      1170       713      1010
 -1      3778    3    0    1
 -2      1721      1520      1780       883
 -1      3779    3    0    2
 -2       361       884       588       587
 -1      3780    3    0    1
 -2       414       637      1704       885
 -1      3781    3    0    2
 -2       637       886       885       414
 -1      3782    3    0    1
 -2       424      1015       691      1778
 -1      3783    3    0    1
 -2      1073      1655      1157      1953
 -1      3784    3    0    2
 -2       580       375       578      1216
 -1      3785    3    0    1
 -2      1828       404       882       887
 -1      3786    3    0    1
 -2       432      1073      1157      1953
 -1      3787    3    0    2
 -2       404       888       782       881
 -1      3788    3    0    1
 -2       389      1655      1073      1953
 -1      3789    3    0    1
 -2       518      1871       882       887
 -1      3790    3    0    1
 -2       518       366      1871       887
 -1      3791    3    0    2
 -2       518       888       596       366
 -1      3792    3    0    2
 -2       888       518       881       887
 -1      3793    3    0    2
 -2       881       518       882       887
 -1      3794    3    0    2
 -2       518       888       881       596
 -1      3795    3    0    2
 -2       366       888       596       595
 -1      3796    3    0    1
 -2      1874      1730      1904       889
 -1      3797    3    0    1
 -2      1810      1874      1904       889
 -1      3798    3    0    1
 -2       649      1810      1904       889
 -1      3799    3    0    1
 -2      1810       649      1874       889
 -1      3800    3    0    2
 -2       649       890       635       756
 -1      3801    3    0    2
 -2       241      1173       891       892
 -1      3802    3    0    2
 -2       406       776       668       891
 -1      3803    3    0    1
 -2       674      1697      1847      1929
 -1      3804    3    0    2
 -2       406      1174       891       668
 -1      3805    3    0    2
 -2       646      1314      1313       393
 -1      3806    3    0    1
 -2       674      1437      1446      1929
 -1      3807    3    0    1
 -2       406       674       892      1929
 -1      3808    3    0    1
 -2       674       406      1697      1929
 -1      3809    3    0    1
 -2       498      1915      1080      1175
 -1      3810    3    0    2
 -2      1080      1176       628      1079
 -1      3811    3    0    1
 -2       241      1173      1929       258
 -1      3812    3    0    1
 -2       258       241      1603      1929
 -1      3813    3    0    1
 -2      1437       241      1446      1929
 -1      3814    3    0    2
 -2       774      1314       393      1044
 -1      3815    3    0    1
 -2      1411      1722      1793      2051
 -1      3816    3    0    1
 -2       674      1446       892      1929
 -1      3817    3    0    1
 -2      1446       241       892      1929
 -1      3818    3    0    2
 -2       265      1262       260      1261
 -1      3819    3    0    1
 -2      1979      1820       638      1503
 -1      3820    3    0    1
 -2      1900       380      2028      1751
 -1      3821    3    0    1
 -2       424       655      1900       895
 -1      3822    3    0    1
 -2      1900       655       833       895
 -1      3823    3    0    2
 -2       380       896       568       566
 -1      3824    3    0    2
 -2       896       380       895      1248
 -1      3825    3    0    1
 -2       380      1247       526      1875
 -1      3826    3    0    1
 -2       380      1875      1900       895
 -1      3827    3    0    2
 -2       526      1248      1247       380
 -1      3828    3    0    1
 -2      1628       704      1945      1969
 -1      3829    3    0    2
 -2       424       896       716       736
 -1      3830    3    0    1
 -2       380      1247      1875       895
 -1      3831    3    0    1
 -2      1589      1508      1725      2057
 -1      3832    3    0    1
 -2      1698      1720      1779      1259
 -1      3833    3    0    2
 -2       638       900       762       630
 -1      3834    3    0    2
 -2       246       900       899       242
 -1      3835    3    0    1
 -2       242      1758       837       901
 -1      3836    3    0    2
 -2       903       647       904      1265
 -1      3837    3    0    2
 -2       837       902       633       838
 -1      3838    3    0    2
 -2       837       902       838       242
 -1      3839    3    0    2
 -2       246       900       242       301
 -1      3840    3    0    1
 -2      1736       260       894      1261
 -1      3841    3    0    2
 -2       265      1262       295       260
 -1      3842    3    0    2
 -2       623      1262      1261       411
 -1      3843    3    0    2
 -2       275       905       855       906
 -1      3844    3    0    2
 -2       117       118        52       903
 -1      3845    3    0    1
 -2      1443      1522      1790      1980
 -1      3846    3    0    1
 -2      1790      1931      1026      1980
 -1      3847    3    0    2
 -2       647       686       903       904
 -1      3848    3    0    1
 -2       702      1676       960      1982
 -1      3849    3    0    1
 -2       916      1885      1137      2028
 -1      3850    3    0    2
 -2       280       906       275       318
 -1      3851    3    0    1
 -2       132        35      1771       907
 -1      3852    3    0    1
 -2       546       548      1464      1067
 -1      3853    3    0    2
 -2       658       906       820       429
 -1      3854    3    0    1
 -2      1539      1485      1890      1983
 -1      3855    3    0    1
 -2       634       632      1864       907
 -1      3856    3    0    1
 -2      1374       132      1771       907
 -1      3857    3    0    1
 -2       125      1633      1771      1194
 -1      3858    3    0    2
 -2       132      1136       133       130
 -1      3859    3    0    1
 -2      1374      1771      1864       907
 -1      3860    3    0    2
 -2       763      1135       632       908
 -1      3861    3    0    1
 -2      1630      1598       869       909
 -1      3862    3    0    1
 -2       665      1630      1902       909
 -1      3863    3    0    2
 -2       131      1136      1135       130
 -1      3864    3    0    2
 -2      1106       377       559      1210
 -1      3865    3    0    2
 -2       634       908       632       907
 -1      3866    3    0    1
 -2       400      1646      1151      1959
 -1      3867    3    0    2
 -2       542       912       563       379
 -1      3868    3    0    1
 -2      1861      1489      1887      1983
 -1      3869    3    0    2
 -2       286       910       284       314
 -1      3870    3    0    1
 -2      1591      1442      1728      1959
 -1      3871    3    0    2
 -2       665       910       809       434
 -1      3872    3    0    2
 -2       243      1268       303       240
 -1      3873    3    0    1
 -2      1841      1105       540       377
 -1      3874    3    0    2
 -2       395      1268       772       767
 -1      3875    3    0    2
 -2       379       912       563       565
 -1      3876    3    0    1
 -2       393      1113      1603       646
 -1      3877    3    0    2
 -2       669       913      1101      1102
 -1      3878    3    0    2
 -2       646      1114       393      1113
 -1      3879    3    0    2
 -2       393      1042      1041      1114
 -1      3880    3    0    2
 -2       591      1314       360       592
 -1      3881    3    0    2
 -2       774      1114       393       779
 -1      3882    3    0    1
 -2      1345      1770       956      1279
 -1      3883    3    0    1
 -2      1556       693      1777      1139
 -1      3884    3    0    2
 -2       656       729       915      1138
 -1      3885    3    0    1
 -2      1526       431      1650      1269
 -1      3886    3    0    2
 -2      1042       241      1041      1114
 -1      3887    3    0    2
 -2       629      1268       395      1267
 -1      3888    3    0    1
 -2      1778       115      1015      1087
 -1      3889    3    0    1
 -2      1645       115      1778      1087
 -1      3890    3    0    1
 -2       416      1407      1778      1087
 -1      3891    3    0    1
 -2       384       383      1607       919
 -1      3892    3    0    1
 -2       267      1471      1926      1986
 -1      3893    3    0    1
 -2       427      1269      1526       919
 -1      3894    3    0    1
 -2      1926      1868      1181      1951
 -1      3895    3    0    1
 -2       384      1269       919      1406
 -1      3896    3    0    1
 -2      1406       384      1607       919
 -1      3897    3    0    1
 -2      1471       267      1843      1986
 -1      3898    3    0    2
 -2       615      1270       920       384
 -1      3899    3    0    1
 -2       384      1269      1406       388
 -1      3900    3    0    1
 -2      1471       274       874       921
 -1      3901    3    0    2
 -2       274       922       921       267
 -1      3902    3    0    1
 -2       707       433      1768       923
 -1      3903    3    0    2
 -2       274       873       874       921
 -1      3904    3    0    2
 -2       419       922       873       672
 -1      3905    3    0    2
 -2       274       922       873       921
 -1      3906    3    0    1
 -2      1756      1668      1918       923
 -1      3907    3    0    1
 -2      1768       433      1803       923
 -1      3908    3    0    1
 -2       433      1668      1803       923
 -1      3909    3    0    1
 -2      1535      1522      1940      1987
 -1      3910    3    0    1
 -2      1668      1756      1803       923
 -1      3911    3    0    2
 -2       433       924       811       815
 -1      3912    3    0    1
 -2        71        41      1403       925
 -1      3913    3    0    1
 -2      1756      1768      1803       923
 -1      3914    3    0    1
 -2      1403       660       925      1930
 -1      3915    3    0    1
 -2       362      1199       929      1636
 -1      3916    3    0    2
 -2       161      1272      1271        41
 -1      3917    3    0    1
 -2        41      1271      1930       925
 -1      3918    3    0    2
 -2       160      1272       163        41
 -1      3919    3    0    2
 -2       806      1272       926       660
 -1      3920    3    0    1
 -2       664       660      1529      1930
 -1      3921    3    0    1
 -2      1582      1591      1959      2048
 -1      3922    3    0    1
 -2        41      1564      1658      1930
 -1      3923    3    0    1
 -2        71        41      1658      1930
 -1      3924    3    0    1
 -2       664      1529      1571      1930
 -1      3925    3    0    1
 -2      1619      1411      1793      1991
 -1      3926    3    0    1
 -2       397      1199       401      1636
 -1      3927    3    0    2
 -2       963       435       964      1281
 -1      3928    3    0    1
 -2       417      1209       698      1913
 -1      3929    3    0    1
 -2       264      1666      1774      1273
 -1      3930    3    0    1
 -2       362       505      1897       929
 -1      3931    3    0    1
 -2       397      1199      1636       929
 -1      3932    3    0    2
 -2       397       401       795       931
 -1      3933    3    0    2
 -2       930       397       929      1200
 -1      3934    3    0    2
 -2       598      1200       930       362
 -1      3935    3    0    2
 -2       153      1222       150       932
 -1      3936    3    0    1
 -2      1725       129      1339      2057
 -1      3937    3    0    1
 -2       271       264      1667       933
 -1      3938    3    0    2
 -2       933      1274       423       934
 -1      3939    3    0    1
 -2      1406       626      1617      1337
 -1      3940    3    0    1
 -2       423      1273      1774       651
 -1      3941    3    0    2
 -2       715      1274       423       733
 -1      3942    3    0    2
 -2       271       934       293       264
 -1      3943    3    0    2
 -2       933      1274       264      1273
 -1      3944    3    0    2
 -2       715      1274       934       423
 -1      3945    3    0    2
 -2       428      1337       937      1338
 -1      3946    3    0    2
 -2       429       936       816       842
 -1      3947    3    0    1
 -2       385      1507       841       935
 -1      3948    3    0    2
 -2       841       936       935       429
 -1      3949    3    0    2
 -2      1337       275       937      1338
 -1      3950    3    0    2
 -2       635       940       758       890
 -1      3951    3    0    2
 -2       317      1338       275       318
 -1      3952    3    0    1
 -2      1710       677      1175      2032
 -1      3953    3    0    1
 -2      1757      1785      1950      1989
 -1      3954    3    0    1
 -2      1811      1495      1821      2032
 -1      3955    3    0    1
 -2       251      1829      1101      2016
 -1      3956    3    0    1
 -2      1868       653      1951      1989
 -1      3957    3    0    2
 -2       524       940       579       501
 -1      3958    3    0    2
 -2       602       604       392       941
 -1      3959    3    0    2
 -2       889       940       524       939
 -1      3960    3    0    1
 -2      1557      1660      1684       939
 -1      3961    3    0    2
 -2       501       940       579       581
 -1      3962    3    0    2
 -2       524       940       890       579
 -1      3963    3    0    1
 -2      1859       625      1936      1277
 -1      3964    3    0    1
 -2      1227      2049      1547       519
 -1      3965    3    0    1
 -2      1471       267       948      1277
 -1      3966    3    0    1
 -2       654      1471       948      1277
 -1      3967    3    0    1
 -2       654       625      1471      1277
 -1      3968    3    0    1
 -2      1407       376      1875      1235
 -1      3969    3    0    1
 -2       376       526      1875      1235
 -1      3970    3    0    2
 -2       591      1228       592       360
 -1      3971    3    0    2
 -2       519      1228      1227       360
 -1      3972    3    0    1
 -2      1547      1599      1609       943
 -1      3973    3    0    2
 -2       777      1228       944       394
 -1      3974    3    0    1
 -2       943      2049      1227       360
 -1      3975    3    0    2
 -2       877       430       878      1335
 -1      3976    3    0    1
 -2      1669      1410      1722      1960
 -1      3977    3    0    1
 -2      1651      1725      1823      2057
 -1      3978    3    0    2
 -2       319       267       320      1278
 -1      3979    3    0    1
 -2      1868      1899       957      1989
 -1      3980    3    0    1
 -2      1586       528      1899      1989
 -1      3981    3    0    1
 -2      1471       267      1926       948
 -1      3982    3    0    1
 -2       654      1471      1926       948
 -1      3983    3    0    1
 -2       654      1926      1927       948
 -1      3984    3    0    1
 -2       377      1241       540      1841
 -1      3985    3    0    1
 -2      1950      1785      1558      1951
 -1      3986    3    0    2
 -2       933      1274       934       264
 -1      3987    3    0    1
 -2       694      1345       956      1279
 -1      3988    3    0    1
 -2      1607       383      1770      1279
 -1      3989    3    0    2
 -2       540      1242      1241       377
 -1      3990    3    0    2
 -2       377       950       561       559
 -1      3991    3    0    2
 -2       418       950       720       726
 -1      3992    3    0    1
 -2       377      1241      1841       949
 -1      3993    3    0    1
 -2       504      1671      1820       951
 -1      3994    3    0    1
 -2       545      1507      1945      1971
 -1      3995    3    0    2
 -2       885      1216       637      1215
 -1      3996    3    0    2
 -2       638       952       630       762
 -1      3997    3    0    2
 -2       678       954       760       633
 -1      3998    3    0    1
 -2      1507       658      1956      1971
 -1      3999    3    0    2
 -2       886       375       580      1216
 -1      4000    3    0    1
 -2       653      1183       957      1868
 -1      4001    3    0    1
 -2       524      1730      1904      1169
 -1      4002    3    0    2
 -2       413      1344       746       739
 -1      4003    3    0    1
 -2        51      1556      1178      1343
 -1      4004    3    0    2
 -2       619       529       383       955
 -1      4005    3    0    2
 -2       619       383       621       955
 -1      4006    3    0    1
 -2       707      1439       998      1944
 -1      4007    3    0    1
 -2      1770      1345       956      1990
 -1      4008    3    0    2
 -2       499       954       497       583
 -1      4009    3    0    1
 -2       694      1345      1185      1990
 -1      4010    3    0    1
 -2       622      1829      1153      2016
 -1      4011    3    0    1
 -2      1603       646      1964      1313
 -1      4012    3    0    1
 -2       377      1841      1988      1990
 -1      4013    3    0    2
 -2       539      1184      1183       528
 -1      4014    3    0    2
 -2       558      1184       560       528
 -1      4015    3    0    1
 -2       694       426      1345      1279
 -1      4016    3    0    2
 -2       610       389       612      1188
 -1      4017    3    0    1
 -2      1834        49      1086      1245
 -1      4018    3    0    1
 -2       528      1183      1899       957
 -1      4019    3    0    2
 -2       653       958       719       722
 -1      4020    3    0    2
 -2       644      1246       405       781
 -1      4021    3    0    2
 -2      1013       417       859      1014
 -1      4022    3    0    1
 -2       702      1676      1885       960
 -1      4023    3    0    1
 -2       517      1656      1287      2034
 -1      4024    3    0    2
 -2       266       860       289      1014
 -1      4025    3    0    2
 -2       698      1014       417      1013
 -1      4026    3    0    2
 -2      1244       702       959       718
 -1      4027    3    0    1
 -2      1676      1723      1885       960
 -1      4028    3    0    2
 -2       608       554       390       963
 -1      4029    3    0    2
 -2       836       379       835       961
 -1      4030    3    0    1
 -2       395       629      1780       965
 -1      4031    3    0    2
 -2       390       607       608       963
 -1      4032    3    0    2
 -2       542       962       379       563
 -1      4033    3    0    1
 -2      1619      1793      1902      1991
 -1      4034    3    0    1
 -2       395      1780       883       965
 -1      4035    3    0    1
 -2      1619      1902      1952      1991
 -1      4036    3    0    1
 -2       709       435      1769       964
 -1      4037    3    0    2
 -2       435       709       963       964
 -1      4038    3    0    2
 -2       496       973       974      1283
 -1      4039    3    0    1
 -2      1561       631      1811      1283
 -1      4040    3    0    1
 -2       631      1561       974      1283
 -1      4041    3    0    1
 -2       402       401      1877      1045
 -1      4042    3    0    1
 -2      1877       401       932      1045
 -1      4043    3    0    2
 -2       629       966       965       395
 -1      4044    3    0    2
 -2       494       966       588       884
 -1      4045    3    0    1
 -2       424      1778      1900       967
 -1      4046    3    0    2
 -2       883       966       395       965
 -1      4047    3    0    1
 -2      1778       108      1900       967
 -1      4048    3    0    2
 -2       629       966       395       772
 -1      4049    3    0    2
 -2       424       968       736       716
 -1      4050    3    0    1
 -2      1426       661      1007      1998
 -1      4051    3    0    2
 -2       691      1016      1015       424
 -1      4052    3    0    2
 -2       108       968       967       106
 -1      4053    3    0    2
 -2       402      1018       783       787
 -1      4054    3    0    2
 -2       108       968       106       109
 -1      4055    3    0    2
 -2       573       373       571       969
 -1      4056    3    0    2
 -2       373       527       571       969
 -1      4057    3    0    2
 -2       704       972       971       430
 -1      4058    3    0    1
 -2       663      1655      1157      1966
 -1      4059    3    0    1
 -2      1517      1574      1655      1966
 -1      4060    3    0    1
 -2      1715       692      1779       970
 -1      4061    3    0    1
 -2      1715      1720       970      1779
 -1      4062    3    0    1
 -2      1421      1622      1777       970
 -1      4063    3    0    1
 -2      1622      1421      1715       970
 -1      4064    3    0    2
 -2       819      1109       430       823
 -1      4065    3    0    2
 -2       951       976       496       975
 -1      4066    3    0    2
 -2       704       972       430       819
 -1      4067    3    0    2
 -2       582       504       496       973
 -1      4068    3    0    1
 -2       496       504      1671       974
 -1      4069    3    0    2
 -2       761      1284       631       973
 -1      4070    3    0    1
 -2      1792      1561      1811      1992
 -1      4071    3    0    1
 -2       680       631      1561       974
 -1      4072    3    0    2
 -2       631       680       973       974
 -1      4073    3    0    2
 -2       371      1286      1285       977
 -1      4074    3    0    1
 -2      1741       371      1839      1285
 -1      4075    3    0    1
 -2       371      1741       978      1285
 -1      4076    3    0    2
 -2       371       522       574       977
 -1      4077    3    0    2
 -2       685       408       748       977
 -1      4078    3    0    1
 -2      1704      1919       862      1993
 -1      4079    3    0    1
 -2       414      1704       862      1993
 -1      4080    3    0    2
 -2       622       980       788       398
 -1      4081    3    0    2
 -2       685       408       977       978
 -1      4082    3    0    2
 -2      1035      1288      1036       517
 -1      4083    3    0    1
 -2       408       685      1475       978
 -1      4084    3    0    2
 -2      1288      1035       403      1287
 -1      4085    3    0    1
 -2       509       363      1830       981
 -1      4086    3    0    1
 -2       264      1666      1273      2005
 -1      4087    3    0    2
 -2       364       980       362       601
 -1      4088    3    0    1
 -2      1592      1687       986      1289
 -1      4089    3    0    1
 -2       704      1628      1945      2023
 -1      4090    3    0    1
 -2       652      1586       986      1289
 -1      4091    3    0    2
 -2       547       553       609       983
 -1      4092    3    0    2
 -2       664       660       810       983
 -1      4093    3    0    2
 -2       642       982       399       794
 -1      4094    3    0    2
 -2       606       547       609       983
 -1      4095    3    0    2
 -2      1116      1103       505      1104
 -1      4096    3    0    2
 -2       505      1104       605      1116
 -1      4097    3    0    2
 -2      1241       418       949      1242
 -1      4098    3    0    1
 -2      1782       375      1125      2019
 -1      4099    3    0    2
 -2        95      1290        64        97
 -1      4100    3    0    1
 -2       437       681      1835       987
 -1      4101    3    0    1
 -2       681      1835       987      1291
 -1      4102    3    0    1
 -2       681      1807      1835      1291
 -1      4103    3    0    1
 -2       699       652      1586       986
 -1      4104    3    0    1
 -2       699      1586      1592       986
 -1      4105    3    0    2
 -2        64      1290       985      1289
 -1      4106    3    0    2
 -2       437       988       801       798
 -1      4107    3    0    2
 -2       590       495       370       989
 -1      4108    3    0    1
 -2      1807      1669      1835       987
 -1      4109    3    0    1
 -2      1721      1520       883      1978
 -1      4110    3    0    1
 -2      1437       241      1929      1934
 -1      4111    3    0    1
 -2       675       407      1922       990
 -1      4112    3    0    2
 -2       407       675       989       990
 -1      4113    3    0    2
 -2       167        71       170      1300
 -1      4114    3    0    1
 -2       248      1251       250      1916
 -1      4115    3    0    2
 -2       250      1252      1251       248
 -1      4116    3    0    2
 -2       309      1252       310       248
 -1      4117    3    0    1
 -2       248      1251      1916       991
 -1      4118    3    0    2
 -2       790      1252       992       399
 -1      4119    3    0    2
 -2       281       994       315      1208
 -1      4120    3    0    1
 -2       427      1295      1526       431
 -1      4121    3    0    1
 -2        66      1295      1526       995
 -1      4122    3    0    2
 -2       994       663       432       812
 -1      4123    3    0    2
 -2       432       994       812       671
 -1      4124    3    0    1
 -2        66      1526      1907       995
 -1      4125    3    0    1
 -2      1526       427      1607       995
 -1      4126    3    0    2
 -2       996        66       995      1296
 -1      4127    3    0    1
 -2        66      1295       192      1526
 -1      4128    3    0    2
 -2       707       924       923      1187
 -1      4129    3    0    1
 -2      1526      1345      1907       995
 -1      4130    3    0    1
 -2      1345      1526      1607       995
 -1      4131    3    0    2
 -2       821      1296       996       427
 -1      4132    3    0    2
 -2        66       996       173       171
 -1      4133    3    0    2
 -2        66      1295       171       192
 -1      4134    3    0    1
 -2      1439       168      1808       998
 -1      4135    3    0    1
 -2      1810       687      1840       999
 -1      4136    3    0    2
 -2       520       999       845      1000
 -1      4137    3    0    1
 -2       419       425      1573      1001
 -1      4138    3    0    2
 -2       425      1002      1001       419
 -1      4139    3    0    2
 -2       521      1000       520       577
 -1      4140    3    0    1
 -2       419      1573      1843      1001
 -1      4141    3    0    2
 -2       687      1000       752       648
 -1      4142    3    0    1
 -2      1388       624      1095      2036
 -1      4143    3    0    2
 -2      1001      1298       425      1297
 -1      4144    3    0    1
 -2      1582      1378      1591      2048
 -1      4145    3    0    1
 -2      1403        71       925      1003
 -1      4146    3    0    1
 -2       662       705      1403      1003
 -1      4147    3    0    2
 -2       378       618       620      1298
 -1      4148    3    0    2
 -2       655       697       731      1005
 -1      4149    3    0    1
 -2        61      1601       967      1301
 -1      4150    3    0    2
 -2       720       418      1055      1316
 -1      4151    3    0    2
 -2       418      1315      1055      1316
 -1      4152    3    0    1
 -2       501      1660      1820      1999
 -1      4153    3    0    2
 -2       701      1316      1315       418
 -1      4154    3    0    1
 -2       673      1599       943      1189
 -1      4155    3    0    2
 -2       284      1008      1007      1108
 -1      4156    3    0    1
 -2       284      1426      1630      1007
 -1      4157    3    0    1
 -2       284      1107      1007      1630
 -1      4158    3    0    1
 -2       661      1107      1426      1007
 -1      4159    3    0    2
 -2      1010       501      1169      1170
 -1      4160    3    0    2
 -2       661      1107      1007      1108
 -1      4161    3    0    2
 -2       313      1108      1008       284
 -1      4162    3    0    1
 -2      1668       433      1803      2035
 -1      4163    3    0    1
 -2      1730      1810      1904      1931
 -1      4164    3    0    1
 -2      1860       365      1017      1303
 -1      4165    3    0    2
 -2      1017      1304      1018       643
 -1      4166    3    0    2
 -2       636      1010       713       759
 -1      4167    3    0    2
 -2      1304      1017       365      1303
 -1      4168    3    0    1
 -2      1803       433      1121      2035
 -1      4169    3    0    1
 -2      1022      1880      1147      2003
 -1      4170    3    0    2
 -2      1012       657       421       730
 -1      4171    3    0    2
 -2       421      1012       730       717
 -1      4172    3    0    1
 -2      1489      1485      1887      1983
 -1      4173    3    0    1
 -2      1485       422      1890      1983
 -1      4174    3    0    2
 -2       860       417       723      1014
 -1      4175    3    0    1
 -2      1701      1645      1087      1090
 -1      4176    3    0    2
 -2       276      1014       266       289
 -1      4177    3    0    1
 -2       115       106      1778      1015
 -1      4178    3    0    2
 -2       698      1014       723       417
 -1      4179    3    0    2
 -2       364      1200       362      1199
 -1      4180    3    0    1
 -2      1636       402      1860      1017
 -1      4181    3    0    2
 -2       967      1016       424      1015
 -1      4182    3    0    2
 -2       691      1016       424       716
 -1      4183    3    0    2
 -2       791      1200       397       930
 -1      4184    3    0    2
 -2       362       930       929      1200
 -1      4185    3    0    2
 -2      1018       365       594      1304
 -1      4186    3    0    2
 -2       668      1306       776       406
 -1      4187    3    0    2
 -2      1020       370       590      1306
 -1      4188    3    0    1
 -2      1113      1603      1964      2042
 -1      4189    3    0    1
 -2      1803      1501      1969      2035
 -1      4190    3    0    1
 -2       370      1305      1019      1697
 -1      4191    3    0    1
 -2       406      1305      1697      1019
 -1      4192    3    0    2
 -2       370      1020       590       593
 -1      4193    3    0    2
 -2       409      1040       751       747
 -1      4194    3    0    1
 -2       370      1305      1697       495
 -1      4195    3    0    2
 -2      1148       243      1021       303
 -1      4196    3    0    1
 -2       691      1875      1900      1778
 -1      4197    3    0    1
 -2      1690      1821      1119      1954
 -1      4198    3    0    1
 -2       394       684      1547      1023
 -1      4199    3    0    2
 -2       684      1024      1023       394
 -1      4200    3    0    2
 -2       520       521       577      1025
 -1      4201    3    0    2
 -2       141       142       145      1023
 -1      4202    3    0    2
 -2       141       145       144      1023
 -1      4203    3    0    2
 -2       577       575       520      1025
 -1      4204    3    0    2
 -2       684      1024       394       778
 -1      4205    3    0    2
 -2      1027        42      1028      1309
 -1      4206    3    0    2
 -2       686       647      1025      1026
 -1      4207    3    0    1
 -2      1790       686      1026      1981
 -1      4208    3    0    1
 -2       521      1355      1931      1026
 -1      4209    3    0    1
 -2      1355      1790      1931      1026
 -1      4210    3    0    2
 -2       152      1310       154        42
 -1      4211    3    0    1
 -2      1646      1623      1028      2001
 -1      4212    3    0    2
 -2       682       400      1027      1028
 -1      4213    3    0    1
 -2      1906      1022      1942      2002
 -1      4214    3    0    2
 -2       152      1310        42      1027
 -1      4215    3    0    1
 -2       400       682      1646      1028
 -1      4216    3    0    1
 -2      1942       243      1267      2002
 -1      4217    3    0    1
 -2       379      1485       835      1958
 -1      4218    3    0    1
 -2      1773       398      1842      1029
 -1      4219    3    0    1
 -2       248      1852      1916      1029
 -1      4220    3    0    1
 -2       398      1153      1842      1029
 -1      4221    3    0    2
 -2      1017      1304       643      1303
 -1      4222    3    0    1
 -2      1773      1842      1916      1029
 -1      4223    3    0    1
 -2      1852      1773      1916      1029
 -1      4224    3    0    1
 -2       248      1153      1916       250
 -1      4225    3    0    2
 -2       309      1154      1030       248
 -1      4226    3    0    1
 -2      1769       665      1902      1205
 -1      4227    3    0    1
 -2       666      1372      2018      1928
 -1      4228    3    0    1
 -2      1849       666      1850      1032
 -1      4229    3    0    2
 -2       606      1146       547       880
 -1      4230    3    0    2
 -2       708      1146       661      1145
 -1      4231    3    0    1
 -2      1842      1829       979      2004
 -1      4232    3    0    1
 -2      1771      1782       864      2019
 -1      4233    3    0    1
 -2       660      1271      1930       664
 -1      4234    3    0    2
 -2      1034       645       404       786
 -1      4235    3    0    2
 -2       404      1034       786       782
 -1      4236    3    0    1
 -2      1736      1666      1261      2005
 -1      4237    3    0    1
 -2      1666       265      1261      2005
 -1      4238    3    0    1
 -2       623      1736      1261      2005
 -1      4239    3    0    2
 -2      1035      1288       517      1287
 -1      4240    3    0    1
 -2      1666       651      1273      2005
 -1      4241    3    0    2
 -2      1036       403       784      1288
 -1      4242    3    0    2
 -2       783       402       787      1037
 -1      4243    3    0    1
 -2      1666       264      1779      2005
 -1      4244    3    0    1
 -2      1926       654      1927      1968
 -1      4245    3    0    2
 -2        33       146      1037      1046
 -1      4246    3    0    1
 -2       371      1839       843      1047
 -1      4247    3    0    1
 -2       409      1311       688      1633
 -1      4248    3    0    2
 -2       688      1312      1311       409
 -1      4249    3    0    2
 -2        72      1040      1039        54
 -1      4250    3    0    2
 -2        72      1040        54       120
 -1      4251    3    0    2
 -2       113      1090      1087       184
 -1      4252    3    0    1
 -2      1656      1963      1287      1313
 -1      4253    3    0    1
 -2       393      1113      1041      1603
 -1      4254    3    0    1
 -2       864      1782      1125      2019
 -1      4255    3    0    1
 -2       241      1113       258      1603
 -1      4256    3    0    1
 -2      1496      1794      1796      1962
 -1      4257    3    0    1
 -2       691       416      1778      1087
 -1      4258    3    0    2
 -2       258      1114      1113       241
 -1      4259    3    0    2
 -2       305      1114       306       241
 -1      4260    3    0    1
 -2       241      1113      1603      1041
 -1      4261    3    0    2
 -2       774      1114      1042       393
 -1      4262    3    0    1
 -2       187      1677      1877      1045
 -1      4263    3    0    1
 -2       187      1877       932      1045
 -1      4264    3    0    1
 -2        73      1473      1504      2051
 -1      4265    3    0    2
 -2       591      1314      1044       360
 -1      4266    3    0    2
 -2       519      1314       360      1313
 -1      4267    3    0    2
 -2       402      1046      1045      1037
 -1      4268    3    0    2
 -2        33       187       149      1045
 -1      4269    3    0    1
 -2       409      1111      1047      1741
 -1      4270    3    0    2
 -2       402      1046      1037       783
 -1      4271    3    0    2
 -2        33      1037      1038      1045
 -1      4272    3    0    1
 -2      1701       410       843      1047
 -1      4273    3    0    1
 -2       371      1741      1839      1047
 -1      4274    3    0    1
 -2       371      1111       522      1741
 -1      4275    3    0    2
 -2       522      1112      1111       371
 -1      4276    3    0    2
 -2       371      1048       576       574
 -1      4277    3    0    2
 -2       409      1048       747       751
 -1      4278    3    0    1
 -2      1741      1701      1839      1047
 -1      4279    3    0    1
 -2       392       942      1275      2043
 -1      4280    3    0    1
 -2       371      1111      1741      1047
 -1      4281    3    0    1
 -2       642      1692      1830      1995
 -1      4282    3    0    1
 -2       373       527      1777      1051
 -1      4283    3    0    1
 -2      1407      1736      1839      1049
 -1      4284    3    0    2
 -2      1050       623       411       714
 -1      4285    3    0    2
 -2       411      1050       714       741
 -1      4286    3    0    1
 -2      1421      1809      1912      1237
 -1      4287    3    0    1
 -2       526       380      1875      1053
 -1      4288    3    0    1
 -2       423       651      1774      1053
 -1      4289    3    0    2
 -2       526      1054       566       380
 -1      4290    3    0    2
 -2       651      1054      1053       423
 -1      4291    3    0    2
 -2       566      1180       380      1054
 -1      4292    3    0    1
 -2      1558      1843      1950      1951
 -1      4293    3    0    1
 -2       426      1345      1607      1057
 -1      4294    3    0    2
 -2        96      1056        98        94
 -1      4295    3    0    2
 -2       651      1054       423       733
 -1      4296    3    0    2
 -2        98      1315        94      1056
 -1      4297    3    0    2
 -2       720       418       726      1055
 -1      4298    3    0    1
 -2       418      1841      1905      1056
 -1      4299    3    0    1
 -2       624      1388      1095      2006
 -1      4300    3    0    1
 -2        62        67      1345      1057
 -1      4301    3    0    1
 -2      1775       624      1886      2006
 -1      4302    3    0    2
 -2        98      1315       181        94
 -1      4303    3    0    1
 -2      1345      1907       995      1057
 -1      4304    3    0    1
 -2       427       426      1607      1057
 -1      4305    3    0    1
 -2       427      1607       995      1057
 -1      4306    3    0    2
 -2        67      1058      1057        62
 -1      4307    3    0    2
 -2        67      1058        62       178
 -1      4308    3    0    2
 -2       618       382       378      1059
 -1      4309    3    0    1
 -2      1852      1773      1029      1957
 -1      4310    3    0    2
 -2       618       378       620      1059
 -1      4311    3    0    1
 -2       428       626      1406      1935
 -1      4312    3    0    1
 -2       428       625      1859      1071
 -1      4313    3    0    1
 -2      1600      1559      2030      2037
 -1      4314    3    0    2
 -2      1318       706      1069       817
 -1      4315    3    0    1
 -2       407      1872      1922      1191
 -1      4316    3    0    1
 -2      1609       360       943      1189
 -1      4317    3    0    2
 -2       162      1320        73       164
 -1      4318    3    0    1
 -2      1390      1712      1784      2008
 -1      4319    3    0    1
 -2      1771       634       907      1065
 -1      4320    3    0    2
 -2       435      1319      1064      1063
 -1      4321    3    0    1
 -2       190      1356      1390      1383
 -1      4322    3    0    2
 -2        73      1320      1063      1319
 -1      4323    3    0    1
 -2       435      1319      1674      1064
 -1      4324    3    0    1
 -2       435      1674      1844      1064
 -1      4325    3    0    2
 -2       125        35       124      1065
 -1      4326    3    0    1
 -2      1428      1392      1949      2053
 -1      4327    3    0    1
 -2      1595      1428      1949      2053
 -1      4328    3    0    2
 -2        35      1066       121       124
 -1      4329    3    0    1
 -2       659      1464      1062      1067
 -1      4330    3    0    1
 -2       388      1641       851      1067
 -1      4331    3    0    1
 -2       388       546      1641      1067
 -1      4332    3    0    2
 -2       546      1068       611       613
 -1      4333    3    0    2
 -2       548      1068      1067       546
 -1      4334    3    0    2
 -2       548      1061      1062      1067
 -1      4335    3    0    1
 -2      1641       546      1464      1067
 -1      4336    3    0    2
 -2       659      1068      1061       814
 -1      4337    3    0    2
 -2       548      1068      1061      1067
 -1      4338    3    0    2
 -2       435      1319      1063      1320
 -1      4339    3    0    2
 -2       283      1318       281      1317
 -1      4340    3    0    1
 -2       190      1356      1844      2008
 -1      4341    3    0    1
 -2      1599       673      1143      1189
 -1      4342    3    0    1
 -2       636      1576      1009      1999
 -1      4343    3    0    1
 -2       659      1641      1067      2052
 -1      4344    3    0    1
 -2      1373      1464      1583      1070
 -1      4345    3    0    2
 -2      1060      1096       382      1095
 -1      4346    3    0    2
 -2       428      1072       852       822
 -1      4347    3    0    1
 -2      1690      1812      1821      1954
 -1      4348    3    0    2
 -2       141      1218       142      1023
 -1      4349    3    0    1
 -2       242      1649      1758      1942
 -1      4350    3    0    2
 -2       389      1074       610       612
 -1      4351    3    0    1
 -2       542      1659      1889      1075
 -1      4352    3    0    1
 -2       412       692      1421      1239
 -1      4353    3    0    1
 -2      1770       654      1926      1968
 -1      4354    3    0    1
 -2      1520       242      1758      1942
 -1      4355    3    0    1
 -2      1695       277      1706      1201
 -1      4356    3    0    2
 -2       657      1076      1075       421
 -1      4357    3    0    2
 -2       542      1076       563       912
 -1      4358    3    0    2
 -2       911      1076       421      1075
 -1      4359    3    0    2
 -2       657      1076       421       730
 -1      4360    3    0    1
 -2       640      1571      1897      1077
 -1      4361    3    0    2
 -2        37      1078      1077        36
 -1      4362    3    0    1
 -2      1571      1705      1897      1077
 -1      4363    3    0    2
 -2        37      1078        36       155
 -1      4364    3    0    2
 -2       586       498       493      1079
 -1      4365    3    0    2
 -2       652      1290      1289       985
 -1      4366    3    0    2
 -2       493       589       586      1079
 -1      4367    3    0    2
 -2      1176      1080       628      1175
 -1      4368    3    0    2
 -2      1080      1176      1079       498
 -1      4369    3    0    1
 -2      1828      1692      1853      1943
 -1      4370    3    0    2
 -2       399      1082       790       982
 -1      4371    3    0    2
 -2       363      1082       982       599
 -1      4372    3    0    2
 -2       509      1084      1083       363
 -1      4373    3    0    1
 -2      1479      1746      1772      1083
 -1      4374    3    0    1
 -2      1479       682      1746      1083
 -1      4375    3    0    1
 -2       509      1746      1830      1083
 -1      4376    3    0    1
 -2      1646       509      1830      1083
 -1      4377    3    0    1
 -2      1511      1606      1665      2017
 -1      4378    3    0    1
 -2       682       400      1646      1083
 -1      4379    3    0    1
 -2      1574      1712      2009      2045
 -1      4380    3    0    1
 -2      1746      1646      1830      1083
 -1      4381    3    0    2
 -2       509      1084       363       600
 -1      4382    3    0    1
 -2       362      1773      1897      2040
 -1      4383    3    0    1
 -2       435      1769      1281      2045
 -1      4384    3    0    1
 -2       505       362      1897      2040
 -1      4385    3    0    1
 -2      1777       373      1051      1932
 -1      4386    3    0    1
 -2       413      1556      1777      1932
 -1      4387    3    0    1
 -2      1600      1556      1879      1932
 -1      4388    3    0    1
 -2      1556      1600      1777      1932
 -1      4389    3    0    1
 -2      1606      1528      1854      2017
 -1      4390    3    0    2
 -2       785       405      1085      1246
 -1      4391    3    0    1
 -2       145       142      1572      1967
 -1      4392    3    0    1
 -2      1023      1547      1218      1967
 -1      4393    3    0    2
 -2       675      1332      1331       407
 -1      4394    3    0    1
 -2      1689      1847       990      1933
 -1      4395    3    0    1
 -2      1689      1543      1847      1933
 -1      4396    3    0    2
 -2       407      1192       775      1332
 -1      4397    3    0    1
 -2       933       423      2031      2056
 -1      4398    3    0    1
 -2      1697       990      1933      1922
 -1      4399    3    0    1
 -2      1847       990      1697       495
 -1      4400    3    0    1
 -2       990      1847      1697      1933
 -1      4401    3    0    2
 -2      1192       407      1191      1332
 -1      4402    3    0    2
 -2       115       113       114      1087
 -1      4403    3    0    2
 -2       184       113       115      1087
 -1      4404    3    0    1
 -2      1407      1645      1778      1087
 -1      4405    3    0    2
 -2      1087       113      1088      1089
 -1      4406    3    0    2
 -2       410       743       740      1089
 -1      4407    3    0    1
 -2       184      1701      1039      1090
 -1      4408    3    0    1
 -2      1645      1407      1701      1087
 -1      4409    3    0    2
 -2      1268       629       917      1267
 -1      4410    3    0    1
 -2      1701       409      1039      1090
 -1      4411    3    0    1
 -2       416       410      1407      1090
 -1      4412    3    0    1
 -2       416      1407      1087      1090
 -1      4413    3    0    2
 -2       703       422       727      1091
 -1      4414    3    0    2
 -2       383       619       621      1093
 -1      4415    3    0    2
 -2       101       100      1211      1212
 -1      4416    3    0    2
 -2       624      1096       826       420
 -1      4417    3    0    2
 -2       529      1322      1093      1321
 -1      4418    3    0    1
 -2      1471      1573       874      2014
 -1      4419    3    0    1
 -2      1637      1716      1869      2014
 -1      4420    3    0    1
 -2      1859      1607      1071      1094
 -1      4421    3    0    2
 -2       831       625      1093      1322
 -1      4422    3    0    1
 -2       383       384      1607      1094
 -1      4423    3    0    1
 -2      1607       384      1071      1094
 -1      4424    3    0    1
 -2      1770      1607      1859      1094
 -1      4425    3    0    1
 -2       420      1886      1060      2007
 -1      4426    3    0    2
 -2       382      1096      1059       618
 -1      4427    3    0    1
 -2      1425      1388      1095      2036
 -1      4428    3    0    1
 -2      1859       428      1071      1935
 -1      4429    3    0    1
 -2      1558      1610      1785      2007
 -1      4430    3    0    2
 -2       624      1096       420      1095
 -1      4431    3    0    2
 -2       624      1342       420       826
 -1      4432    3    0    1
 -2      1710      1811      1821      2032
 -1      4433    3    0    1
 -2       275      1337      1935       280
 -1      4434    3    0    1
 -2      1637       275       938      1935
 -1      4435    3    0    1
 -2      1495      1710      1821      2032
 -1      4436    3    0    2
 -2       822      1338       428       937
 -1      4437    3    0    1
 -2       156      1370      1466      2046
 -1      4438    3    0    1
 -2      1825      1517      1966      2015
 -1      4439    3    0    1
 -2      1769      1517      1097      2015
 -1      4440    3    0    1
 -2       428       938      1935      1936
 -1      4441    3    0    1
 -2      1859       428      1935      1936
 -1      4442    3    0    1
 -2      1097       390      1769      2015
 -1      4443    3    0    1
 -2      1637      1859      1935      1936
 -1      4444    3    0    1
 -2      1517       434      1825      1598
 -1      4445    3    0    1
 -2      1517      1598      1769      1097
 -1      4446    3    0    1
 -2       390      1205      1769       554
 -1      4447    3    0    2
 -2       607      1206      1098       390
 -1      4448    3    0    2
 -2       540      1242       377       559
 -1      4449    3    0    1
 -2       413      1556      1932      1343
 -1      4450    3    0    2
 -2       494      1190      1189       361
 -1      4451    3    0    1
 -2       411       623      1736      1261
 -1      4452    3    0    2
 -2       660      1166       983      1165
 -1      4453    3    0    1
 -2      1464       548      1650      1100
 -1      4454    3    0    2
 -2       818       662       813      1156
 -1      4455    3    0    1
 -2      1403      1464      1650      1100
 -1      4456    3    0    1
 -2      1479      1387      1798      1937
 -1      4457    3    0    1
 -2      1387      1479      1746      1937
 -1      4458    3    0    2
 -2      1001      1298       378      1002
 -1      4459    3    0    1
 -2      1616       405      1086      1937
 -1      4460    3    0    1
 -2      1511       174      1528      2017
 -1      4461    3    0    1
 -2       403      1833       683      1656
 -1      4462    3    0    1
 -2       683      1833      1101       914
 -1      4463    3    0    2
 -2       669       683       403      1101
 -1      4464    3    0    2
 -2       257      1102       308       251
 -1      4465    3    0    2
 -2      1102       257       913      1101
 -1      4466    3    0    2
 -2       914       669       913      1101
 -1      4467    3    0    2
 -2       913       257       914      1101
 -1      4468    3    0    2
 -2       710      1104       640      1103
 -1      4469    3    0    2
 -2       669       914       683      1101
 -1      4470    3    0    2
 -2       257      1102       913       308
 -1      4471    3    0    2
 -2       251      1102       308       307
 -1      4472    3    0    2
 -2       680      1340       631       761
 -1      4473    3    0    2
 -2      1104       710       640       797
 -1      4474    3    0    2
 -2       640      1104       797       802
 -1      4475    3    0    2
 -2      1106       417      1105      1210
 -1      4476    3    0    2
 -2       698      1210      1209       417
 -1      4477    3    0    1
 -2       416       691      1875      1247
 -1      4478    3    0    1
 -2       540      1913      1105      1841
 -1      4479    3    0    2
 -2       417      1106       723      1210
 -1      4480    3    0    2
 -2       422      1091      1092      1211
 -1      4481    3    0    1
 -2       286      1630      1850      1107
 -1      4482    3    0    1
 -2       526       376      1875      1247
 -1      4483    3    0    2
 -2       377      1106      1105      1210
 -1      4484    3    0    1
 -2      1667      1774       933      1273
 -1      4485    3    0    2
 -2       286      1108       314       284
 -1      4486    3    0    1
 -2      1372       666      2018      1032
 -1      4487    3    0    1
 -2      1372      1571      1115      2018
 -1      4488    3    0    1
 -2      1849      1032      1145      2018
 -1      4489    3    0    1
 -2      1529       553       984      2018
 -1      4490    3    0    1
 -2      1656       403      1035      1287
 -1      4491    3    0    2
 -2      1048       409       747      1112
 -1      4492    3    0    1
 -2      1722      1411      1960      2051
 -1      4493    3    0    2
 -2       522      1112       371       574
 -1      4494    3    0    1
 -2      1963      1833      1548      1964
 -1      4495    3    0    2
 -2       688      1112       747       409
 -1      4496    3    0    1
 -2       506      1618       942      2043
 -1      4497    3    0    2
 -2       241      1113      1041      1114
 -1      4498    3    0    2
 -2      1103      1116      1115       710
 -1      4499    3    0    1
 -2       505      1372      1103      1115
 -1      4500    3    0    1
 -2       505       555      1372      1115
 -1      4501    3    0    1
 -2      1474       641      1618      2043
 -1      4502    3    0    2
 -2       258      1114       241       306
 -1      4503    3    0    2
 -2       710      1116       797      1104
 -1      4504    3    0    2
 -2       646      1114       779       393
 -1      4505    3    0    2
 -2       555      1116      1115       505
 -1      4506    3    0    2
 -2      1103      1116       505      1115
 -1      4507    3    0    1
 -2       264       271      1667      1117
 -1      4508    3    0    2
 -2       555      1116       505       603
 -1      4509    3    0    1
 -2      1486       695      1667      1117
 -1      4510    3    0    2
 -2       271      1118       264       293
 -1      4511    3    0    1
 -2       437      1835      1334      2029
 -1      4512    3    0    2
 -2       631      1120       766       761
 -1      4513    3    0    1
 -2       128      1339      1119      1690
 -1      4514    3    0    1
 -2       415      1771       864      1125
 -1      4515    3    0    2
 -2      1130       497       583      1324
 -1      4516    3    0    2
 -2       127       128       126      1119
 -1      4517    3    0    2
 -2       433       815       997      1121
 -1      4518    3    0    2
 -2       433       997       998      1121
 -1      4519    3    0    2
 -2       128      1339       126      1119
 -1      4520    3    0    2
 -2      1120       631      1119      1340
 -1      4521    3    0    2
 -2      1339       126      1119      1340
 -1      4522    3    0    1
 -2      1561      1690      1821      1119
 -1      4523    3    0    2
 -2       680      1340      1339       631
 -1      4524    3    0    1
 -2       375       502      1782      1125
 -1      4525    3    0    1
 -2       433      1808      1439      1768
 -1      4526    3    0    1
 -2      1808       433      1439      1121
 -1      4527    3    0    2
 -2       166       998       997      1121
 -1      4528    3    0    1
 -2      1616       366       876      1123
 -1      4529    3    0    2
 -2       876      1124       644      1123
 -1      4530    3    0    2
 -2       168       166        69      1121
 -1      4531    3    0    2
 -2       998       166       168      1121
 -1      4532    3    0    1
 -2       366      1616      1772      1123
 -1      4533    3    0    2
 -2       166       169        69      1121
 -1      4534    3    0    1
 -2      1725      1651      1823      1938
 -1      4535    3    0    2
 -2       405      1124       781       785
 -1      4536    3    0    2
 -2       631      1339      1119      1340
 -1      4537    3    0    1
 -2       631      1561      1119      1938
 -1      4538    3    0    1
 -2       631      1339      1938      1119
 -1      4539    3    0    1
 -2       631       680      1561      1938
 -1      4540    3    0    1
 -2      1651      1671       974      1938
 -1      4541    3    0    1
 -2      1671      1561       974      1938
 -1      4542    3    0    1
 -2      1561       680       974      1938
 -1      4543    3    0    1
 -2      1823      1651       974      1938
 -1      4544    3    0    1
 -2       129      1690      1725      1938
 -1      4545    3    0    1
 -2       680      1823       974      1938
 -1      4546    3    0    1
 -2       683      1656      1963      1287
 -1      4547    3    0    1
 -2       634       679      1771      1323
 -1      4548    3    0    2
 -2       502      1126      1125       375
 -1      4549    3    0    2
 -2       375      1126       580       578
 -1      4550    3    0    1
 -2       517      1656      1035      1287
 -1      4551    3    0    1
 -2      1771      1638      1864      1323
 -1      4552    3    0    2
 -2       502       863       864      1125
 -1      4553    3    0    1
 -2      1667       264      1117      1127
 -1      4554    3    0    1
 -2       690      1667      1117      1127
 -1      4555    3    0    2
 -2       502      1126       863      1125
 -1      4556    3    0    2
 -2       415      1126       863       757
 -1      4557    3    0    1
 -2      1850      1849      1032      1145
 -1      4558    3    0    1
 -2       497       361      1721      1129
 -1      4559    3    0    1
 -2       497      1323      1864       499
 -1      4560    3    0    1
 -2      1846       628      1149      2020
 -1      4561    3    0    2
 -2       634      1324       632       763
 -1      4562    3    0    1
 -2       628      1915      1080      2020
 -1      4563    3    0    1
 -2       649       635      1684      1131
 -1      4564    3    0    2
 -2       248      1251       991      1252
 -1      4565    3    0    1
 -2       137      1374      1599      1253
 -1      4566    3    0    1
 -2      1676       702      1885      1137
 -1      4567    3    0    2
 -2      1132       649       635       756
 -1      4568    3    0    2
 -2       635      1132       756       758
 -1      4569    3    0    2
 -2      1342       624      1133       826
 -1      4570    3    0    1
 -2      1775       180      1134      2036
 -1      4571    3    0    1
 -2      1972      1355      1307      2037
 -1      4572    3    0    1
 -2      1800      1879      2030      2037
 -1      4573    3    0    1
 -2      1468      1600      2030      2037
 -1      4574    3    0    1
 -2       180      1775      1854      2036
 -1      4575    3    0    1
 -2      1388      1775      1134      2036
 -1      4576    3    0    1
 -2      1775      1606      1854      2036
 -1      4577    3    0    1
 -2       632      1864       907      1136
 -1      4578    3    0    1
 -2       637      1863      1215      1970
 -1      4579    3    0    1
 -2      1374       632      1721      1136
 -1      4580    3    0    2
 -2       131      1136       130       133
 -1      4581    3    0    1
 -2      1136       132      1374       907
 -1      4582    3    0    1
 -2       437      1669      1835      2029
 -1      4583    3    0    2
 -2       702      1138       718       656
 -1      4584    3    0    2
 -2       541      1138      1137       915
 -1      4585    3    0    1
 -2       541      1676      1982      1914
 -1      4586    3    0    2
 -2       417      1209      1105      1210
 -1      4587    3    0    1
 -2       417      1209      1913      1105
 -1      4588    3    0    1
 -2       702       656      1885      1137
 -1      4589    3    0    1
 -2      1885       656       916      1137
 -1      4590    3    0    2
 -2       541      1138       915       564
 -1      4591    3    0    2
 -2       656       915       916      1137
 -1      4592    3    0    1
 -2       541       530       916      2028
 -1      4593    3    0    1
 -2       527      1622      1777      1139
 -1      4594    3    0    1
 -2       527      1777      1051      1139
 -1      4595    3    0    2
 -2       693      1140       739       413
 -1      4596    3    0    2
 -2       527      1140      1052       571
 -1      4597    3    0    2
 -2       693      1140       413      1139
 -1      4598    3    0    1
 -2      1622      1556      1777      1139
 -1      4599    3    0    1
 -2       408      1475       866      1939
 -1      4600    3    0    1
 -2      1839       411      1912      1939
 -1      4601    3    0    1
 -2      1475       408      1839      1939
 -1      4602    3    0    1
 -2       411      1839      1049      1939
 -1      4603    3    0    1
 -2       260      1809      1912      1939
 -1      4604    3    0    1
 -2      1624       259      1912      1939
 -1      4605    3    0    1
 -2       259      1624      1809      1939
 -1      4606    3    0    1
 -2      1809      1624      1912      1939
 -1      4607    3    0    1
 -2      1475      1839      1912      1939
 -1      4608    3    0    2
 -2       297      1264      1142       259
 -1      4609    3    0    1
 -2      1522      1443      1535      1940
 -1      4610    3    0    1
 -2      1913       417      1105      1988
 -1      4611    3    0    1
 -2      1926      1770      1968      1988
 -1      4612    3    0    1
 -2       417      1913      1926      1988
 -1      4613    3    0    1
 -2      1494       185      1535      1940
 -1      4614    3    0    1
 -2      1443      1494      1535      1940
 -1      4615    3    0    1
 -2       435      1769       964      1281
 -1      4616    3    0    2
 -2      1143      1190       673      1144
 -1      4617    3    0    2
 -2       407      1192       780       775
 -1      4618    3    0    1
 -2      1529       553      1849      1145
 -1      4619    3    0    1
 -2       708      1426      1849      1145
 -1      4620    3    0    1
 -2      1599      1721      1780      1143
 -1      4621    3    0    1
 -2        44      1796      1872      1191
 -1      4622    3    0    2
 -2       396      1144       771       770
 -1      4623    3    0    2
 -2      1144       673       396       771
 -1      4624    3    0    2
 -2       627      1148      1147      1021
 -1      4625    3    0    2
 -2       880       661       803      1146
 -1      4626    3    0    2
 -2      1145       661       879      1146
 -1      4627    3    0    2
 -2       553      1146       547       609
 -1      4628    3    0    2
 -2       708      1146       803       661
 -1      4629    3    0    1
 -2       365      1860      1017      2004
 -1      4630    3    0    1
 -2       240       243      1880      1147
 -1      4631    3    0    1
 -2      1880       243      1022      1147
 -1      4632    3    0    2
 -2       240      1148       304       303
 -1      4633    3    0    2
 -2       243      1148      1147       240
 -1      4634    3    0    1
 -2        45      1846       946      1149
 -1      4635    3    0    2
 -2       945        45       946      1149
 -1      4636    3    0    2
 -2       243      1021      1022      1147
 -1      4637    3    0    2
 -2       627      1148      1021       667
 -1      4638    3    0    2
 -2       243      1148      1021      1147
 -1      4639    3    0    2
 -2        45      1150      1149       945
 -1      4640    3    0    1
 -2       520      1559      1972      1307
 -1      4641    3    0    1
 -2      1327       650      2038      2054
 -1      4642    3    0    2
 -2       647      1025      1026      1307
 -1      4643    3    0    2
 -2       677      1150      1149       628
 -1      4644    3    0    2
 -2       677       945       946      1149
 -1      4645    3    0    2
 -2        45      1150       945       138
 -1      4646    3    0    1
 -2       400      1646      1083      1151
 -1      4647    3    0    2
 -2      1083      1152      1151       363
 -1      4648    3    0    2
 -2       677      1150       945      1149
 -1      4649    3    0    1
 -2      1423       363      1646      1151
 -1      4650    3    0    2
 -2       363      1152       599      1084
 -1      4651    3    0    1
 -2        75      1647      1669      1960
 -1      4652    3    0    1
 -2      1511       430      1110      2017
 -1      4653    3    0    2
 -2       398      1030       788      1154
 -1      4654    3    0    2
 -2      1153       248      1029      1154
 -1      4655    3    0    1
 -2      1842      1829      1916      1153
 -1      4656    3    0    1
 -2      1963      1113      1964      2042
 -1      4657    3    0    1
 -2      1794      1620      1871      1941
 -1      4658    3    0    2
 -2       622      1154       398       788
 -1      4659    3    0    1
 -2      1697      1929      1173      2042
 -1      4660    3    0    2
 -2       250      1154       310       248
 -1      4661    3    0    1
 -2      1649       630      1906      1229
 -1      4662    3    0    1
 -2      1871      1620       876      1941
 -1      4663    3    0    1
 -2       518      1871       876      1941
 -1      4664    3    0    1
 -2       645      1871       882      1941
 -1      4665    3    0    1
 -2       645      1548      1871      1941
 -1      4666    3    0    2
 -2       899      1230       630      1229
 -1      4667    3    0    2
 -2       546      1156      1099       611
 -1      4668    3    0    1
 -2       705       662      1403      1155
 -1      4669    3    0    1
 -2      1403       662      1100      1155
 -1      4670    3    0    2
 -2       656      1244       729       718
 -1      4671    3    0    2
 -2       662      1099      1100      1155
 -1      4672    3    0    1
 -2      1655       551      1073      1157
 -1      4673    3    0    2
 -2       663      1158      1157       432
 -1      4674    3    0    2
 -2       551      1158       610      1074
 -1      4675    3    0    2
 -2      1073      1158       432      1157
 -1      4676    3    0    2
 -2       663      1158       432       812
 -1      4677    3    0    1
 -2      1880      1670      1022      1942
 -1      4678    3    0    1
 -2       243      1880      1022      1942
 -1      4679    3    0    1
 -2      1670       676      1022      1942
 -1      4680    3    0    1
 -2       676      1670      1906      1942
 -1      4681    3    0    1
 -2       265       260      1736      1261
 -1      4682    3    0    1
 -2      1880       240      1147      2003
 -1      4683    3    0    1
 -2      1963      1656      1964      1313
 -1      4684    3    0    1
 -2       676      1906      1022      1942
 -1      4685    3    0    1
 -2       650      1750      1162      1327
 -1      4686    3    0    2
 -2       696       650      1159      1160
 -1      4687    3    0    1
 -2      1470      1750      1861      1160
 -1      4688    3    0    1
 -2        65      1470      1861      1160
 -1      4689    3    0    1
 -2      1470        65      1750      1160
 -1      4690    3    0    2
 -2       650       696       734      1161
 -1      4691    3    0    1
 -2       627      1670      2003      1329
 -1      4692    3    0    1
 -2       525       535      1640      1162
 -1      4693    3    0    2
 -2       734      1328       650      1161
 -1      4694    3    0    2
 -2       650       696      1161      1162
 -1      4695    3    0    2
 -2      1163       493      1164      1329
 -1      4696    3    0    1
 -2      1640       535      1887      1162
 -1      4697    3    0    1
 -2      1750      1640      1887      1162
 -1      4698    3    0    1
 -2      1670       498      1164      2021
 -1      4699    3    0    1
 -2       498      1670      1915      2021
 -1      4700    3    0    1
 -2      1586       652      1757      2022
 -1      4701    3    0    1
 -2      1480      1552      1747      2022
 -1      4702    3    0    1
 -2        64      1687      1747      2022
 -1      4703    3    0    1
 -2       652      1586      1289      2022
 -1      4704    3    0    1
 -2      1480      1747      1610      2022
 -1      4705    3    0    1
 -2       662      1403      1100      1165
 -1      4706    3    0    1
 -2       662       660      1403      1165
 -1      4707    3    0    1
 -2       660      1529      1930      1165
 -1      4708    3    0    2
 -2       547      1166       983       606
 -1      4709    3    0    1
 -2       413       693      1556      1343
 -1      4710    3    0    1
 -2      1556       693      1178      1343
 -1      4711    3    0    2
 -2        51      1344      1177       112
 -1      4712    3    0    2
 -2       693      1344      1343       413
 -1      4713    3    0    2
 -2       693      1177      1178      1343
 -1      4714    3    0    1
 -2       505      1372      1203      2040
 -1      4715    3    0    1
 -2      1576       689      1009      1169
 -1      4716    3    0    1
 -2      1557      1576      1009      1169
 -1      4717    3    0    1
 -2       501      1557      1009      1169
 -1      4718    3    0    1
 -2       501       524      1557      1169
 -1      4719    3    0    2
 -2       524      1170      1169       501
 -1      4720    3    0    1
 -2        39      1508      1576      1171
 -1      4721    3    0    1
 -2      1576      1557      1904      1169
 -1      4722    3    0    2
 -2      1010       501      1009      1169
 -1      4723    3    0    2
 -2       636       759       927      1171
 -1      4724    3    0    1
 -2      1576       636       928      1171
 -1      4725    3    0    2
 -2       524      1170       501       579
 -1      4726    3    0    1
 -2       406      1697      1929      1173
 -1      4727    3    0    2
 -2       123        39       185      1171
 -1      4728    3    0    2
 -2       928       123       185      1171
 -1      4729    3    0    2
 -2       123       122        39      1171
 -1      4730    3    0    1
 -2      1618       641       942      2043
 -1      4731    3    0    1
 -2      1710      1792      1811      2021
 -1      4732    3    0    2
 -2      1173       241       891      1174
 -1      4733    3    0    1
 -2      1173       241      1929       892
 -1      4734    3    0    2
 -2       258      1174       306       241
 -1      4735    3    0    1
 -2       677       628      1915      1175
 -1      4736    3    0    1
 -2      1915       628      1080      1175
 -1      4737    3    0    2
 -2       498      1176      1079       586
 -1      4738    3    0    1
 -2      1687        64      1289      2022
 -1      4739    3    0    2
 -2       677      1176       628      1175
 -1      4740    3    0    2
 -2      1298      1001       378      1297
 -1      4741    3    0    1
 -2      1853      1772       887      1943
 -1      4742    3    0    1
 -2      1772       366       887      1943
 -1      4743    3    0    1
 -2       404      1853       887      1943
 -1      4744    3    0    1
 -2      1751       380       916      1179
 -1      4745    3    0    2
 -2       693      1344       413       739
 -1      4746    3    0    1
 -2      1897       505      1372      1103
 -1      4747    3    0    1
 -2       505      1897      1372      2040
 -1      4748    3    0    1
 -2      1543      1435      1805      2055
 -1      4749    3    0    1
 -2      1751       423      1774      1179
 -1      4750    3    0    1
 -2      1774       423      1053      1179
 -1      4751    3    0    1
 -2       380      1751      1875      1179
 -1      4752    3    0    1
 -2       380      1875      1053      1179
 -1      4753    3    0    1
 -2       653      1223      1868      1181
 -1      4754    3    0    1
 -2      1875      1774      1053      1179
 -1      4755    3    0    1
 -2      1751      1774      1875      1179
 -1      4756    3    0    1
 -2       266      1223      1868       276
 -1      4757    3    0    2
 -2       653      1223      1181      1224
 -1      4758    3    0    2
 -2       700      1224       653       719
 -1      4759    3    0    1
 -2       539      1477      1899      1183
 -1      4760    3    0    2
 -2       653      1182       719      1224
 -1      4761    3    0    1
 -2       270       277      1723      1201
 -1      4762    3    0    1
 -2       277      1695      1723      1201
 -1      4763    3    0    2
 -2       958       653       719      1184
 -1      4764    3    0    2
 -2      1183       653       957      1184
 -1      4765    3    0    1
 -2      1439       168       998      1944
 -1      4766    3    0    1
 -2       412      1421      1809      2010
 -1      4767    3    0    2
 -2       539      1184       528       560
 -1      4768    3    0    2
 -2       924       389      1187      1188
 -1      4769    3    0    2
 -2       700      1184       719       653
 -1      4770    3    0    1
 -2      1712      1390      1784      1944
 -1      4771    3    0    1
 -2      1498      1390      1541      1944
 -1      4772    3    0    1
 -2       168      1498      1541      1944
 -1      4773    3    0    1
 -2       168      1439      1498      1944
 -1      4774    3    0    1
 -2      1390      1498      1784      1944
 -1      4775    3    0    1
 -2      1439      1712      1784      1944
 -1      4776    3    0    1
 -2      1498      1439      1784      1944
 -1      4777    3    0    2
 -2       694      1186      1185       426
 -1      4778    3    0    2
 -2        62      1186       176      1058
 -1      4779    3    0    1
 -2       551      1655      1768      1187
 -1      4780    3    0    2
 -2      1057      1186       426      1185
 -1      4781    3    0    2
 -2       707      1188       811       924
 -1      4782    3    0    1
 -2      1768       707       923      1187
 -1      4783    3    0    2
 -2       694      1186       426       828
 -1      4784    3    0    1
 -2      1439      1574      1944      1187
 -1      4785    3    0    1
 -2       707      1439      1944      1187
 -1      4786    3    0    2
 -2       551      1188      1187       389
 -1      4787    3    0    1
 -2      1655      1439      1768      1187
 -1      4788    3    0    2
 -2       924       389       923      1187
 -1      4789    3    0    2
 -2       551      1188       389       610
 -1      4790    3    0    1
 -2      1756      1668      1803      1945
 -1      4791    3    0    1
 -2      1695       276      1913      2011
 -1      4792    3    0    1
 -2      1668       545       878      1945
 -1      4793    3    0    1
 -2       704      1668       878      1945
 -1      4794    3    0    1
 -2       545      1668      1918      1945
 -1      4795    3    0    1
 -2      1684       263      1919      1249
 -1      4796    3    0    1
 -2      1706      1477      1948      2011
 -1      4797    3    0    1
 -2      1437       240       918      1946
 -1      4798    3    0    1
 -2       240      1437      1880      1946
 -1      4799    3    0    2
 -2       376      1236      1235       372
 -1      4800    3    0    1
 -2      1508       636      1589      1999
 -1      4801    3    0    1
 -2       501      1557      1660      1999
 -1      4802    3    0    1
 -2      1520       395       883      1978
 -1      4803    3    0    1
 -2      1651      1589      1823      1999
 -1      4804    3    0    1
 -2      1508      1651      1660      1999
 -1      4805    3    0    1
 -2      1576      1508      1660      1999
 -1      4806    3    0    1
 -2      1557      1576      1660      1999
 -1      4807    3    0    1
 -2       636      1508      1576      1999
 -1      4808    3    0    1
 -2       361       497      1721      1978
 -1      4809    3    0    1
 -2        44      1331      1872        47
 -1      4810    3    0    2
 -2        47      1332        44      1331
 -1      4811    3    0    1
 -2      1872      1796      1922      1191
 -1      4812    3    0    2
 -2       407      1331      1191      1332
 -1      4813    3    0    2
 -2       675      1332       407       775
 -1      4814    3    0    2
 -2       754       415       757      1193
 -1      4815    3    0    2
 -2       679       415      1193      1194
 -1      4816    3    0    2
 -2      1065       679      1193      1194
 -1      4817    3    0    1
 -2       415       679      1771      1194
 -1      4818    3    0    1
 -2      1771       679      1065      1194
 -1      4819    3    0    1
 -2       683       403      1656      1287
 -1      4820    3    0    1
 -2       978       885      1993      1994
 -1      4821    3    0    1
 -2       502      1638       864      1323
 -1      4822    3    0    2
 -2       259      1195       865      1196
 -1      4823    3    0    1
 -2       652      1586      1757      1197
 -1      4824    3    0    1
 -2      1195       408      1475       866
 -1      4825    3    0    1
 -2      1195       259      1475       261
 -1      4826    3    0    2
 -2       685      1196       748       408
 -1      4827    3    0    2
 -2       261      1196       259       298
 -1      4828    3    0    1
 -2       528      1757      1785      1197
 -1      4829    3    0    2
 -2       383       955       956      1279
 -1      4830    3    0    1
 -2       528      1586      1899      1197
 -1      4831    3    0    1
 -2      1899      1586       858      1197
 -1      4832    3    0    1
 -2       528      1899       858      1197
 -1      4833    3    0    2
 -2       528      1198      1197       857
 -1      4834    3    0    2
 -2       528      1198       857       558
 -1      4835    3    0    1
 -2       401       402      1636      1199
 -1      4836    3    0    1
 -2      1477      1491      1889      1948
 -1      4837    3    0    2
 -2       397      1199       929      1200
 -1      4838    3    0    2
 -2       401      1200       397       795
 -1      4839    3    0    1
 -2       539      1477      1183      1948
 -1      4840    3    0    2
 -2       412      1240       745       742
 -1      4841    3    0    2
 -2       364      1200       601       362
 -1      4842    3    0    1
 -2       637      1863      1970      1257
 -1      4843    3    0    1
 -2      1863       244      1970      1257
 -1      4844    3    0    2
 -2       373      1240      1239       969
 -1      4845    3    0    1
 -2      1421       692       970      1239
 -1      4846    3    0    1
 -2      1777      1421       970      1239
 -1      4847    3    0    2
 -2       277      1202      1201       270
 -1      4848    3    0    2
 -2      1011      1202       270      1201
 -1      4849    3    0    1
 -2      1695      1659      1723      1201
 -1      4850    3    0    2
 -2       277      1202       270       291
 -1      4851    3    0    1
 -2      1622       693      1139      1949
 -1      4852    3    0    1
 -2       693      1139      1949      2025
 -1      4853    3    0    1
 -2       693      1949      2024      2025
 -1      4854    3    0    1
 -2      1507       385      1665      2026
 -1      4855    3    0    1
 -2       555      1372      1032      1203
 -1      4856    3    0    1
 -2       555       505      1372      1203
 -1      4857    3    0    2
 -2      1204       555      1031      1203
 -1      4858    3    0    2
 -2       555      1204       603       505
 -1      4859    3    0    2
 -2      1031       555      1032      1203
 -1      4860    3    0    2
 -2       505      1204       603       605
 -1      4861    3    0    2
 -2       555      1204      1031       603
 -1      4862    3    0    1
 -2      1373       283      1583      1207
 -1      4863    3    0    1
 -2       663      1373      1583      1207
 -1      4864    3    0    2
 -2       554      1206       608       390
 -1      4865    3    0    2
 -2       663      1208       812       994
 -1      4866    3    0    1
 -2       281      1373       993      1207
 -1      4867    3    0    1
 -2       281       283      1373      1207
 -1      4868    3    0    2
 -2       283      1208      1207       281
 -1      4869    3    0    2
 -2       993      1208       281      1207
 -1      4870    3    0    1
 -2       664      1571      1233      1271
 -1      4871    3    0    2
 -2       283      1208       281       316
 -1      4872    3    0    1
 -2       161      1571      1930      1271
 -1      4873    3    0    1
 -2       266      1926      1181      1950
 -1      4874    3    0    1
 -2      1926       266      1927      1950
 -1      4875    3    0    2
 -2        41      1271       925      1272
 -1      4876    3    0    1
 -2      1757      1558      1001      1950
 -1      4877    3    0    1
 -2      1902       665       909      1952
 -1      4878    3    0    1
 -2      1843       419      1001      1950
 -1      4879    3    0    1
 -2      1558      1843      1001      1950
 -1      4880    3    0    1
 -2       287      1474      1928      1973
 -1      4881    3    0    2
 -2       631      1284      1283       973
 -1      4882    3    0    1
 -2      1630      1605      1902      1952
 -1      4883    3    0    1
 -2       182      1539      1890      1211
 -1      4884    3    0    2
 -2       540      1210       559       377
 -1      4885    3    0    2
 -2       698      1210       417       723
 -1      4886    3    0    1
 -2      1890       422      1092      1211
 -1      4887    3    0    1
 -2       183       182      1890      1211
 -1      4888    3    0    2
 -2       422       732      1091      1211
 -1      4889    3    0    2
 -2       183       100       182      1211
 -1      4890    3    0    2
 -2       183       101       100      1211
 -1      4891    3    0    1
 -2       541       916      1137      2028
 -1      4892    3    0    2
 -2      1092       101       183      1211
 -1      4893    3    0    1
 -2      1659       911      1075      1958
 -1      4894    3    0    2
 -2       101      1092      1091      1211
 -1      4895    3    0    1
 -2       287       848      1928      1213
 -1      4896    3    0    1
 -2       247       287      1928      1213
 -1      4897    3    0    2
 -2       666      1214       800       639
 -1      4898    3    0    2
 -2       247      1214       312       311
 -1      4899    3    0    2
 -2       287      1214      1213       247
 -1      4900    3    0    2
 -2       639      1214       800       670
 -1      4901    3    0    1
 -2       658      1617      1956      1971
 -1      4902    3    0    2
 -2       847       666       848      1213
 -1      4903    3    0    2
 -2       287       847       848      1213
 -1      4904    3    0    2
 -2       666      1214       847       800
 -1      4905    3    0    2
 -2       885      1216       886       637
 -1      4906    3    0    2
 -2       287      1214       847      1213
 -1      4907    3    0    2
 -2       637      1216       886       755
 -1      4908    3    0    1
 -2      1840      1355       845      1972
 -1      4909    3    0    2
 -2       885      1216       375       886
 -1      4910    3    0    1
 -2      1638      1782      1863      1215
 -1      4911    3    0    1
 -2      1782      1704      1863      1215
 -1      4912    3    0    2
 -2       647      1308      1025      1307
 -1      4913    3    0    1
 -2      1855      1756      1918      1953
 -1      4914    3    0    1
 -2      1373      1855       993      1953
 -1      4915    3    0    1
 -2       432      1373       993      1953
 -1      4916    3    0    1
 -2      1655       663      1157      1953
 -1      4917    3    0    1
 -2      1157       663       432      1953
 -1      4918    3    0    1
 -2       432      1918      1073      1953
 -1      4919    3    0    1
 -2      1918       389      1073      1953
 -1      4920    3    0    1
 -2       432      1855      1918      1953
 -1      4921    3    0    1
 -2      1855       432       993      1953
 -1      4922    3    0    1
 -2      1561       631      1119      1954
 -1      4923    3    0    1
 -2      1821      1561      1119      1954
 -1      4924    3    0    1
 -2       631      1561      1811      1954
 -1      4925    3    0    1
 -2      1811      1561      1821      1954
 -1      4926    3    0    2
 -2       377       950       559      1242
 -1      4927    3    0    2
 -2       701      1242       418      1241
 -1      4928    3    0    2
 -2       541      1220       564       530
 -1      4929    3    0    2
 -2       697      1220       834       731
 -1      4930    3    0    2
 -2       833      1220       530       834
 -1      4931    3    0    1
 -2      1681      1543      1689      2012
 -1      4932    3    0    2
 -2       791       397       931      1221
 -1      4933    3    0    1
 -2      1897       397      1077      1222
 -1      4934    3    0    1
 -2      1705      1897      1077      1222
 -1      4935    3    0    1
 -2        37      1705      1077      1222
 -1      4936    3    0    1
 -2        37       189      1705      1222
 -1      4937    3    0    2
 -2       151      1222       150       189
 -1      4938    3    0    1
 -2      1705      1877      1897      1222
 -1      4939    3    0    2
 -2       932       150       931      1222
 -1      4940    3    0    2
 -2       150      1221       931      1222
 -1      4941    3    0    1
 -2      1222       153      1877       932
 -1      4942    3    0    1
 -2      1223       653      1868       700
 -1      4943    3    0    2
 -2       276      1224       289       266
 -1      4944    3    0    1
 -2       398      1842       979      1225
 -1      4945    3    0    2
 -2       979      1226      1225       362
 -1      4946    3    0    2
 -2       979      1226       398      1225
 -1      4947    3    0    2
 -2       362      1226       598       980
 -1      4948    3    0    1
 -2      1075       911       542      1958
 -1      4949    3    0    1
 -2       379       542       911      1958
 -1      4950    3    0    1
 -2       379       835       961      1958
 -1      4951    3    0    1
 -2       961       542       379      1958
 -1      4952    3    0    1
 -2      1697       370      1922      1955
 -1      4953    3    0    1
 -2       436       641      1973      2043
 -1      4954    3    0    1
 -2       392      1463      1835      2043
 -1      4955    3    0    2
 -2       265      1238      1237       260
 -1      4956    3    0    1
 -2       436      1463      1275      2043
 -1      4957    3    0    1
 -2      1697       406      1019      1955
 -1      4958    3    0    1
 -2       370      1697      1019      1955
 -1      4959    3    0    1
 -2      1421       265       849      1237
 -1      4960    3    0    1
 -2      1726      1548      1955      2042
 -1      4961    3    0    1
 -2      1113       258      1603      2042
 -1      4962    3    0    1
 -2      1603       258      1929      2042
 -1      4963    3    0    1
 -2      1548      1726      1964      2042
 -1      4964    3    0    1
 -2      1348      1508      1589      2057
 -1      4965    3    0    2
 -2       630      1230       900       711
 -1      4966    3    0    1
 -2      1355       520       845      1972
 -1      4967    3    0    2
 -2       280      1338       275      1337
 -1      4968    3    0    1
 -2       639      1928      1213      2027
 -1      4969    3    0    1
 -2       429       905       855      1956
 -1      4970    3    0    1
 -2       275      1637       855      1956
 -1      4971    3    0    1
 -2       905       275       855      1956
 -1      4972    3    0    1
 -2       905       280       275      1956
 -1      4973    3    0    1
 -2       658       429      1507      1956
 -1      4974    3    0    1
 -2       429       658       905      1956
 -1      4975    3    0    1
 -2       275       280      1935      1956
 -1      4976    3    0    1
 -2      1637       275      1935      1956
 -1      4977    3    0    1
 -2       406      1019      1955      2041
 -1      4978    3    0    1
 -2       429      1507      2026       935
 -1      4979    3    0    1
 -2       248      1852      1029      1957
 -1      4980    3    0    1
 -2      1852       248      1917      1957
 -1      4981    3    0    1
 -2      1751      1885       916      2028
 -1      4982    3    0    1
 -2       247      1474      1917      1957
 -1      4983    3    0    1
 -2       530      1751       916      2028
 -1      4984    3    0    1
 -2       961      1890      1889      1958
 -1      4985    3    0    1
 -2      1423       363      1151      1959
 -1      4986    3    0    1
 -2       363      1423      1442      1959
 -1      4987    3    0    1
 -2       393      1609      1043      2049
 -1      4988    3    0    1
 -2      1646      1582      1728      1959
 -1      4989    3    0    1
 -2      1423      1646      1728      1959
 -1      4990    3    0    2
 -2       385       877       878      1335
 -1      4991    3    0    1
 -2       251       257      1833      1231
 -1      4992    3    0    1
 -2      1828       645      1033      1231
 -1      4993    3    0    1
 -2       645      1828      1833      1231
 -1      4994    3    0    1
 -2      1833      1828      1033      1231
 -1      4995    3    0    2
 -2       257      1232      1231       251
 -1      4996    3    0    1
 -2      1571        36      1077      1233
 -1      4997    3    0    2
 -2      1033      1232       251      1231
 -1      4998    3    0    1
 -2       640      1571      1077      1233
 -1      4999    3    0    2
 -2       257      1232       251       308
 -1      5000    3    0    1
 -2       710       664      1571      1233
 -1      5001    3    0    2
 -2       710      1234      1233       640
 -1      5002    3    0    2
 -2        36      1234       159      1078
 -1      5003    3    0    2
 -2      1077      1234       640      1233
 -1      5004    3    0    1
 -2      1609       965      1946      1961
 -1      5005    3    0    1
 -2      1609       393      1043      1961
 -1      5006    3    0    2
 -2       710      1234       640       797
 -1      5007    3    0    1
 -2      1609       494       965      1961
 -1      5008    3    0    1
 -2       918      1437      1946      1961
 -1      5009    3    0    1
 -2       360      1609      1043      1961
 -1      5010    3    0    1
 -2       360       494      1609      1961
 -1      5011    3    0    1
 -2      1446      1041      1934      1961
 -1      5012    3    0    1
 -2      1437      1446      1934      1961
 -1      5013    3    0    1
 -2      1446      1437       918      1961
 -1      5014    3    0    1
 -2      1934      1609      1946      1961
 -1      5015    3    0    1
 -2      1437      1934      1946      1961
 -1      5016    3    0    1
 -2       372      1407      1049      1235
 -1      5017    3    0    2
 -2      1049      1236       372      1235
 -1      5018    3    0    1
 -2      1736      1407      1875      1235
 -1      5019    3    0    2
 -2       376      1236       372       572
 -1      5020    3    0    1
 -2       260      1421      1912      1237
 -1      5021    3    0    1
 -2       642      1830       981      1995
 -1      5022    3    0    2
 -2       784       403       669      1288
 -1      5023    3    0    2
 -2       669       403      1287      1288
 -1      5024    3    0    2
 -2       412      1238       850       745
 -1      5025    3    0    2
 -2       260      1238       296       295
 -1      5026    3    0    1
 -2      1548      1726      1963      1964
 -1      5027    3    0    1
 -2      1656       683      1963      1964
 -1      5028    3    0    1
 -2       683      1833      1964      1656
 -1      5029    3    0    1
 -2      1275       641       436      2043
 -1      5030    3    0    1
 -2      1113       646      1963      1964
 -1      5031    3    0    1
 -2      1463       436      1973      2043
 -1      5032    3    0    1
 -2       683       914      1963      1964
 -1      5033    3    0    1
 -2       942       641      1275      2043
 -1      5034    3    0    2
 -2      1238       849       412       850
 -1      5035    3    0    1
 -2      1695      1659      1706      1965
 -1      5036    3    0    1
 -2      1477      1695      1706      1965
 -1      5037    3    0    1
 -2      1706      1659      1201      1965
 -1      5038    3    0    1
 -2      1659       657      1201      1965
 -1      5039    3    0    1
 -2      1659      1477      1889      1965
 -1      5040    3    0    1
 -2      1477      1659      1695      1965
 -1      5041    3    0    2
 -2       692      1240      1239       412
 -1      5042    3    0    2
 -2       692       969       970      1239
 -1      5043    3    0    2
 -2       373      1240       969       573
 -1      5044    3    0    2
 -2       692      1240       969      1239
 -1      5045    3    0    1
 -2      1517      1655      1825      1966
 -1      5046    3    0    1
 -2       551      1655      1187      1966
 -1      5047    3    0    1
 -2      1439      1574      1187      1966
 -1      5048    3    0    1
 -2      1574      1439      1655      1966
 -1      5049    3    0    1
 -2      1655      1439      1187      1966
 -1      5050    3    0    2
 -2       701      1242       720       418
 -1      5051    3    0    1
 -2       270      1419      1723      1243
 -1      5052    3    0    1
 -2      1723      1885       960      1243
 -1      5053    3    0    1
 -2       277      1723       960      1243
 -1      5054    3    0    1
 -2       277       270      1723      1243
 -1      5055    3    0    2
 -2       702      1244      1243       656
 -1      5056    3    0    2
 -2      1244       277       959      1243
 -1      5057    3    0    1
 -2      1480      1610      1657      2058
 -1      5058    3    0    1
 -2      1508      1348      1725      2057
 -1      5059    3    0    1
 -2       626      1406      1935      1337
 -1      5060    3    0    1
 -2      1617       626      1641      1337
 -1      5061    3    0    1
 -2       656       702      1885      1243
 -1      5062    3    0    1
 -2      1885       702       960      1243
 -1      5063    3    0    2
 -2       277      1244       291       270
 -1      5064    3    0    1
 -2      1227       519      1547      2034
 -1      5065    3    0    1
 -2      1723      1419      1885      1243
 -1      5066    3    0    2
 -2       702       959       960      1243
 -1      5067    3    0    2
 -2       959       277       960      1243
 -1      5068    3    0    2
 -2       702      1244       959      1243
 -1      5069    3    0    2
 -2       270      1244       291       292
 -1      5070    3    0    2
 -2       277      1244       959       291
 -1      5071    3    0    1
 -2      1547       643      1860      1967
 -1      5072    3    0    1
 -2      1547      1599      1218      1967
 -1      5073    3    0    1
 -2        33      1677      1038      1967
 -1      5074    3    0    1
 -2      1023      1547      1038       684
 -1      5075    3    0    1
 -2      1677       643      1038      1967
 -1      5076    3    0    1
 -2      1218       142      1023      1967
 -1      5077    3    0    1
 -2      1572       142      1599      1967
 -1      5078    3    0    1
 -2      1599       142      1218      1967
 -1      5079    3    0    1
 -2      1547      1038       684       643
 -1      5080    3    0    1
 -2       145        33      1023      1967
 -1      5081    3    0    1
 -2        33       145      1848      1967
 -1      5082    3    0    1
 -2      1023        33      1038      1967
 -1      5083    3    0    1
 -2      1547      1023      1038      1967
 -1      5084    3    0    2
 -2       526      1248       380       566
 -1      5085    3    0    2
 -2       691      1248       716       424
 -1      5086    3    0    1
 -2       704      1628       971      1969
 -1      5087    3    0    1
 -2      1518      1501      1538      1969
 -1      5088    3    0    1
 -2       191      1518      1538      1969
 -1      5089    3    0    1
 -2      1668      1803      1945      1969
 -1      5090    3    0    1
 -2      1501      1518      1766      1969
 -1      5091    3    0    1
 -2      1501      1766      1803      1969
 -1      5092    3    0    1
 -2      1518      1628      1945      1969
 -1      5093    3    0    1
 -2      1803      1518      1945      1969
 -1      5094    3    0    1
 -2      1766      1518      1803      1969
 -1      5095    3    0    1
 -2       971       704       430      2023
 -1      5096    3    0    2
 -2       263      1250       244       299
 -1      5097    3    0    2
 -2       986        64       985      1289
 -1      5098    3    0    1
 -2       396      1599      1721      1253
 -1      5099    3    0    1
 -2      1721      1374      1136      1253
 -1      5100    3    0    2
 -2       250      1252       248       310
 -1      5101    3    0    1
 -2      1599       396       898      1253
 -1      5102    3    0    2
 -2       642      1252       794       399
 -1      5103    3    0    2
 -2       396       897       898      1253
 -1      5104    3    0    1
 -2       186      1599       898      1253
 -1      5105    3    0    1
 -2       186       137      1599      1253
 -1      5106    3    0    1
 -2       632      1721      1136      1253
 -1      5107    3    0    1
 -2       632       396      1721      1253
 -1      5108    3    0    2
 -2       396      1254       770       897
 -1      5109    3    0    1
 -2      1599      1374      1721      1253
 -1      5110    3    0    2
 -2       186       134       137      1253
 -1      5111    3    0    2
 -2       186       139       134      1253
 -1      5112    3    0    2
 -2       898       139       186      1253
 -1      5113    3    0    2
 -2       396      1254       897      1253
 -1      5114    3    0    2
 -2       139       898       897      1253
 -1      5115    3    0    1
 -2      1503       246       837      1970
 -1      5116    3    0    1
 -2       246      1503      1908      1970
 -1      5117    3    0    1
 -2      1638       953      1215      1970
 -1      5118    3    0    1
 -2       678      1638      1758      1970
 -1      5119    3    0    1
 -2       678      1758       837      1970
 -1      5120    3    0    1
 -2      1758      1503       837      1970
 -1      5121    3    0    1
 -2      1758      1638      1863      1970
 -1      5122    3    0    1
 -2      1503      1758      1863      1970
 -1      5123    3    0    1
 -2      1918      1855       841      1971
 -1      5124    3    0    1
 -2       545      1918       841      1971
 -1      5125    3    0    1
 -2      1531      1750      1325      2038
 -1      5126    3    0    1
 -2       520      1559      1809      1972
 -1      5127    3    0    1
 -2       520      1809       845      1972
 -1      5128    3    0    2
 -2       436      1256       853       796
 -1      5129    3    0    1
 -2       539      1477      1948      1974
 -1      5130    3    0    1
 -2      1491       858      1948      1974
 -1      5131    3    0    2
 -2       247       853       854      1255
 -1      5132    3    0    1
 -2      1556        51      1879      2044
 -1      5133    3    0    1
 -2        51      1714      1879      2044
 -1      5134    3    0    1
 -2       436       854      1255      1973
 -1      5135    3    0    1
 -2      1463       436      1619      1973
 -1      5136    3    0    1
 -2      1463      1619      1952      1973
 -1      5137    3    0    1
 -2       641      1474       854      1973
 -1      5138    3    0    1
 -2       436       641       854      1973
 -1      5139    3    0    2
 -2      1276       641       941       799
 -1      5140    3    0    1
 -2      1471       625      1859      1277
 -1      5141    3    0    1
 -2      1468      1600      1879      2044
 -1      5142    3    0    2
 -2       641      1276       436       799
 -1      5143    3    0    1
 -2      1952       436      1255      1973
 -1      5144    3    0    1
 -2       287      1952      1255      1973
 -1      5145    3    0    1
 -2      1619       436      1952      1973
 -1      5146    3    0    2
 -2       861       263       862      1257
 -1      5147    3    0    2
 -2       414       861       862      1257
 -1      5148    3    0    1
 -2      1640       690       872      1259
 -1      5149    3    0    1
 -2       690      1640      1698      1259
 -1      5150    3    0    2
 -2       263      1258       861       299
 -1      5151    3    0    2
 -2       690      1260       871      1259
 -1      5152    3    0    1
 -2      1486      1419      1749      1985
 -1      5153    3    0    1
 -2      1419      1486      1011      1985
 -1      5154    3    0    1
 -2      1485       379      1984      1985
 -1      5155    3    0    1
 -2      1749      1489      1887      1975
 -1      5156    3    0    1
 -2      1640       535       872      1975
 -1      5157    3    0    1
 -2       695      1640       872      1975
 -1      5158    3    0    1
 -2      1640       695      1749      1975
 -1      5159    3    0    1
 -2      1887      1489      1162      1975
 -1      5160    3    0    1
 -2       535      1887      1162      1975
 -1      5161    3    0    1
 -2      1659      1723      1011      1985
 -1      5162    3    0    1
 -2       535      1640      1887      1975
 -1      5163    3    0    1
 -2      1640      1749      1887      1975
 -1      5164    3    0    1
 -2      1287      1656      1313      2034
 -1      5165    3    0    1
 -2      1145      1529       879      1977
 -1      5166    3    0    1
 -2      1849      1529      1145      1977
 -1      5167    3    0    1
 -2      1529      1930      1165      1977
 -1      5168    3    0    1
 -2      1403      1464      1100      1977
 -1      5169    3    0    1
 -2      1403      1100      1165      1977
 -1      5170    3    0    1
 -2       879       661      1426      1977
 -1      5171    3    0    1
 -2       660      1403      1165      1977
 -1      5172    3    0    1
 -2      1403       660      1930      1977
 -1      5173    3    0    1
 -2      1930       660      1165      1977
 -1      5174    3    0    1
 -2       548      1464      1947      1977
 -1      5175    3    0    1
 -2      1464       548      1100      1977
 -1      5176    3    0    1
 -2       547      1165      1947      1977
 -1      5177    3    0    1
 -2       879       547      1947      1977
 -1      5178    3    0    1
 -2      1165      1100      1947      1977
 -1      5179    3    0    1
 -2       661       879      1947      1977
 -1      5180    3    0    1
 -2      1100       548      1947      1977
 -1      5181    3    0    1
 -2      1670      1880      1022      2003
 -1      5182    3    0    1
 -2       627      1022      1147      2003
 -1      5183    3    0    1
 -2       676      1670      1022      2003
 -1      5184    3    0    1
 -2       240      1437      1147      2003
 -1      5185    3    0    2
 -2       260       893       894      1261
 -1      5186    3    0    2
 -2       893       411       894      1261
 -1      5187    3    0    1
 -2      1857      1810      1874      1263
 -1      5188    3    0    2
 -2       648      1263      1141      1264
 -1      5189    3    0    2
 -2       623      1262       411       714
 -1      5190    3    0    1
 -2       687      1810      1840      1263
 -1      5191    3    0    1
 -2      1810       687      1874      1263
 -1      5192    3    0    1
 -2       261      1840      1857      1263
 -1      5193    3    0    1
 -2       638       630      1671      1979
 -1      5194    3    0    2
 -2       261      1264       298       259
 -1      5195    3    0    1
 -2       630       638       899      1979
 -1      5196    3    0    1
 -2      1671      1503      1820      1979
 -1      5197    3    0    1
 -2       638      1671      1820      1979
 -1      5198    3    0    1
 -2       630       899      1229      1979
 -1      5199    3    0    1
 -2      1649       630      1229      1979
 -1      5200    3    0    1
 -2      1503       246       899      1979
 -1      5201    3    0    1
 -2       246      1503      1758      1979
 -1      5202    3    0    1
 -2      1229       899       242      1979
 -1      5203    3    0    1
 -2       242      1649      1229      1979
 -1      5204    3    0    1
 -2      1649       242      1758      1979
 -1      5205    3    0    1
 -2       899       246       242      1979
 -1      5206    3    0    1
 -2       242       246      1758      1979
 -1      5207    3    0    2
 -2       647      1266       903       749
 -1      5208    3    0    1
 -2       686      1790      1026      1980
 -1      5209    3    0    1
 -2      1522      1730      1931      1980
 -1      5210    3    0    1
 -2        56      1790       904      1980
 -1      5211    3    0    1
 -2      1730       521      1931      1980
 -1      5212    3    0    1
 -2      1931       521      1026      1980
 -1      5213    3    0    1
 -2        56      1443      1787      1980
 -1      5214    3    0    1
 -2      1787      1443      1790      1980
 -1      5215    3    0    1
 -2        56      1787      1790      1980
 -1      5216    3    0    1
 -2      1790      1522      1931      1980
 -1      5217    3    0    1
 -2       904        52      1265      1981
 -1      5218    3    0    1
 -2        52      1800      1265      1981
 -1      5219    3    0    1
 -2        52      1787      1800      1981
 -1      5220    3    0    1
 -2        56        52       904      1981
 -1      5221    3    0    1
 -2        52        56      1787      1981
 -1      5222    3    0    1
 -2      1787        56       904      1981
 -1      5223    3    0    1
 -2      1695      1913      1013      1982
 -1      5224    3    0    1
 -2      1676      1695       960      1982
 -1      5225    3    0    1
 -2      1913      1914      1209      1982
 -1      5226    3    0    1
 -2       541       540      1914      1982
 -1      5227    3    0    1
 -2      1914       540      1209      1982
 -1      5228    3    0    1
 -2      1706      1695      1013      1982
 -1      5229    3    0    1
 -2      1695      1706       960      1982
 -1      5230    3    0    1
 -2      1695      1676      1913      1982
 -1      5231    3    0    1
 -2      1913      1676      1914      1982
 -1      5232    3    0    1
 -2      1486      1749      1975      1984
 -1      5233    3    0    1
 -2      1880       240       918      1267
 -1      5234    3    0    1
 -2      1749      1485      1887      1984
 -1      5235    3    0    1
 -2       421      1659      1011      1985
 -1      5236    3    0    1
 -2      1723      1419      1011      1985
 -1      5237    3    0    1
 -2       911       421      1984      1985
 -1      5238    3    0    1
 -2       379       911      1984      1985
 -1      5239    3    0    1
 -2       421      1486      1984      1985
 -1      5240    3    0    1
 -2      1486       421      1011      1985
 -1      5241    3    0    2
 -2       240       917       918      1267
 -1      5242    3    0    2
 -2       917       629       918      1267
 -1      5243    3    0    1
 -2       546       388      1650      1269
 -1      5244    3    0    1
 -2       388      1406      1650      1269
 -1      5245    3    0    2
 -2       629      1268       917       772
 -1      5246    3    0    1
 -2       431       705      1650      1269
 -1      5247    3    0    2
 -2       427      1269       919      1270
 -1      5248    3    0    1
 -2      1927      1926      1950      1986
 -1      5249    3    0    1
 -2      1406      1526      1650      1269
 -1      5250    3    0    1
 -2      1526      1406      1607      1269
 -1      5251    3    0    2
 -2       431      1270       427       825
 -1      5252    3    0    1
 -2      1926      1927       948      1986
 -1      5253    3    0    1
 -2       267      1926       948      1986
 -1      5254    3    0    2
 -2       388      1270       617       384
 -1      5255    3    0    1
 -2       419      1843       921      1986
 -1      5256    3    0    1
 -2      1950      1926      1951      1986
 -1      5257    3    0    1
 -2      1843      1950      1951      1986
 -1      5258    3    0    1
 -2      1471      1843      1926      1986
 -1      5259    3    0    1
 -2      1926      1843      1951      1986
 -1      5260    3    0    2
 -2       161      1272        41       163
 -1      5261    3    0    2
 -2       664      1272       810       660
 -1      5262    3    0    1
 -2      1522      1904      1940      1987
 -1      5263    3    0    1
 -2      1904      1576      1169      1987
 -1      5264    3    0    1
 -2      1576       689      1169      1987
 -1      5265    3    0    1
 -2      1456       185      1576      1987
 -1      5266    3    0    1
 -2      1576       185       928      1987
 -1      5267    3    0    1
 -2       185      1456      1535      1987
 -1      5268    3    0    1
 -2      1940      1904      1169      1987
 -1      5269    3    0    1
 -2       928       185      1940      1987
 -1      5270    3    0    1
 -2       689       928      1940      1987
 -1      5271    3    0    1
 -2       689      1940      1169      1987
 -1      5272    3    0    1
 -2       377      1105      1968      1988
 -1      5273    3    0    1
 -2      1105       417      1968      1988
 -1      5274    3    0    2
 -2       435      1282      1281       963
 -1      5275    3    0    2
 -2       390       963       964      1281
 -1      5276    3    0    1
 -2      1667       264      1774      1273
 -1      5277    3    0    2
 -2       941       392       942      1275
 -1      5278    3    0    1
 -2      1463       392      1619      1275
 -1      5279    3    0    1
 -2       436      1463      1619      1275
 -1      5280    3    0    1
 -2      1273       423      1774       933
 -1      5281    3    0    2
 -2       651      1274       733       423
 -1      5282    3    0    2
 -2       436      1276       796       799
 -1      5283    3    0    2
 -2       392      1276      1275       941
 -1      5284    3    0    1
 -2      1556      1932      1343      2044
 -1      5285    3    0    1
 -2      1468      1559      1600      2044
 -1      5286    3    0    1
 -2      1600      1559      1932      2044
 -1      5287    3    0    1
 -2      1879      1600      1932      2044
 -1      5288    3    0    2
 -2       641      1276      1275       436
 -1      5289    3    0    2
 -2       641       941       942      1275
 -1      5290    3    0    2
 -2       392      1276       941       604
 -1      5291    3    0    1
 -2        51      1556      1343      2044
 -1      5292    3    0    1
 -2      1714        51      1755      2044
 -1      5293    3    0    2
 -2       641      1276       941      1275
 -1      5294    3    0    2
 -2       274      1278       320       267
 -1      5295    3    0    2
 -2       654      1278       829       625
 -1      5296    3    0    2
 -2       625      1278       829       831
 -1      5297    3    0    2
 -2       267       947       948      1277
 -1      5298    3    0    2
 -2       947       654       948      1277
 -1      5299    3    0    1
 -2      1757       528      1785      1989
 -1      5300    3    0    1
 -2      1899       528       957      1989
 -1      5301    3    0    2
 -2       654      1278       947       829
 -1      5302    3    0    1
 -2      1586       528      1785      1197
 -1      5303    3    0    1
 -2       653      1950      1951      1989
 -1      5304    3    0    1
 -2       528      1757       957      1989
 -1      5305    3    0    1
 -2       957      1757      1950      1989
 -1      5306    3    0    1
 -2       653       957      1950      1989
 -1      5307    3    0    2
 -2      1280       694       955      1279
 -1      5308    3    0    2
 -2       694      1280       828       426
 -1      5309    3    0    1
 -2      1345      1607      1770      1279
 -1      5310    3    0    2
 -2       955       694       956      1279
 -1      5311    3    0    2
 -2       426      1280       828       832
 -1      5312    3    0    2
 -2       694      1280       955       828
 -1      5313    3    0    1
 -2      1770       529      1988      1990
 -1      5314    3    0    1
 -2       529      1770       956      1990
 -1      5315    3    0    1
 -2       949       418      1841      1990
 -1      5316    3    0    1
 -2      1905       418      1056      1990
 -1      5317    3    0    1
 -2      1905      1056      1185      1990
 -1      5318    3    0    1
 -2      1968       377      1988      1990
 -1      5319    3    0    1
 -2       529      1968      1988      1990
 -1      5320    3    0    1
 -2       694       949       956      1990
 -1      5321    3    0    1
 -2       949       377       956      1990
 -1      5322    3    0    1
 -2       694       418       949      1990
 -1      5323    3    0    1
 -2       418       694      1185      1990
 -1      5324    3    0    1
 -2       377       529       956      1990
 -1      5325    3    0    1
 -2      1056       418      1185      1990
 -1      5326    3    0    1
 -2       529       377      1968      1990
 -1      5327    3    0    1
 -2      1411      1674      1793      1991
 -1      5328    3    0    1
 -2       554      1674       964      1991
 -1      5329    3    0    1
 -2      1674       554      1902      1991
 -1      5330    3    0    1
 -2       281      1641      1317      2052
 -1      5331    3    0    1
 -2      1674       709       964      1991
 -1      5332    3    0    1
 -2      1793      1674      1902      1991
 -1      5333    3    0    1
 -2      1649      1792      1906      1992
 -1      5334    3    0    1
 -2      1671      1649       975      1992
 -1      5335    3    0    1
 -2       496      1671       975      1992
 -1      5336    3    0    1
 -2      1811      1561      1283      1992
 -1      5337    3    0    1
 -2      1561       496      1283      1992
 -1      5338    3    0    1
 -2      1792      1811      1906      1992
 -1      5339    3    0    1
 -2       975      1649      1906      1992
 -1      5340    3    0    1
 -2      1649       975      1906       630
 -1      5341    3    0    1
 -2      1811       496       975      1992
 -1      5342    3    0    1
 -2       496      1811      1283      1992
 -1      5343    3    0    1
 -2      1906      1811       975      1992
 -1      5344    3    0    1
 -2       408      1475      1839      1285
 -1      5345    3    0    1
 -2      1475       408       978      1285
 -1      5346    3    0    1
 -2      1741      1475       978      1285
 -1      5347    3    0    1
 -2       371       372      1839      1285
 -1      5348    3    0    1
 -2      1839       372      1049      1285
 -1      5349    3    0    1
 -2      1857       685      1195      1993
 -1      5350    3    0    1
 -2      1475      1741      1839      1285
 -1      5351    3    0    1
 -2      1704       414       885      1993
 -1      5352    3    0    2
 -2      1044       393      1043      1314
 -1      5353    3    0    1
 -2      1919       263       862      1993
 -1      5354    3    0    1
 -2      1874       263      1919      1993
 -1      5355    3    0    1
 -2      1857      1874      1919      1993
 -1      5356    3    0    1
 -2      1704      1857      1919      1993
 -1      5357    3    0    1
 -2       522       375       978      1994
 -1      5358    3    0    1
 -2       375       885       978      1994
 -1      5359    3    0    2
 -2       517      1288      1036       597
 -1      5360    3    0    1
 -2      1853      1772      1943      1995
 -1      5361    3    0    1
 -2      1692      1853      1943      1995
 -1      5362    3    0    2
 -2      1035      1288       403      1036
 -1      5363    3    0    1
 -2      1692       642      1251      1995
 -1      5364    3    0    1
 -2      1746       509      1830      1995
 -1      5365    3    0    1
 -2      1830       509       981      1995
 -1      5366    3    0    1
 -2      1692      1746      1830      1995
 -1      5367    3    0    1
 -2      1746      1692      1943      1995
 -1      5368    3    0    1
 -2      1586      1592       986      1289
 -1      5369    3    0    2
 -2       652      1290       985       721
 -1      5370    3    0    1
 -2      1592      1586      1687      1289
 -1      5371    3    0    1
 -2      1592        99      1888      1996
 -1      5372    3    0    1
 -2      1729      1491      1974      1996
 -1      5373    3    0    1
 -2      1729      1499      1742      1996
 -1      5374    3    0    1
 -2      1742      1499      1888      1996
 -1      5375    3    0    1
 -2      1499      1592      1888      1996
 -1      5376    3    0    1
 -2       858       699      1974      1996
 -1      5377    3    0    1
 -2      1491       858      1974      1996
 -1      5378    3    0    1
 -2       699      1592      1974      1996
 -1      5379    3    0    1
 -2      1592       699       986      1996
 -1      5380    3    0    1
 -2      1592      1729      1974      1996
 -1      5381    3    0    1
 -2      1592      1499      1729      1996
 -1      5382    3    0    2
 -2       370       989       990      1293
 -1      5383    3    0    2
 -2       989       407       990      1293
 -1      5384    3    0    2
 -2        75       156       157      1291
 -1      5385    3    0    1
 -2      1922       370       990      1293
 -1      5386    3    0    2
 -2       158        75       157      1291
 -1      5387    3    0    2
 -2       988        75       158      1291
 -1      5388    3    0    1
 -2      1794      1922      1962      1293
 -1      5389    3    0    1
 -2      1620      1794      1962      1293
 -1      5390    3    0    2
 -2       370      1294       989      1293
 -1      5391    3    0    2
 -2        66       996       171      1296
 -1      5392    3    0    1
 -2      1616       405      1937      1997
 -1      5393    3    0    1
 -2      1746      1479      1772      1997
 -1      5394    3    0    2
 -2       431      1296       427      1295
 -1      5395    3    0    1
 -2      1295       427      1526       995
 -1      5396    3    0    2
 -2       431      1296       825       427
 -1      5397    3    0    1
 -2       405      1616      1123      1997
 -1      5398    3    0    1
 -2       405      1086      1937      1997
 -1      5399    3    0    1
 -2      1479      1746      1937      1997
 -1      5400    3    0    1
 -2      1772      1616      1943      1997
 -1      5401    3    0    1
 -2      1746      1772      1943      1997
 -1      5402    3    0    1
 -2      1086       188      1937      1997
 -1      5403    3    0    1
 -2      1798      1479      1937      1997
 -1      5404    3    0    1
 -2      1455      1479      1798      1997
 -1      5405    3    0    1
 -2      1554      1798      1937      1997
 -1      5406    3    0    1
 -2       188      1554      1937      1997
 -1      5407    3    0    1
 -2      1554      1455      1798      1997
 -1      5408    3    0    1
 -2      1746      1616      1937      1997
 -1      5409    3    0    1
 -2      1616      1746      1943      1997
 -1      5410    3    0    1
 -2       705       431      1526      1299
 -1      5411    3    0    1
 -2      1295      1526       431      1299
 -1      5412    3    0    2
 -2      1003      1300        71      1004
 -1      5413    3    0    1
 -2        42      1413      1582      2048
 -1      5414    3    0    2
 -2       165      1300       170        71
 -1      5415    3    0    2
 -2      1005       655      1006      1301
 -1      5416    3    0    2
 -2       705      1300      1004       813
 -1      5417    3    0    1
 -2       655      1601      1006      1301
 -1      5418    3    0    1
 -2      1900       424       967      1301
 -1      5419    3    0    2
 -2      1006       102      1005      1301
 -1      5420    3    0    2
 -2       104        61       102      1301
 -1      5421    3    0    2
 -2       102      1006       104      1301
 -1      5422    3    0    2
 -2       655      1302      1005       728
 -1      5423    3    0    2
 -2        61      1302       103       102
 -1      5424    3    0    1
 -2      1583       283      1070      1998
 -1      5425    3    0    1
 -2       283      1583      1825      1998
 -1      5426    3    0    1
 -2      1583       284      1825      1998
 -1      5427    3    0    1
 -2      1947       661      1977      1998
 -1      5428    3    0    1
 -2       661      1426      1977      1998
 -1      5429    3    0    1
 -2       284      1426      1007      1998
 -1      5430    3    0    1
 -2      1426       284      1583      1998
 -1      5431    3    0    1
 -2      1464      1947      1977      1998
 -1      5432    3    0    1
 -2      1464      1426      1583      1998
 -1      5433    3    0    1
 -2      1426      1464      1977      1998
 -1      5434    3    0    2
 -2       643      1304      1018       787
 -1      5435    3    0    1
 -2      1446      1689      1847      1305
 -1      5436    3    0    2
 -2      1017      1304       365      1018
 -1      5437    3    0    1
 -2      1689       495      1847      1305
 -1      5438    3    0    1
 -2       495      1697      1847      1305
 -1      5439    3    0    1
 -2      1435      1543      1685      2000
 -1      5440    3    0    2
 -2       674      1306       406       776
 -1      5441    3    0    1
 -2      1490      1435      1685      2000
 -1      5442    3    0    1
 -2        45      1490      1685      2000
 -1      5443    3    0    2
 -2       495      1306       590       370
 -1      5444    3    0    1
 -2      1742       183      1744      2013
 -1      5445    3    0    1
 -2      1729      1742      1744      2013
 -1      5446    3    0    1
 -2      1491      1729      1889      2013
 -1      5447    3    0    1
 -2      1889       703       961      2013
 -1      5448    3    0    1
 -2      1744       183      1092      2013
 -1      5449    3    0    1
 -2      1750      1640      1162      2038
 -1      5450    3    0    1
 -2      1355       647      1026      1307
 -1      5451    3    0    1
 -2       647      1355      1026      1981
 -1      5452    3    0    2
 -2       520      1308      1307      1025
 -1      5453    3    0    1
 -2      1750      1162      1327      2038
 -1      5454    3    0    2
 -2       520      1308      1025       575
 -1      5455    3    0    1
 -2        42      1623      1028      1309
 -1      5456    3    0    1
 -2       400      1582      1959      1309
 -1      5457    3    0    1
 -2        42      1582      1623      1309
 -1      5458    3    0    1
 -2      1646       400      1028      1309
 -1      5459    3    0    1
 -2      1623      1646      1028      1309
 -1      5460    3    0    2
 -2        42      1310      1309      1027
 -1      5461    3    0    1
 -2      1623      1582      1646      1309
 -1      5462    3    0    2
 -2       400      1310      1027      1309
 -1      5463    3    0    1
 -2       682      1479      1746      2001
 -1      5464    3    0    1
 -2        43      1387      1479      2001
 -1      5465    3    0    1
 -2      1746      1646      1083      2001
 -1      5466    3    0    1
 -2       682      1746      1083      2001
 -1      5467    3    0    1
 -2      1646       682      1083      2001
 -1      5468    3    0    1
 -2      1479       682      1028      2001
 -1      5469    3    0    1
 -2        43      1479      1028      2001
 -1      5470    3    0    1
 -2      1520      1942      1267      2002
 -1      5471    3    0    1
 -2      1978      1520      1267      2002
 -1      5472    3    0    1
 -2       901      1520      1978      2002
 -1      5473    3    0    1
 -2      1520       242      1942      2002
 -1      5474    3    0    1
 -2       242      1520       901      2002
 -1      5475    3    0    1
 -2      1649       242      1229      2002
 -1      5476    3    0    1
 -2       242      1649      1942      2002
 -1      5477    3    0    1
 -2      1906      1649      1229      2002
 -1      5478    3    0    1
 -2      1649      1906      1942      2002
 -1      5479    3    0    1
 -2       627       676      1022      2003
 -1      5480    3    0    1
 -2       676       627      1670      2003
 -1      5481    3    0    1
 -2      1446       627      1147      2003
 -1      5482    3    0    1
 -2       364       365      1636      2004
 -1      5483    3    0    1
 -2       403      1656      1035      2004
 -1      5484    3    0    1
 -2      1656       403      1829      2004
 -1      5485    3    0    1
 -2      1829       403      1035      2004
 -1      5486    3    0    1
 -2       364      1636       979      2004
 -1      5487    3    0    1
 -2       365       364      1035      2004
 -1      5488    3    0    1
 -2       364       979      1035      2004
 -1      5489    3    0    1
 -2       265      1666      1715      2005
 -1      5490    3    0    1
 -2      1715      1666      1779      2005
 -1      5491    3    0    1
 -2       265      1715      1779      2005
 -1      5492    3    0    1
 -2      1875      1736      1235      2005
 -1      5493    3    0    1
 -2      1053      1875      1235      2005
 -1      5494    3    0    1
 -2       651      1666      1774      2005
 -1      5495    3    0    1
 -2      1774      1875      1053      2005
 -1      5496    3    0    1
 -2       651      1774      1053      2005
 -1      5497    3    0    1
 -2      1666      1736      1875      2005
 -1      5498    3    0    1
 -2      1774      1666      1875      2005
 -1      5499    3    0    1
 -2       697      1601      1914      2050
 -1      5500    3    0    1
 -2       104      1601      1006      2050
 -1      5501    3    0    1
 -2        69      1808      1121      2035
 -1      5502    3    0    2
 -2       393      1313      1043      1314
 -1      5503    3    0    1
 -2      1601       104      1826      2050
 -1      5504    3    0    2
 -2       646      1314       393       779
 -1      5505    3    0    1
 -2      1841      1905      1056      1315
 -1      5506    3    0    2
 -2      1056        94      1055      1315
 -1      5507    3    0    2
 -2       519      1314       592       360
 -1      5508    3    0    1
 -2      1410      1354      1722      2051
 -1      5509    3    0    1
 -2      1315        98      1905      1056
 -1      5510    3    0    1
 -2      1315       418      1841       701
 -1      5511    3    0    2
 -2       701      1316       418       720
 -1      5512    3    0    1
 -2      1558      1886      1060      2006
 -1      5513    3    0    1
 -2      1843      1558      1001      2006
 -1      5514    3    0    1
 -2      1573      1843      1001      2006
 -1      5515    3    0    1
 -2      1886       420      1060      2006
 -1      5516    3    0    1
 -2      1060       420      1095      2006
 -1      5517    3    0    1
 -2       382      1060      1095      2006
 -1      5518    3    0    1
 -2      1558       378      1001      2006
 -1      5519    3    0    1
 -2       378      1558      1060      2006
 -1      5520    3    0    1
 -2       382       378      1060      2006
 -1      5521    3    0    1
 -2       382      1573      1297      2006
 -1      5522    3    0    1
 -2       378       382      1297      2006
 -1      5523    3    0    1
 -2      1001       378      1297      2006
 -1      5524    3    0    1
 -2      1573      1001      1297      2006
 -1      5525    3    0    1
 -2      1464       706      1070      1317
 -1      5526    3    0    2
 -2       706      1318      1317       659
 -1      5527    3    0    2
 -2       283      1318       316       281
 -1      5528    3    0    2
 -2      1318       283      1069      1317
 -1      5529    3    0    2
 -2       706      1069      1070      1317
 -1      5530    3    0    2
 -2      1069       283      1070      1317
 -1      5531    3    0    2
 -2      1064        73      1063      1319
 -1      5532    3    0    1
 -2       281      1373      1641      2052
 -1      5533    3    0    1
 -2       280      1617      1855      2052
 -1      5534    3    0    1
 -2      1464      1373      1641      1317
 -1      5535    3    0    2
 -2       706      1318      1069      1317
 -1      5536    3    0    2
 -2       283      1318      1069       316
 -1      5537    3    0    2
 -2       281      1318       316       315
 -1      5538    3    0    2
 -2       709      1320       435       804
 -1      5539    3    0    1
 -2       373      1777      1239      2010
 -1      5540    3    0    1
 -2      1421      1624      1809      2010
 -1      5541    3    0    1
 -2      1809      1624      1972      2010
 -1      5542    3    0    1
 -2      1697       990      1922       495
 -1      5543    3    0    1
 -2      1600      1559      1972      2010
 -1      5544    3    0    1
 -2       190      1390      2008      2009
 -1      5545    3    0    1
 -2      1591      1378      1661      2046
 -1      5546    3    0    1
 -2      1844       190      2008      2009
 -1      5547    3    0    1
 -2       190      1844      1064      2009
 -1      5548    3    0    1
 -2      1777       373      1932      2010
 -1      5549    3    0    1
 -2      1809       373      1239      2010
 -1      5550    3    0    1
 -2       412      1809      1239      2010
 -1      5551    3    0    1
 -2      1559       373      1809      2010
 -1      5552    3    0    1
 -2       373      1559      1932      2010
 -1      5553    3    0    1
 -2       276      1695      1223      2011
 -1      5554    3    0    1
 -2      1223      1868       276      2011
 -1      5555    3    0    1
 -2      1477      1183      1948      2011
 -1      5556    3    0    1
 -2      1706       700      1223      2011
 -1      5557    3    0    1
 -2       700      1706      1948      2011
 -1      5558    3    0    1
 -2      1183       700      1948      2011
 -1      5559    3    0    2
 -2        59      1326      1325      1159
 -1      5560    3    0    1
 -2      1681       493      1080      2012
 -1      5561    3    0    1
 -2       493      1681      1689      2012
 -1      5562    3    0    1
 -2      2038      1325      2053      2054
 -1      5563    3    0    1
 -2        59      1531      1160      1325
 -1      5564    3    0    1
 -2      1729      1744      1889      2013
 -1      5565    3    0    1
 -2       625       654      1770      1321
 -1      5566    3    0    1
 -2      1637      1859      1936      2014
 -1      5567    3    0    2
 -2      1093       625      1094      1321
 -1      5568    3    0    2
 -2       654      1322       625       829
 -1      5569    3    0    1
 -2       274      1471       874      2014
 -1      5570    3    0    1
 -2      1859      1471      1277      2014
 -1      5571    3    0    1
 -2      1471       274      1277      2014
 -1      5572    3    0    1
 -2      1936      1859      1277      2014
 -1      5573    3    0    1
 -2      1716      1573      1869      2014
 -1      5574    3    0    1
 -2      1573       425       874      2014
 -1      5575    3    0    1
 -2       425      1573      1716      2014
 -1      5576    3    0    1
 -2       274       874      1936      2014
 -1      5577    3    0    1
 -2       274      1936      1277      2014
 -1      5578    3    0    1
 -2       874      1716      1936      2014
 -1      5579    3    0    1
 -2       425      1716       874      2014
 -1      5580    3    0    1
 -2       434      1517      1825      2015
 -1      5581    3    0    1
 -2      1692      1829      1853      2016
 -1      5582    3    0    1
 -2       250      1692      1853      2016
 -1      5583    3    0    1
 -2      1692       250      1829      2016
 -1      5584    3    0    1
 -2       622      1829       979      1842
 -1      5585    3    0    1
 -2      1829       622       979      2016
 -1      5586    3    0    1
 -2       403      1829      1035      2016
 -1      5587    3    0    1
 -2      1035      1829      2004      2016
 -1      5588    3    0    1
 -2       979      1035      2004      2016
 -1      5589    3    0    1
 -2      1829       979      2004      2016
 -1      5590    3    0    1
 -2      1606      1388      1665      2017
 -1      5591    3    0    1
 -2       664      1529       984      2018
 -1      5592    3    0    1
 -2      1529       664      1571      2018
 -1      5593    3    0    1
 -2      1571       710      1115      2018
 -1      5594    3    0    1
 -2       664       710      1571      2018
 -1      5595    3    0    1
 -2       555       553      1145      2018
 -1      5596    3    0    1
 -2       553       555      1115      2018
 -1      5597    3    0    1
 -2      1032       555      1145      2018
 -1      5598    3    0    1
 -2       984       553      1115      2018
 -1      5599    3    0    1
 -2       710       984      1115      2018
 -1      5600    3    0    1
 -2       710       664       984      2018
 -1      5601    3    0    1
 -2      1633       688      1111      2019
 -1      5602    3    0    1
 -2      1111       522      1741      2019
 -1      5603    3    0    1
 -2      1741       522      1994      2019
 -1      5604    3    0    1
 -2       375       522      1125      2019
 -1      5605    3    0    1
 -2      1111       415      1125      2019
 -1      5606    3    0    1
 -2       522      1111      1125      2019
 -1      5607    3    0    1
 -2       688       415      1111      2019
 -1      5608    3    0    1
 -2      1323       632      1864       634
 -1      5609    3    0    2
 -2       499      1324       583       497
 -1      5610    3    0    1
 -2        45      1846      1149      2020
 -1      5611    3    0    1
 -2        45      1685      1846      2020
 -1      5612    3    0    1
 -2      1685        45      2000      2020
 -1      5613    3    0    1
 -2      1149       628      2012      2020
 -1      5614    3    0    1
 -2       628      1080      2012      2020
 -1      5615    3    0    1
 -2      2000      1149      2012      2020
 -1      5616    3    0    1
 -2        45      1149      2000      2020
 -1      5617    3    0    2
 -2       650      1328      1327      1161
 -1      5618    3    0    1
 -2      1640       525      1162      1327
 -1      5619    3    0    1
 -2       497      1721      1978      2039
 -1      5620    3    0    1
 -2       678      1638       953      2039
 -1      5621    3    0    1
 -2       633       678       953      2039
 -1      5622    3    0    1
 -2      1681       627      2003      1329
 -1      5623    3    0    2
 -2       525      1328      1161      1327
 -1      5624    3    0    1
 -2       633      1520      1758      2039
 -1      5625    3    0    1
 -2      1670       676      1164      1329
 -1      5626    3    0    1
 -2      1915      1670      1164      1329
 -1      5627    3    0    1
 -2       493      1915      1164      1329
 -1      5628    3    0    2
 -2       627      1330       667       769
 -1      5629    3    0    2
 -2       493      1330      1329      1163
 -1      5630    3    0    1
 -2       493      1681      1915      1329
 -1      5631    3    0    2
 -2       676      1330      1329       627
 -1      5632    3    0    1
 -2      1670      1681      2003      1329
 -1      5633    3    0    2
 -2       676      1163      1164      1329
 -1      5634    3    0    2
 -2       493      1330      1163       589
 -1      5635    3    0    1
 -2      1681      1670      1915      1329
 -1      5636    3    0    2
 -2       676      1330      1163      1329
 -1      5637    3    0    1
 -2      1670      1792      1915      2021
 -1      5638    3    0    1
 -2      1792      1710      1915      2021
 -1      5639    3    0    1
 -2      1747      1480      1610      1657
 -1      5640    3    0    1
 -2      1610      1586      1757      2022
 -1      5641    3    0    1
 -2      1480      1610      1757      2022
 -1      5642    3    0    1
 -2      1687      1610      1747      2022
 -1      5643    3    0    1
 -2      1586      1610      1687      2022
 -1      5644    3    0    1
 -2      1511      1628      1110      2023
 -1      5645    3    0    1
 -2       430      1511      1110      2023
 -1      5646    3    0    1
 -2       878       704      1945      2023
 -1      5647    3    0    1
 -2       971       430      1110      2023
 -1      5648    3    0    1
 -2      1628       971      1110      2023
 -1      5649    3    0    1
 -2      1507       878      1945      2023
 -1      5650    3    0    1
 -2       878      1507      1945       545
 -1      5651    3    0    1
 -2      1331       407      1872       675
 -1      5652    3    0    2
 -2        47      1332       140        44
 -1      5653    3    0    1
 -2      1428      1686      1949      2024
 -1      5654    3    0    1
 -2      1686       116      1178      2024
 -1      5655    3    0    1
 -2      1686      1178      1949      2024
 -1      5656    3    0    1
 -2      1178       693      1949      2024
 -1      5657    3    0    1
 -2       429      1637      1956       855
 -1      5658    3    0    1
 -2       385      1507       935      2026
 -1      5659    3    0    1
 -2      1665      1716      1869      2026
 -1      5660    3    0    1
 -2      1392      1622      1720      2025
 -1      5661    3    0    1
 -2       527      1622      1139      2025
 -1      5662    3    0    1
 -2      1622       527      1720      2025
 -1      5663    3    0    1
 -2      1622      1392      1949      2025
 -1      5664    3    0    1
 -2      1227      2049       519       360
 -1      5665    3    0    1
 -2      1637       429      1956      2026
 -1      5666    3    0    1
 -2       429      1637      1716      2026
 -1      5667    3    0    1
 -2      1716      1637      1869      2026
 -1      5668    3    0    1
 -2      1665       385      1716      2026
 -1      5669    3    0    1
 -2       429      1716       935      2026
 -1      5670    3    0    1
 -2      1716       385       935      2026
 -1      5671    3    0    1
 -2      1474      1852      1917      2027
 -1      5672    3    0    1
 -2      1917      1852      1957      2027
 -1      5673    3    0    1
 -2      1474      1917      1957      2027
 -1      5674    3    0    1
 -2       247      1474      1957      2027
 -1      5675    3    0    1
 -2      1474       247      1213      2027
 -1      5676    3    0    1
 -2      1726       406      1955      2041
 -1      5677    3    0    1
 -2       639      1213      1957      2027
 -1      5678    3    0    1
 -2      1203       639      1957      2027
 -1      5679    3    0    1
 -2      1213       247      1957      2027
 -1      5680    3    0    1
 -2       833       530      1219      2028
 -1      5681    3    0    1
 -2       833      1900       895      2028
 -1      5682    3    0    1
 -2       655      1900       833      2028
 -1      5683    3    0    1
 -2      1601       655       833      2028
 -1      5684    3    0    1
 -2       655      1601      1900      2028
 -1      5685    3    0    1
 -2      1676       541      1137      2028
 -1      5686    3    0    1
 -2      1885      1676      1137      2028
 -1      5687    3    0    1
 -2       530       380      1751      2028
 -1      5688    3    0    1
 -2       380      1900      2028       895
 -1      5689    3    0    1
 -2       530       833       895      2028
 -1      5690    3    0    1
 -2       380       530       895      2028
 -1      5691    3    0    1
 -2      1463       392      1835      2029
 -1      5692    3    0    1
 -2      1835       392      1334      2029
 -1      5693    3    0    1
 -2       392      1463      1619      2029
 -1      5694    3    0    1
 -2      1411       437      1334      2029
 -1      5695    3    0    1
 -2       437      1411      1960      2029
 -1      5696    3    0    1
 -2      1619      1411      1334      2029
 -1      5697    3    0    1
 -2       392      1619      1334      2029
 -1      5698    3    0    1
 -2      1800        52      1265      2030
 -1      5699    3    0    2
 -2       385      1336       877      1335
 -1      5700    3    0    1
 -2        52      1800      1895      2030
 -1      5701    3    0    1
 -2      1468      1584      1879      2030
 -1      5702    3    0    1
 -2       647      1800      1265      2030
 -1      5703    3    0    1
 -2      1559      1468      1600      2030
 -1      5704    3    0    1
 -2      1640       525      1327      2038
 -1      5705    3    0    1
 -2      1584      1445      1895      2030
 -1      5706    3    0    1
 -2      1445        52      1895      2030
 -1      5707    3    0    1
 -2      1162      1640      1327      2038
 -1      5708    3    0    1
 -2      1800      1584      1895      2030
 -1      5709    3    0    1
 -2      1584      1800      1879      2030
 -1      5710    3    0    1
 -2      1427       129      1725      2057
 -1      5711    3    0    1
 -2      1367      1348      1589      2057
 -1      5712    3    0    1
 -2      1886      1610      2007      2058
 -1      5713    3    0    1
 -2      1823      1725      1339      2057
 -1      5714    3    0    1
 -2      1651      1589      1725      2057
 -1      5715    3    0    1
 -2      1348      1427      1725      2057
 -1      5716    3    0    1
 -2       677      1710       946      2032
 -1      5717    3    0    1
 -2      1337       275      1935       938
 -1      5718    3    0    1
 -2      1337       428      1935       626
 -1      5719    3    0    2
 -2       280      1338       318       275
 -1      5720    3    0    2
 -2       626      1338       428       824
 -1      5721    3    0    1
 -2      1710       135       946      2032
 -1      5722    3    0    1
 -2      1710      1175      2021      2032
 -1      5723    3    0    1
 -2      1811      1710      2021      2032
 -1      5724    3    0    1
 -2      1710      1495      1745      2032
 -1      5725    3    0    1
 -2       135      1710      1745      2032
 -1      5726    3    0    1
 -2      1495       135      1745      2032
 -1      5727    3    0    1
 -2      1834      1245      1976      2033
 -1      5728    3    0    1
 -2      1401      1496      1962      2033
 -1      5729    3    0    1
 -2      1962      1496      1976      2033
 -1      5730    3    0    1
 -2      1496      1401      1683      2033
 -1      5731    3    0    1
 -2        49      1496      1683      2033
 -1      5732    3    0    1
 -2      1496        49      1834      2033
 -1      5733    3    0    1
 -2      1834        49      1245      2033
 -1      5734    3    0    1
 -2      1496      1834      1976      2033
 -1      5735    3    0    1
 -2       643       684      1547      2034
 -1      5736    3    0    1
 -2      1227      1547       684      2034
 -1      5737    3    0    1
 -2       517       519      1303      2034
 -1      5738    3    0    1
 -2       519       517      1313      2034
 -1      5739    3    0    1
 -2      1227       643      1303      2034
 -1      5740    3    0    1
 -2       519      1227      1303      2034
 -1      5741    3    0    1
 -2       517      1287      1313      2034
 -1      5742    3    0    1
 -2       684       643      1227      2034
 -1      5743    3    0    1
 -2      1497      1632      1766      2035
 -1      5744    3    0    1
 -2      1497        69      1632      2035
 -1      5745    3    0    1
 -2      1766      1803      1808      2035
 -1      5746    3    0    1
 -2      1497      1766      1808      2035
 -1      5747    3    0    2
 -2      1339       128       126       129
 -1      5748    3    0    1
 -2      1339       631      1938       680
 -1      5749    3    0    1
 -2       420      1775      1886      1341
 -1      5750    3    0    1
 -2        60      1775      1134      1341
 -1      5751    3    0    1
 -2      1775        60      1886      1341
 -1      5752    3    0    2
 -2       420      1342       830       826
 -1      5753    3    0    2
 -2        60      1342      1341      1133
 -1      5754    3    0    1
 -2      1435      1543      2012      2059
 -1      5755    3    0    1
 -2       675      1933      1331      2059
 -1      5756    3    0    1
 -2       420       624      1775      1341
 -1      5757    3    0    1
 -2      1775       624      1134      1341
 -1      5758    3    0    2
 -2       624      1342      1341       420
 -1      5759    3    0    2
 -2       624      1133      1134      1341
 -1      5760    3    0    2
 -2        60      1342      1133       177
 -1      5761    3    0    1
 -2      1388      2017      2036      1425
 -1      5762    3    0    2
 -2       624      1342      1133      1341
 -1      5763    3    0    1
 -2      1388      1606      1775      2036
 -1      5764    3    0    1
 -2      1600      1468      1879      2037
 -1      5765    3    0    1
 -2      1879      1468      2030      2037
 -1      5766    3    0    1
 -2      1355       647      1307      2037
 -1      5767    3    0    1
 -2       647      1355      1981      2037
 -1      5768    3    0    1
 -2      1800       647      1981      2037
 -1      5769    3    0    1
 -2      1559       647      2030      2037
 -1      5770    3    0    1
 -2       647      1559      1307      2037
 -1      5771    3    0    1
 -2      1698      1392      1720      2038
 -1      5772    3    0    1
 -2       525      1698      1720      2038
 -1      5773    3    0    1
 -2      1698       525      1259      2038
 -1      5774    3    0    1
 -2      1640      1698      1259      2038
 -1      5775    3    0    1
 -2       525      1640      1259      2038
 -1      5776    3    0    1
 -2       525      1720      1327      2038
 -1      5777    3    0    1
 -2       953       499       497      2039
 -1      5778    3    0    1
 -2      1638       499       953      2039
 -1      5779    3    0    1
 -2      1520       633      1978      2039
 -1      5780    3    0    1
 -2      1864      1721      1129      2039
 -1      5781    3    0    1
 -2       497      1864      1129      2039
 -1      5782    3    0    1
 -2      1721       497      1129      2039
 -1      5783    3    0    1
 -2       499      1638      1864      2039
 -1      5784    3    0    1
 -2      1864       497       499      2039
 -1      5785    3    0    1
 -2      1167       497      1978      2039
 -1      5786    3    0    1
 -2       633      1167      1978      2039
 -1      5787    3    0    2
 -2       693      1344      1177      1343
 -1      5788    3    0    1
 -2      1957      1203      2027      2040
 -1      5789    3    0    1
 -2      1773      1957      2027      2040
 -1      5790    3    0    1
 -2      1773       362      1225      2040
 -1      5791    3    0    1
 -2      1773      1225      1957      2040
 -1      5792    3    0    1
 -2       362       505      1203      2040
 -1      5793    3    0    1
 -2       362      1203      1225      2040
 -1      5794    3    0    1
 -2      1225      1203      1957      2040
 -1      5795    3    0    1
 -2       370      1922      1955      2041
 -1      5796    3    0    1
 -2      1620      1794      1293      2041
 -1      5797    3    0    1
 -2      1922       370      1293      2041
 -1      5798    3    0    1
 -2      1794      1922      1293      2041
 -1      5799    3    0    1
 -2      1922      1794      1955      2041
 -1      5800    3    0    1
 -2      1726      1963      1964      2042
 -1      5801    3    0    1
 -2      1697       406      1955      2042
 -1      5802    3    0    1
 -2       406      1697      1173      2042
 -1      5803    3    0    1
 -2       406      1726      1955      2042
 -1      5804    3    0    1
 -2       258      1726      1173      2042
 -1      5805    3    0    1
 -2       258      1113      1963      2042
 -1      5806    3    0    1
 -2      1726       258      1963      2042
 -1      5807    3    0    1
 -2      1726       406      1173      2042
 -1      5808    3    0    1
 -2      1568       506      1835      2043
 -1      5809    3    0    1
 -2       506      1568      1618      2043
 -1      5810    3    0    1
 -2       392       506       942      2043
 -1      5811    3    0    1
 -2       506       392      1835      2043
 -1      5812    3    0    1
 -2      2008      1844      2009      2045
 -1      5813    3    0    1
 -2      1712      2008      2009      2045
 -1      5814    3    0    1
 -2      1844       435      1064      2045
 -1      5815    3    0    1
 -2      1844      1064      2009      2045
 -1      5816    3    0    1
 -2      1281       390      2015      2045
 -1      5817    3    0    1
 -2      1574      1281      2015      2045
 -1      5818    3    0    1
 -2       435      1281      2009      2045
 -1      5819    3    0    1
 -2      1281      1574      2009      2045
 -1      5820    3    0    1
 -2      1064       435      2009      2045
 -1      5821    3    0    1
 -2      1568       681      1591      2046
 -1      5822    3    0    1
 -2      1661      1370      1807      2046
 -1      5823    3    0    1
 -2      1568      1661      1807      2046
 -1      5824    3    0    1
 -2      1526       192      1907      2047
 -1      5825    3    0    1
 -2      1403        71      1003      2047
 -1      5826    3    0    1
 -2      1003        71      1299      2047
 -1      5827    3    0    1
 -2      1403      1003      1299      2047
 -1      5828    3    0    1
 -2       705      1403      1299      2047
 -1      5829    3    0    1
 -2      1403       705      1650      2047
 -1      5830    3    0    1
 -2      1526       705      1299      2047
 -1      5831    3    0    1
 -2       705      1526      1650      2047
 -1      5832    3    0    1
 -2       165      1295      1299      2047
 -1      5833    3    0    1
 -2       165       192      1295      2047
 -1      5834    3    0    1
 -2      1964      1313      2034      2049
 -1      5835    3    0    1
 -2      1964      1603      1313      2049
 -1      5836    3    0    1
 -2       393      1603      1934      2049
 -1      5837    3    0    1
 -2      1609       393      1934      2049
 -1      5838    3    0    1
 -2      1609      1547       943      2049
 -1      5839    3    0    1
 -2       360      1609       943      2049
 -1      5840    3    0    1
 -2      2049       943      1227      1547
 -1      5841    3    0    1
 -2      1313      1603       393      2049
 -1      5842    3    0    1
 -2      1603      1313       393       646
 -1      5843    3    0    1
 -2      1006       701      1315      2050
 -1      5844    3    0    1
 -2       697       701      1006      2050
 -1      5845    3    0    1
 -2       104      1006      1315      2050
 -1      5846    3    0    1
 -2       181       104      1315      2050
 -1      5847    3    0    1
 -2      1473        73      1674      2051
 -1      5848    3    0    1
 -2      1674       709      1991      2051
 -1      5849    3    0    1
 -2      1411      1674      1991      2051
 -1      5850    3    0    1
 -2      1473      1354      1504      2051
 -1      5851    3    0    1
 -2      1722      1674      1793      2051
 -1      5852    3    0    1
 -2      1473      1674      1722      2051
 -1      5853    3    0    1
 -2      1354      1473      1722      2051
 -1      5854    3    0    1
 -2      1373      1617      1641      2052
 -1      5855    3    0    1
 -2      1933      1872      1331      2055
 -1      5856    3    0    1
 -2      1540      1428      1752      2053
 -1      5857    3    0    1
 -2      1540      1428      2053      2054
 -1      5858    3    0    1
 -2        59      1540      2053      2054
 -1      5859    3    0    1
 -2      1392      2038      2053      2054
 -1      5860    3    0    1
 -2      1486       271      2031      2056
 -1      5861    3    0    1
 -2      1419      1486      2031      2056
 -1      5862    3    0    1
 -2      1243      1419      2031      2056
 -1      5863    3    0    1
 -2      1885      1243      2031      2056
 -1      5864    3    0    1
 -2      1885       656      1243      2056
 -1      5865    3    0    1
 -2       270      1419      1243      2056
 -1      5866    3    0    1
 -2      1419       270      1486      2056
 -1      5867    3    0    1
 -2       656      1885       916      2056
 -1      5868    3    0    1
 -2       423      1751      2031      2056
 -1      5869    3    0    1
 -2      1751       423      1179      2056
 -1      5870    3    0    1
 -2      1885      1751       916      2056
 -1      5871    3    0    1
 -2       916      1751      1179      2056
 -1      5872    3    0    1
 -2      1751      1885      2031      2056
 -1      5873    3    0    1
 -2      1467      1480      1657      2058
 -1      5874    3    0    1
 -2      1478      1467      1657      2058
 -1      5875    3    0    1
 -2      1610      1478      1657      2058
 -1      5876    3    0    1
 -2      1478      1610      1886      2058
 -1      5877    3    0    1
 -2        47      1331      2055      2059
 -1      5878    3    0    1
 -2      1892        47      2055      2059
 -1      5879    3    0    1
 -2      1435      1892      2055      2059
 -1      5880    3    0    1
 -2      1933      1543      2055      2059
 -3
    1PSTEP                         1           1           1          
  100CL  101 1.000000000        2059                     0    1           1
 -4  DISP        4    1
 -5  D1          1    2    1    0
 -5  D2          1    2    2    0
 -5  D3          1    2    3    0
 -5  ALL         1    2    0    0    1ALL
 -1         1 0.00000E+00 0.00000E+00 0.00000E+00
 -1         2 0.00000E+00 0.00000E+00 0.00000E+00
 -1         3 0.00000E+00 0.00000E+00 0.00000E+00
 -1         4 0.00000E+00 0.00000E+00 0.00000E+00
 -1         5 0.00000E+00 0.00000E+00 0.00000E+00
 -1         6 0.00000E+00 0.00000E+00 0.00000E+00
 -1         7 0.00000E+00 0.00000E+00 0.00000E+00
 -1         8 0.00000E+00 0.00000E+00 0.00000E+00
 -1         9 0.00000E+00 0.00000E+00 0.00000E+00
 -1        10 0.00000E+00 0.00000E+00 0.00000E+00
 -1        11 0.00000E+00 0.00000E+00 0.00000E+00
 -1        12 0.00000E+00 0.00000E+00 0.00000E+00
 -1        13 0.00000E+00 0.00000E+00 0.00000E+00
 -1        14 0.00000E+00 0.00000E+00 0.00000E+00
 -1        15 0.00000E+00 0.00000E+00 0.00000E+00
 -1        16 0.00000E+00 0.00000E+00 0.00000E+00
 -1        17 0.00000E+00 0.00000E+00 0.00000E+00
 -1        18 0.00000E+00 0.00000E+00 0.00000E+00
 -1        19 0.00000E+00 0.00000E+00 0.00000E+00
 -1        20 0.00000E+00 0.00000E+00 0.00000E+00
 -1        21 0.00000E+00 0.00000E+00 0.00000E+00
 -1        22 0.00000E+00 0.00000E+00 0.00000E+00
 -1        23 0.00000E+00 0.00000E+00 0.00000E+00
 -1        24 0.00000E+00 0.00000E+00 0.00000E+00
 -1        25 0.00000E+00 0.00000E+00 0.00000E+00
 -1        26 0.00000E+00 0.00000E+00 0.00000E+00
 -1        27 0.00000E+00 0.00000E+00 0.00000E+00
 -1        28 0.00000E+00 0.00000E+00 0.00000E+00
 -1        29 0.00000E+00 0.00000E+00 0.00000E+00
 -1        30 0.00000E+00 0.00000E+00 0.00000E+00
 -1        31 0.00000E+00 0.00000E+00 0.00000E+00
 -1        32 0.00000E+00 0.00000E+00 0.00000E+00
 -1        33 1.51223E-02 6.32523E-03-4.52441E-01
 -1        34 0.00000E+00 0.00000E+00 0.00000E+00
 -1        35 6.58350E-03-1.60527E-02-4.51539E-01
 -1        36 5.12732E-03 1.54693E-02-4.50660E-01
 -1        37 5.07385E-03 1.53401E-02-4.52310E-01
 -1        38 0.00000E+00 0.00000E+00 0.00000E+00
 -1        39 7.16249E-03-1.58129E-02-1.45903E-01
 -1        40 0.00000E+00 0.00000E+00 0.00000E+00
 -1        41-1.81447E-03 1.71595E-02-4.49175E-01
 -1        42 1.15200E-02 1.10668E-02-1.43460E-01
 -1        43 1.15690E-02 1.11157E-02-1.42324E-01
 -1        44 1.69910E-02 3.55386E-04-1.41513E-01
 -1        45 1.51734E-02-7.38166E-03-1.37591E-01
 -1        46 0.00000E+00 0.00000E+00 0.00000E+00
 -1        47 1.70784E-02 3.55386E-04-1.42791E-01
 -1        48 0.00000E+00 0.00000E+00 0.00000E+00
 -1        49 1.55121E-02 5.38416E-03-1.41131E-01
 -1        50 0.00000E+00 0.00000E+00 0.00000E+00
 -1        51-6.73327E-03-1.57771E-02-1.47117E-01
 -1        52-3.82223E-04-1.79913E-02-1.44774E-01
 -1        53 0.00000E+00 0.00000E+00 0.00000E+00
 -1        54 1.05640E-04-1.80330E-02-4.57194E-01
 -1        55 0.00000E+00 0.00000E+00 0.00000E+00
 -1        56-3.82222E-04-1.80330E-02-1.44459E-01
 -1        57 0.00000E+00 0.00000E+00 0.00000E+00
 -1        58 0.00000E+00 0.00000E+00 0.00000E+00
 -1        59-1.27554E-02-1.10919E-02-1.45691E-01
 -1        60-1.59890E-02 6.94083E-03-1.36671E-01
 -1        61-1.61477E-02-6.88316E-03-4.55686E-01
 -1        62-1.56179E-02 7.83694E-03-4.51609E-01
 -1        63 0.00000E+00 0.00000E+00 0.00000E+00
 -1        64-1.69815E-02 1.01305E-03-1.41087E-01
 -1        65-1.27326E-02-1.10691E-02-1.45145E-01
 -1        66-1.20406E-02 1.30089E-02-4.51294E-01
 -1        67-1.56945E-02 7.86867E-03-4.50908E-01
 -1        68 0.00000E+00 0.00000E+00 0.00000E+00
 -1        69-6.28046E-03 1.60074E-02-1.38091E-01
 -1        70 0.00000E+00 0.00000E+00 0.00000E+00
 -1        71-6.38673E-03 1.59523E-02-4.47509E-01
 -1        72 1.05633E-04-1.79913E-02-4.57509E-01
 -1        73-3.03841E-04 1.70304E-02-1.36666E-01
 -1        74 0.00000E+00 0.00000E+00 0.00000E+00
 -1        75 6.63800E-03 1.48435E-02-1.39144E-01
 -1        76 0.00000E+00 0.00000E+00 0.00000E+00
 -1        77 0.00000E+00 0.00000E+00 0.00000E+00
 -1        78 0.00000E+00 0.00000E+00 0.00000E+00
 -1        79 0.00000E+00 0.00000E+00 0.00000E+00
 -1        80 0.00000E+00 0.00000E+00 0.00000E+00
 -1        81 0.00000E+00 0.00000E+00 0.00000E+00
 -1        82 0.00000E+00 0.00000E+00 0.00000E+00
 -1        83 0.00000E+00 0.00000E+00 0.00000E+00
 -1        84 0.00000E+00 0.00000E+00 0.00000E+00
 -1        85 0.00000E+00 0.00000E+00 0.00000E+00
 -1        86 0.00000E+00 0.00000E+00 0.00000E+00
 -1        87 0.00000E+00 0.00000E+00 0.00000E+00
 -1        88 0.00000E+00 0.00000E+00 0.00000E+00
 -1        89 0.00000E+00 0.00000E+00 0.00000E+00
 -1        90 0.00000E+00 0.00000E+00 0.00000E+00
 -1        91 0.00000E+00 0.00000E+00 0.00000E+00
 -1        92 0.00000E+00 0.00000E+00 0.00000E+00
 -1        93 0.00000E+00 0.00000E+00 0.00000E+00
 -1        94-2.56736E-02 1.51996E-03-4.55561E-01
 -1        95-2.56736E-02 1.30372E-03-1.41981E-01
 -1        96-2.56920E-02 1.51997E-03-4.54666E-01
 -1        97-2.56921E-02 1.30372E-03-1.41087E-01
 -1        98-1.69815E-02 1.22929E-03-4.54666E-01
 -1        99-1.69630E-02 1.01304E-03-1.41981E-01
 -1       100-2.45537E-02-9.11052E-03-1.45421E-01
 -1       101-2.44380E-02-9.06258E-03-1.46364E-01
 -1       102-2.38771E-02-1.04165E-02-4.56629E-01
 -1       103-2.39928E-02-1.04644E-02-4.55686E-01
 -1       104-1.60320E-02-6.83522E-03-4.56629E-01
 -1       105-1.90416E-02-1.71268E-02-1.45691E-01
 -1       106-1.24888E-02-1.13584E-02-4.59335E-01
 -1       107-1.87750E-02-1.73934E-02-4.59335E-01
 -1       108-1.24660E-02-1.13356E-02-4.58789E-01
 -1       109-1.87522E-02-1.73706E-02-4.58789E-01
 -1       110-1.90188E-02-1.71040E-02-1.45145E-01
 -1       111-9.77411E-03-2.38873E-02-1.48023E-01
 -1       112-9.74948E-03-2.38278E-02-1.47117E-01
 -1       113-1.04449E-02-2.35397E-02-4.56431E-01
 -1       114-1.04696E-02-2.35991E-02-4.57337E-01
 -1       115-7.45342E-03-1.55485E-02-4.57337E-01
 -1       116-6.75789E-03-1.58366E-02-1.48023E-01
 -1       117-2.79917E-04-2.66784E-02-1.44774E-01
 -1       118-2.79917E-04-2.67201E-02-1.44459E-01
 -1       119 2.07947E-04-2.67200E-02-4.57194E-01
 -1       120 2.07942E-04-2.66784E-02-4.57509E-01
 -1       121 1.02543E-02-2.37216E-02-4.51539E-01
 -1       122 1.08333E-02-2.34818E-02-1.45903E-01
 -1       123 1.08538E-02-2.35313E-02-1.47308E-01
 -1       124 1.02748E-02-2.37711E-02-4.52944E-01
 -1       125 6.60399E-03-1.61022E-02-4.52944E-01
 -1       126 1.90648E-02-1.81997E-02-1.39316E-01
 -1       127 1.90666E-02-1.82015E-02-1.37754E-01
 -1       128 1.25275E-02-1.23801E-02-1.37754E-01
 -1       129 1.25257E-02-1.23783E-02-1.39316E-01
 -1       130 1.90853E-02-1.81792E-02-4.53962E-01
 -1       131 1.90870E-02-1.81810E-02-4.52401E-01
 -1       132 1.25462E-02-1.23578E-02-4.53962E-01
 -1       133 1.25480E-02-1.23596E-02-4.52401E-01
 -1       134 2.35777E-02-9.83427E-03-4.53830E-01
 -1       135 1.51067E-02-7.35404E-03-1.37917E-01
 -1       136 2.32547E-02-1.06142E-02-1.37917E-01
 -1       137 1.54298E-02-6.57415E-03-4.53830E-01
 -1       138 2.33214E-02-1.06418E-02-1.37591E-01
 -1       139 2.36444E-02-9.86187E-03-4.53503E-01
 -1       140 2.56988E-02 7.70672E-04-1.42791E-01
 -1       141 2.56988E-02-2.52734E-04-4.53124E-01
 -1       142 1.70785E-02-6.68038E-04-4.53124E-01
 -1       143 2.56114E-02 7.70672E-04-1.41513E-01
 -1       144 2.56113E-02-2.52729E-04-4.51847E-01
 -1       145 1.69910E-02-6.68029E-04-4.51847E-01
 -1       146 2.31754E-02 9.48024E-03-4.52441E-01
 -1       147 2.35653E-02 8.53919E-03-1.41131E-01
 -1       148 2.36457E-02 8.57250E-03-1.41645E-01
 -1       149 2.32558E-02 9.51356E-03-4.52955E-01
 -1       150 1.85146E-02 1.63941E-02-4.53495E-01
 -1       151 1.84656E-02 1.63452E-02-4.54632E-01
 -1       152 1.79421E-02 1.69666E-02-1.42324E-01
 -1       153 1.21414E-02 1.05433E-02-4.53495E-01
 -1       154 1.78932E-02 1.69177E-02-1.43460E-01
 -1       155 7.88986E-03 2.35398E-02-4.52310E-01
 -1       156 6.58451E-03 1.47143E-02-1.40794E-01
 -1       157 9.40059E-03 2.29141E-02-1.40794E-01
 -1       158 9.45407E-03 2.30432E-02-1.39144E-01
 -1       159 7.94334E-03 2.36689E-02-4.50660E-01
 -1       160-2.15819E-03 2.58697E-02-4.49175E-01
 -1       161-1.81446E-03 1.70304E-02-4.50233E-01
 -1       162-6.47557E-04 2.58697E-02-1.35609E-01
 -1       163-2.15818E-03 2.57405E-02-4.50233E-01
 -1       164-6.47557E-04 2.57406E-02-1.36666E-01
 -1       165-6.39063E-03 1.59617E-02-4.47556E-01
 -1       166-9.55202E-03 2.39458E-02-1.38044E-01
 -1       167-9.66217E-03 2.39001E-02-4.47509E-01
 -1       168-6.27656E-03 1.59979E-02-1.38044E-01
 -1       169-9.55593E-03 2.39552E-02-1.38091E-01
 -1       170-9.66607E-03 2.39095E-02-4.47556E-01
 -1       171-1.80503E-02 1.91821E-02-4.50938E-01
 -1       172-1.78891E-02 1.93735E-02-1.40402E-01
 -1       173-1.80654E-02 1.91972E-02-4.51294E-01
 -1       174-1.18643E-02 1.31853E-02-1.40402E-01
 -1       175-1.78740E-02 1.93584E-02-1.40046E-01
 -1       176-2.36129E-02 1.13955E-02-4.51609E-01
 -1       177-2.39842E-02 1.04994E-02-1.36671E-01
 -1       178-2.36895E-02 1.14272E-02-4.50908E-01
 -1       179-2.40607E-02 1.05312E-02-1.35969E-01
 -1       180-1.60656E-02 6.97255E-03-1.35969E-01
 -1       181-1.69630E-02 1.22928E-03-4.55561E-01
 -1       182-1.67085E-02-5.52924E-03-1.45421E-01
 -1       183-1.65928E-02-5.48131E-03-1.46364E-01
 -1       184-7.42879E-03-1.54891E-02-4.56431E-01
 -1       185 7.18298E-03-1.58624E-02-1.47308E-01
 -1       186 1.54964E-02-6.60175E-03-4.53503E-01
 -1       187 1.52027E-02 6.35857E-03-4.52955E-01
 -1       188 1.55925E-02 5.41747E-03-1.41645E-01
 -1       189 1.20925E-02 1.04944E-02-4.54632E-01
 -1       190-3.03842E-04 1.71595E-02-1.35609E-01
 -1       191-1.18492E-02 1.31702E-02-1.40046E-01
 -1       192-1.20255E-02 1.29939E-02-4.50938E-01
 -1       193 0.00000E+00 0.00000E+00 0.00000E+00
 -1       194 0.00000E+00 0.00000E+00 0.00000E+00
 -1       195 0.00000E+00 0.00000E+00 0.00000E+00
 -1       196 0.00000E+00 0.00000E+00 0.00000E+00
 -1       197 0.00000E+00 0.00000E+00 0.00000E+00
 -1       198 0.00000E+00 0.00000E+00 0.00000E+00
 -1       199 0.00000E+00 0.00000E+00 0.00000E+00
 -1       200 0.00000E+00 0.00000E+00 0.00000E+00
 -1       201 0.00000E+00 0.00000E+00 0.00000E+00
 -1       202 0.00000E+00 0.00000E+00 0.00000E+00
 -1       203 0.00000E+00 0.00000E+00 0.00000E+00
 -1       204 0.00000E+00 0.00000E+00 0.00000E+00
 -1       205 0.00000E+00 0.00000E+00 0.00000E+00
 -1       206 0.00000E+00 0.00000E+00 0.00000E+00
 -1       207 0.00000E+00 0.00000E+00 0.00000E+00
 -1       208 0.00000E+00 0.00000E+00 0.00000E+00
 -1       209 0.00000E+00 0.00000E+00 0.00000E+00
 -1       210 0.00000E+00 0.00000E+00 0.00000E+00
 -1       211 0.00000E+00 0.00000E+00 0.00000E+00
 -1       212 0.00000E+00 0.00000E+00 0.00000E+00
 -1       213 0.00000E+00 0.00000E+00 0.00000E+00
 -1       214 0.00000E+00 0.00000E+00 0.00000E+00
 -1       215 0.00000E+00 0.00000E+00 0.00000E+00
 -1       216 0.00000E+00 0.00000E+00 0.00000E+00
 -1       217 0.00000E+00 0.00000E+00 0.00000E+00
 -1       218 0.00000E+00 0.00000E+00 0.00000E+00
 -1       219 0.00000E+00 0.00000E+00 0.00000E+00
 -1       220 0.00000E+00 0.00000E+00 0.00000E+00
 -1       221 0.00000E+00 0.00000E+00 0.00000E+00
 -1       222 0.00000E+00 0.00000E+00 0.00000E+00
 -1       223 0.00000E+00 0.00000E+00 0.00000E+00
 -1       224 0.00000E+00 0.00000E+00 0.00000E+00
 -1       225 0.00000E+00 0.00000E+00 0.00000E+00
 -1       226 0.00000E+00 0.00000E+00 0.00000E+00
 -1       227 0.00000E+00 0.00000E+00 0.00000E+00
 -1       228 0.00000E+00 0.00000E+00 0.00000E+00
 -1       229 0.00000E+00 0.00000E+00 0.00000E+00
 -1       230 0.00000E+00 0.00000E+00 0.00000E+00
 -1       231 0.00000E+00 0.00000E+00 0.00000E+00
 -1       232 0.00000E+00 0.00000E+00 0.00000E+00
 -1       233 0.00000E+00 0.00000E+00 0.00000E+00
 -1       234 0.00000E+00 0.00000E+00 0.00000E+00
 -1       235 0.00000E+00 0.00000E+00 0.00000E+00
 -1       236 0.00000E+00 0.00000E+00 0.00000E+00
 -1       237 0.00000E+00 0.00000E+00 0.00000E+00
 -1       238 0.00000E+00 0.00000E+00 0.00000E+00
 -1       239 0.00000E+00 0.00000E+00 0.00000E+00
 -1       240 1.53349E-02-6.99164E-03-2.95548E-01
 -1       241 1.70785E-02-1.56324E-04-2.97958E-01
 -1       242 1.25377E-02-1.23698E-02-2.95078E-01
 -1       243 1.52683E-02-6.96403E-03-2.95874E-01
 -1       244 6.87299E-03-1.59328E-02-2.98722E-01
 -1       245 0.00000E+00 0.00000E+00 0.00000E+00
 -1       246 1.25360E-02-1.23681E-02-2.96639E-01
 -1       247 5.82917E-03 1.50272E-02-2.96552E-01
 -1       248 1.18062E-02 1.07807E-02-2.99046E-01
 -1       249 0.00000E+00 0.00000E+00 0.00000E+00
 -1       250 1.18551E-02 1.08296E-02-2.97910E-01
 -1       251 1.53976E-02 5.88797E-03-2.97300E-01
 -1       252 0.00000E+00 0.00000E+00 0.00000E+00
 -1       253 0.00000E+00 0.00000E+00 0.00000E+00
 -1       254 0.00000E+00 0.00000E+00 0.00000E+00
 -1       255 0.00000E+00 0.00000E+00 0.00000E+00
 -1       256 0.00000E+00 0.00000E+00 0.00000E+00
 -1       257 1.53172E-02 5.85465E-03-2.96787E-01
 -1       258 1.69910E-02-1.56324E-04-2.96680E-01
 -1       259-1.38294E-04-1.79913E-02-3.01142E-01
 -1       260-7.08108E-03-1.56331E-02-3.01775E-01
 -1       261-1.38294E-04-1.80330E-02-3.00827E-01
 -1       262 0.00000E+00 0.00000E+00 0.00000E+00
 -1       263 6.89349E-03-1.59823E-02-3.00127E-01
 -1       264-1.26221E-02-1.12252E-02-3.02513E-01
 -1       265-7.10570E-03-1.56925E-02-3.02681E-01
 -1       266-1.69815E-02 1.12121E-03-2.97877E-01
 -1       267-1.58035E-02 7.38889E-03-2.94141E-01
 -1       268 0.00000E+00 0.00000E+00 0.00000E+00
 -1       269 0.00000E+00 0.00000E+00 0.00000E+00
 -1       270-1.64281E-02-6.20622E-03-3.00554E-01
 -1       271-1.25993E-02-1.12024E-02-3.01967E-01
 -1       272 0.00000E+00 0.00000E+00 0.00000E+00
 -1       273 0.00000E+00 0.00000E+00 0.00000E+00
 -1       274-1.58800E-02 7.42061E-03-2.93439E-01
 -1       275-1.19524E-02 1.30971E-02-2.95848E-01
 -1       276-1.69630E-02 1.12121E-03-2.98771E-01
 -1       277-1.63124E-02-6.15829E-03-3.01497E-01
 -1       278 0.00000E+00 0.00000E+00 0.00000E+00
 -1       279 0.00000E+00 0.00000E+00 0.00000E+00
 -1       280-1.19374E-02 1.30820E-02-2.95492E-01
 -1       281-6.33558E-03 1.59845E-02-2.92824E-01
 -1       282 0.00000E+00 0.00000E+00 0.00000E+00
 -1       283-6.33168E-03 1.59751E-02-2.92777E-01
 -1       284-1.05918E-03 1.71595E-02-2.92392E-01
 -1       285 0.00000E+00 0.00000E+00 0.00000E+00
 -1       286-1.05918E-03 1.70304E-02-2.93450E-01
 -1       287 5.88265E-03 1.51564E-02-2.94903E-01
 -1       288 0.00000E+00 0.00000E+00 0.00000E+00
 -1       289-2.56736E-02 1.41189E-03-2.98771E-01
 -1       290-2.56921E-02 1.41189E-03-2.97877E-01
 -1       291-2.41575E-02-9.73955E-03-3.01497E-01
 -1       292-2.42733E-02-9.78748E-03-3.00554E-01
 -1       293-1.88855E-02-1.72373E-02-3.01967E-01
 -1       294-1.89083E-02-1.72601E-02-3.02513E-01
 -1       295-1.01219E-02-2.37432E-02-3.02681E-01
 -1       296-1.00973E-02-2.36837E-02-3.01775E-01
 -1       297-3.59870E-05-2.66784E-02-3.01142E-01
 -1       298-3.59865E-05-2.67201E-02-3.00827E-01
 -1       299 1.05643E-02-2.36512E-02-3.00127E-01
 -1       300 1.05438E-02-2.36017E-02-2.98722E-01
 -1       301 1.90751E-02-1.81895E-02-2.96639E-01
 -1       302 1.90768E-02-1.81912E-02-2.95078E-01
 -1       303 2.34162E-02-1.02242E-02-2.95874E-01
 -1       304 2.34829E-02-1.02518E-02-2.95548E-01
 -1       305 2.56988E-02 2.58966E-04-2.97958E-01
 -1       306 2.56114E-02 2.58967E-04-2.96680E-01
 -1       307 2.34508E-02 9.04298E-03-2.97300E-01
 -1       308 2.33703E-02 9.00966E-03-2.96787E-01
 -1       309 1.81793E-02 1.66315E-02-2.99046E-01
 -1       310 1.82283E-02 1.66804E-02-2.97910E-01
 -1       311 8.69869E-03 2.33561E-02-2.94903E-01
 -1       312 8.64521E-03 2.32270E-02-2.96552E-01
 -1       313-1.40290E-03 2.58697E-02-2.92392E-01
 -1       314-1.40290E-03 2.57406E-02-2.93450E-01
 -1       315-9.61103E-03 2.39323E-02-2.92824E-01
 -1       316-9.60713E-03 2.39229E-02-2.92777E-01
 -1       317-1.79772E-02 1.92853E-02-2.95848E-01
 -1       318-1.79622E-02 1.92703E-02-2.95492E-01
 -1       319-2.37985E-02 1.09475E-02-2.94141E-01
 -1       320-2.38751E-02 1.09792E-02-2.93439E-01
 -1       321 0.00000E+00 0.00000E+00 0.00000E+00
 -1       322 0.00000E+00 0.00000E+00 0.00000E+00
 -1       323 0.00000E+00 0.00000E+00 0.00000E+00
 -1       324 0.00000E+00 0.00000E+00 0.00000E+00
 -1       325 0.00000E+00 0.00000E+00 0.00000E+00
 -1       326 0.00000E+00 0.00000E+00 0.00000E+00
 -1       327 0.00000E+00 0.00000E+00 0.00000E+00
 -1       328 0.00000E+00 0.00000E+00 0.00000E+00
 -1       329 0.00000E+00 0.00000E+00 0.00000E+00
 -1       330 0.00000E+00 0.00000E+00 0.00000E+00
 -1       331 0.00000E+00 0.00000E+00 0.00000E+00
 -1       332 0.00000E+00 0.00000E+00 0.00000E+00
 -1       333 0.00000E+00 0.00000E+00 0.00000E+00
 -1       334 0.00000E+00 0.00000E+00 0.00000E+00
 -1       335 0.00000E+00 0.00000E+00 0.00000E+00
 -1       336 0.00000E+00 0.00000E+00 0.00000E+00
 -1       337 0.00000E+00 0.00000E+00 0.00000E+00
 -1       338 0.00000E+00 0.00000E+00 0.00000E+00
 -1       339 0.00000E+00 0.00000E+00 0.00000E+00
 -1       340 0.00000E+00 0.00000E+00 0.00000E+00
 -1       341 0.00000E+00 0.00000E+00 0.00000E+00
 -1       342 0.00000E+00 0.00000E+00 0.00000E+00
 -1       343 0.00000E+00 0.00000E+00 0.00000E+00
 -1       344 0.00000E+00 0.00000E+00 0.00000E+00
 -1       345 0.00000E+00 0.00000E+00 0.00000E+00
 -1       346 0.00000E+00 0.00000E+00 0.00000E+00
 -1       347 0.00000E+00 0.00000E+00 0.00000E+00
 -1       348 0.00000E+00 0.00000E+00 0.00000E+00
 -1       349 0.00000E+00 0.00000E+00 0.00000E+00
 -1       350 0.00000E+00 0.00000E+00 0.00000E+00
 -1       351 0.00000E+00 0.00000E+00 0.00000E+00
 -1       352 0.00000E+00 0.00000E+00 0.00000E+00
 -1       353 0.00000E+00 0.00000E+00 0.00000E+00
 -1       354 0.00000E+00 0.00000E+00 0.00000E+00
 -1       355 0.00000E+00 0.00000E+00 0.00000E+00
 -1       356 0.00000E+00 0.00000E+00 0.00000E+00
 -1       357 0.00000E+00 0.00000E+00 0.00000E+00
 -1       358 0.00000E+00 0.00000E+00 0.00000E+00
 -1       359 0.00000E+00 0.00000E+00 0.00000E+00
 -1       360 1.70785E-02-4.12176E-04-3.75541E-01
 -1       361 1.53490E-02-6.76907E-03-3.74852E-01
 -1       362 1.19493E-02 1.06376E-02-3.76839E-01
 -1       363 1.16631E-02 1.09238E-02-2.21253E-01
 -1       364 1.19982E-02 1.06865E-02-3.75703E-01
 -1       365 1.53002E-02 6.12325E-03-3.75128E-01
 -1       366 1.54951E-02 5.65271E-03-2.19473E-01
 -1       367 0.00000E+00 0.00000E+00 0.00000E+00
 -1       368 0.00000E+00 0.00000E+00 0.00000E+00
 -1       369 0.00000E+00 0.00000E+00 0.00000E+00
 -1       370 1.69910E-02 9.95341E-05-2.19097E-01
 -1       371-1.63201E-05-1.79913E-02-3.79325E-01
 -1       372-7.25495E-03-1.55611E-02-3.79103E-01
 -1       373-6.90718E-03-1.57051E-02-2.24446E-01
 -1       374 0.00000E+00 0.00000E+00 0.00000E+00
 -1       375 6.74874E-03-1.60423E-02-3.76536E-01
 -1       376-7.27957E-03-1.56206E-02-3.80009E-01
 -1       377-1.69815E-02 1.17526E-03-3.76272E-01
 -1       378-1.58962E-02 7.16486E-03-2.15406E-01
 -1       379-1.65683E-02-5.86774E-03-2.22987E-01
 -1       380-1.25327E-02-1.12690E-02-3.80378E-01
 -1       381 0.00000E+00 0.00000E+00 0.00000E+00
 -1       382-1.59728E-02 7.19658E-03-2.14704E-01
 -1       383-1.57873E-02 7.64465E-03-3.72174E-01
 -1       384-1.19965E-02 1.30530E-02-3.73571E-01
 -1       385-1.19084E-02 1.31412E-02-2.18125E-01
 -1       386 0.00000E+00 0.00000E+00 0.00000E+00
 -1       387 0.00000E+00 0.00000E+00 0.00000E+00
 -1       388-1.19814E-02 1.30380E-02-3.73215E-01
 -1       389-6.30803E-03 1.59960E-02-2.15458E-01
 -1       390-6.81512E-04 1.71595E-02-2.14000E-01
 -1       391 0.00000E+00 0.00000E+00 0.00000E+00
 -1       392 6.26031E-03 1.49999E-02-2.17023E-01
 -1       393 1.70785E-02-2.84250E-04-3.36750E-01
 -1       394 1.70785E-02-5.40103E-04-4.14333E-01
 -1       395 1.53087E-02-6.86655E-03-3.35363E-01
 -1       396 1.53894E-02-6.67161E-03-4.14341E-01
 -1       397 1.20209E-02 1.05660E-02-4.15735E-01
 -1       398 1.18777E-02 1.07091E-02-3.37943E-01
 -1       399 1.17346E-02 1.08522E-02-2.60150E-01
 -1       400 1.15916E-02 1.09953E-02-1.82357E-01
 -1       401 1.20698E-02 1.06149E-02-4.14599E-01
 -1       402 1.52515E-02 6.24090E-03-4.14041E-01
 -1       403 1.53489E-02 6.00561E-03-3.36214E-01
 -1       404 1.54464E-02 5.77034E-03-2.58387E-01
 -1       405 1.55438E-02 5.53509E-03-1.80559E-01
 -1       406 1.69910E-02-2.83948E-05-2.57889E-01
 -1       407 1.69910E-02 2.27460E-04-1.80305E-01
 -1       408-7.73047E-05-1.79913E-02-3.40234E-01
 -1       409 4.46614E-05-1.79913E-02-4.18417E-01
 -1       410-7.34188E-03-1.55251E-02-4.17767E-01
 -1       411-7.16802E-03-1.55971E-02-3.40439E-01
 -1       412-6.99413E-03-1.56691E-02-2.63111E-01
 -1       413-6.82022E-03-1.57411E-02-1.85782E-01
 -1       414 6.82111E-03-1.60123E-02-3.38331E-01
 -1       415 6.67636E-03-1.60723E-02-4.14740E-01
 -1       416-7.36650E-03-1.55846E-02-4.18673E-01
 -1       417-1.69815E-02 1.14824E-03-3.37074E-01
 -1       418-1.69815E-02 1.20227E-03-4.15469E-01
 -1       419-1.58498E-02 7.27687E-03-2.54774E-01
 -1       420-1.59426E-02 7.05284E-03-1.76039E-01
 -1       421-1.64982E-02-6.03698E-03-2.61771E-01
 -1       422-1.66384E-02-5.69849E-03-1.84204E-01
 -1       423-1.25660E-02-1.12357E-02-3.41172E-01
 -1       424-1.24994E-02-1.13023E-02-4.19583E-01
 -1       425-1.59264E-02 7.30859E-03-2.54072E-01
 -1       426-1.57409E-02 7.75666E-03-4.11541E-01
 -1       427-1.20186E-02 1.30310E-02-4.12432E-01
 -1       428-1.19745E-02 1.30751E-02-3.34709E-01
 -1       429-1.19304E-02 1.31191E-02-2.56986E-01
 -1       430-1.18863E-02 1.31632E-02-1.79263E-01
 -1       431-1.20035E-02 1.30159E-02-4.12077E-01
 -1       432-6.32180E-03 1.59902E-02-2.54141E-01
 -1       433-6.29424E-03 1.60017E-02-1.76775E-01
 -1       434-8.70347E-04 1.71595E-02-2.53196E-01
 -1       435-4.92678E-04 1.71595E-02-1.74804E-01
 -1       436 6.07147E-03 1.50781E-02-2.55963E-01
 -1       437 6.44915E-03 1.49217E-02-1.78084E-01
 -1       438 0.00000E+00 0.00000E+00 0.00000E+00
 -1       439 0.00000E+00 0.00000E+00 0.00000E+00
 -1       440 0.00000E+00 0.00000E+00 0.00000E+00
 -1       441 0.00000E+00 0.00000E+00 0.00000E+00
 -1       442 0.00000E+00 0.00000E+00 0.00000E+00
 -1       443 0.00000E+00 0.00000E+00 0.00000E+00
 -1       444 0.00000E+00 0.00000E+00 0.00000E+00
 -1       445 0.00000E+00 0.00000E+00 0.00000E+00
 -1       446 0.00000E+00 0.00000E+00 0.00000E+00
 -1       447 0.00000E+00 0.00000E+00 0.00000E+00
 -1       448 0.00000E+00 0.00000E+00 0.00000E+00
 -1       449 0.00000E+00 0.00000E+00 0.00000E+00
 -1       450 0.00000E+00 0.00000E+00 0.00000E+00
 -1       451 0.00000E+00 0.00000E+00 0.00000E+00
 -1       452 0.00000E+00 0.00000E+00 0.00000E+00
 -1       453 0.00000E+00 0.00000E+00 0.00000E+00
 -1       454 0.00000E+00 0.00000E+00 0.00000E+00
 -1       455 0.00000E+00 0.00000E+00 0.00000E+00
 -1       456 0.00000E+00 0.00000E+00 0.00000E+00
 -1       457 0.00000E+00 0.00000E+00 0.00000E+00
 -1       458 0.00000E+00 0.00000E+00 0.00000E+00
 -1       459 0.00000E+00 0.00000E+00 0.00000E+00
 -1       460 0.00000E+00 0.00000E+00 0.00000E+00
 -1       461 0.00000E+00 0.00000E+00 0.00000E+00
 -1       462 0.00000E+00 0.00000E+00 0.00000E+00
 -1       463 0.00000E+00 0.00000E+00 0.00000E+00
 -1       464 0.00000E+00 0.00000E+00 0.00000E+00
 -1       465 0.00000E+00 0.00000E+00 0.00000E+00
 -1       466 0.00000E+00 0.00000E+00 0.00000E+00
 -1       467 0.00000E+00 0.00000E+00 0.00000E+00
 -1       468 0.00000E+00 0.00000E+00 0.00000E+00
 -1       469 0.00000E+00 0.00000E+00 0.00000E+00
 -1       470 0.00000E+00 0.00000E+00 0.00000E+00
 -1       471 0.00000E+00 0.00000E+00 0.00000E+00
 -1       472 0.00000E+00 0.00000E+00 0.00000E+00
 -1       473 0.00000E+00 0.00000E+00 0.00000E+00
 -1       474 0.00000E+00 0.00000E+00 0.00000E+00
 -1       475 0.00000E+00 0.00000E+00 0.00000E+00
 -1       476 0.00000E+00 0.00000E+00 0.00000E+00
 -1       477 0.00000E+00 0.00000E+00 0.00000E+00
 -1       478 0.00000E+00 0.00000E+00 0.00000E+00
 -1       479 0.00000E+00 0.00000E+00 0.00000E+00
 -1       480 0.00000E+00 0.00000E+00 0.00000E+00
 -1       481 0.00000E+00 0.00000E+00 0.00000E+00
 -1       482 0.00000E+00 0.00000E+00 0.00000E+00
 -1       483 0.00000E+00 0.00000E+00 0.00000E+00
 -1       484 0.00000E+00 0.00000E+00 0.00000E+00
 -1       485 0.00000E+00 0.00000E+00 0.00000E+00
 -1       486 0.00000E+00 0.00000E+00 0.00000E+00
 -1       487 0.00000E+00 0.00000E+00 0.00000E+00
 -1       488 0.00000E+00 0.00000E+00 0.00000E+00
 -1       489 0.00000E+00 0.00000E+00 0.00000E+00
 -1       490 0.00000E+00 0.00000E+00 0.00000E+00
 -1       491 0.00000E+00 0.00000E+00 0.00000E+00
 -1       492 0.00000E+00 0.00000E+00 0.00000E+00
 -1       493 1.52542E-02-7.18664E-03-2.16569E-01
 -1       494 1.54157E-02-6.79668E-03-3.74526E-01
 -1       495 1.70784E-02 9.95343E-05-2.20375E-01
 -1       496 1.25326E-02-1.23749E-02-2.16416E-01
 -1       497 1.25428E-02-1.23647E-02-3.73739E-01
 -1       498 1.51875E-02-7.15902E-03-2.16896E-01
 -1       499 1.25411E-02-1.23630E-02-3.75301E-01
 -1       500 0.00000E+00 0.00000E+00 0.00000E+00
 -1       501 7.01773E-03-1.58728E-02-2.22313E-01
 -1       502 6.72824E-03-1.59928E-02-3.75131E-01
 -1       503 0.00000E+00 0.00000E+00 0.00000E+00
 -1       504 1.25309E-02-1.23732E-02-2.17978E-01
 -1       505 5.45152E-03 1.51837E-02-3.74431E-01
 -1       506 6.20682E-03 1.48708E-02-2.18673E-01
 -1       507 0.00000E+00 0.00000E+00 0.00000E+00
 -1       508 0.00000E+00 0.00000E+00 0.00000E+00
 -1       509 1.17120E-02 1.09727E-02-2.20117E-01
 -1       510 0.00000E+00 0.00000E+00 0.00000E+00
 -1       511 0.00000E+00 0.00000E+00 0.00000E+00
 -1       512 0.00000E+00 0.00000E+00 0.00000E+00
 -1       513 0.00000E+00 0.00000E+00 0.00000E+00
 -1       514 0.00000E+00 0.00000E+00 0.00000E+00
 -1       515 0.00000E+00 0.00000E+00 0.00000E+00
 -1       516 0.00000E+00 0.00000E+00 0.00000E+00
 -1       517 1.52198E-02 6.08993E-03-3.74614E-01
 -1       518 1.54147E-02 5.61940E-03-2.18959E-01
 -1       519 1.69910E-02-4.12176E-04-3.74264E-01
 -1       520-2.60264E-04-1.79913E-02-2.22958E-01
 -1       521-2.60263E-04-1.80330E-02-2.22643E-01
 -1       522-1.63197E-05-1.80330E-02-3.79011E-01
 -1       523 0.00000E+00 0.00000E+00 0.00000E+00
 -1       524 7.03823E-03-1.59223E-02-2.23718E-01
 -1       525-1.26888E-02-1.11585E-02-2.24102E-01
 -1       526-1.25555E-02-1.12918E-02-3.80924E-01
 -1       527-6.93181E-03-1.57646E-02-2.25352E-01
 -1       528-1.69815E-02 1.06714E-03-2.19482E-01
 -1       529-1.57107E-02 7.61292E-03-3.72875E-01
 -1       530-1.62879E-02-6.54469E-03-3.78120E-01
 -1       531 0.00000E+00 0.00000E+00 0.00000E+00
 -1       532 0.00000E+00 0.00000E+00 0.00000E+00
 -1       533 0.00000E+00 0.00000E+00 0.00000E+00
 -1       534 0.00000E+00 0.00000E+00 0.00000E+00
 -1       535-1.26660E-02-1.11357E-02-2.23556E-01
 -1       536 0.00000E+00 0.00000E+00 0.00000E+00
 -1       537 0.00000E+00 0.00000E+00 0.00000E+00
 -1       538 0.00000E+00 0.00000E+00 0.00000E+00
 -1       539-1.69630E-02 1.06714E-03-2.20376E-01
 -1       540-1.69630E-02 1.17526E-03-3.77166E-01
 -1       541-1.61722E-02-6.49676E-03-3.79063E-01
 -1       542-1.64526E-02-5.81981E-03-2.23930E-01
 -1       543 0.00000E+00 0.00000E+00 0.00000E+00
 -1       544 0.00000E+00 0.00000E+00 0.00000E+00
 -1       545-1.18933E-02 1.31261E-02-2.17769E-01
 -1       546-6.36312E-03 1.59731E-02-3.70190E-01
 -1       547-1.43683E-03 1.71595E-02-3.70784E-01
 -1       548-6.35922E-03 1.59637E-02-3.70143E-01
 -1       549 0.00000E+00 0.00000E+00 0.00000E+00
 -1       550 0.00000E+00 0.00000E+00 0.00000E+00
 -1       551-6.30412E-03 1.59865E-02-2.15411E-01
 -1       552 0.00000E+00 0.00000E+00 0.00000E+00
 -1       553-1.43683E-03 1.70304E-02-3.71841E-01
 -1       554-6.81512E-04 1.70304E-02-2.15058E-01
 -1       555 5.50500E-03 1.53128E-02-3.72781E-01
 -1       556 0.00000E+00 0.00000E+00 0.00000E+00
 -1       557 0.00000E+00 0.00000E+00 0.00000E+00
 -1       558-2.56921E-02 1.35782E-03-2.19482E-01
 -1       559-2.56736E-02 1.46594E-03-3.77166E-01
 -1       560-2.56736E-02 1.35781E-03-2.20376E-01
 -1       561-2.56920E-02 1.46594E-03-3.76272E-01
 -1       562-2.41330E-02-1.01259E-02-3.78120E-01
 -1       563-2.42978E-02-9.40107E-03-2.23930E-01
 -1       564-2.40173E-02-1.00780E-02-3.79063E-01
 -1       565-2.44135E-02-9.44901E-03-2.22987E-01
 -1       566-1.88416E-02-1.73268E-02-3.80924E-01
 -1       567-1.89521E-02-1.71707E-02-2.23556E-01
 -1       568-1.88188E-02-1.73040E-02-3.80378E-01
 -1       569-1.89749E-02-1.71935E-02-2.24102E-01
 -1       570-1.02711E-02-2.36117E-02-3.79103E-01
 -1       571-9.94801E-03-2.38152E-02-2.25352E-01
 -1       572-1.02957E-02-2.36711E-02-3.80009E-01
 -1       573-9.92339E-03-2.37558E-02-2.24446E-01
 -1       574 8.59870E-05-2.67201E-02-3.79011E-01
 -1       575-1.57958E-04-2.66784E-02-2.22958E-01
 -1       576 8.59869E-05-2.66784E-02-3.79325E-01
 -1       577-1.57957E-04-2.67201E-02-2.22643E-01
 -1       578 1.03990E-02-2.36616E-02-3.75131E-01
 -1       579 1.07091E-02-2.35913E-02-2.23718E-01
 -1       580 1.04195E-02-2.37111E-02-3.76536E-01
 -1       581 1.06886E-02-2.35418E-02-2.22313E-01
 -1       582 1.90699E-02-1.81946E-02-2.17978E-01
 -1       583 1.90802E-02-1.81843E-02-3.75301E-01
 -1       584 1.90819E-02-1.81861E-02-3.73739E-01
 -1       585 1.90717E-02-1.81963E-02-2.16416E-01
 -1       586 2.33355E-02-1.04192E-02-2.16896E-01
 -1       587 2.34970E-02-1.00292E-02-3.74852E-01
 -1       588 2.35636E-02-1.00568E-02-3.74526E-01
 -1       589 2.34022E-02-1.04468E-02-2.16569E-01
 -1       590 2.56988E-02 5.14821E-04-2.20375E-01
 -1       591 2.56988E-02 3.12071E-06-3.75541E-01
 -1       592 2.56113E-02 3.12090E-06-3.74264E-01
 -1       593 2.56114E-02 5.14821E-04-2.19097E-01
 -1       594 2.33533E-02 9.27826E-03-3.75128E-01
 -1       595 2.35482E-02 8.80774E-03-2.19473E-01
 -1       596 2.34678E-02 8.77442E-03-2.18959E-01
 -1       597 2.32729E-02 9.24494E-03-3.74614E-01
 -1       598 1.83224E-02 1.64884E-02-3.76839E-01
 -1       599 1.80363E-02 1.67746E-02-2.21253E-01
 -1       600 1.80852E-02 1.68235E-02-2.20117E-01
 -1       601 1.83714E-02 1.65373E-02-3.75703E-01
 -1       602 9.02289E-03 2.30706E-02-2.18673E-01
 -1       603 8.32102E-03 2.35125E-02-3.72781E-01
 -1       604 9.07638E-03 2.31997E-02-2.17023E-01
 -1       605 8.26754E-03 2.33834E-02-3.74431E-01
 -1       606-1.78055E-03 2.58697E-02-3.70784E-01
 -1       607-1.02523E-03 2.58697E-02-2.14000E-01
 -1       608-1.02523E-03 2.57406E-02-2.15058E-01
 -1       609-1.78055E-03 2.57406E-02-3.71841E-01
 -1       610-9.57959E-03 2.39343E-02-2.15411E-01
 -1       611-9.63856E-03 2.39209E-02-3.70190E-01
 -1       612-9.58349E-03 2.39438E-02-2.15458E-01
 -1       613-9.63466E-03 2.39115E-02-3.70143E-01
 -1       614-1.79181E-02 1.93143E-02-2.17769E-01
 -1       615-1.80213E-02 1.92412E-02-3.73571E-01
 -1       616-1.79332E-02 1.93294E-02-2.18125E-01
 -1       617-1.80062E-02 1.92262E-02-3.73215E-01
 -1       618-2.39679E-02 1.07552E-02-2.14704E-01
 -1       619-2.37057E-02 1.11715E-02-3.72875E-01
 -1       620-2.38914E-02 1.07235E-02-2.15406E-01
 -1       621-2.37823E-02 1.12032E-02-3.72174E-01
 -1       622 1.19267E-02 1.07581E-02-3.36806E-01
 -1       623-7.19264E-03-1.56565E-02-3.41345E-01
 -1       624-1.60192E-02 7.08457E-03-1.75337E-01
 -1       625-1.58337E-02 7.53263E-03-3.32806E-01
 -1       626-1.19594E-02 1.30600E-02-3.34354E-01
 -1       627 1.52945E-02-7.08913E-03-2.56059E-01
 -1       628 1.52138E-02-7.28415E-03-1.77080E-01
 -1       629 1.53753E-02-6.89416E-03-3.35037E-01
 -1       630 1.25352E-02-1.23724E-02-2.55747E-01
 -1       631 1.25300E-02-1.23775E-02-1.77085E-01
 -1       632 1.25454E-02-1.23622E-02-4.13070E-01
 -1       633 1.25403E-02-1.23673E-02-3.34409E-01
 -1       634 1.25437E-02-1.23604E-02-4.14632E-01
 -1       635 6.94536E-03-1.59028E-02-2.60517E-01
 -1       636 7.09011E-03-1.58429E-02-1.84108E-01
 -1       637 6.80061E-03-1.59628E-02-3.36926E-01
 -1       638 1.25334E-02-1.23706E-02-2.57309E-01
 -1       639 5.64034E-03 1.51055E-02-3.35492E-01
 -1       640 5.26268E-03 1.52619E-02-4.13370E-01
 -1       641 6.01799E-03 1.49490E-02-2.57613E-01
 -1       642 1.17835E-02 1.09012E-02-2.59013E-01
 -1       643 1.51710E-02 6.20758E-03-4.13527E-01
 -1       644 1.54634E-02 5.50178E-03-1.80045E-01
 -1       645 1.53659E-02 5.73702E-03-2.57873E-01
 -1       646 1.69910E-02-2.84249E-04-3.35472E-01
 -1       647-3.21244E-04-1.79913E-02-1.83866E-01
 -1       648-1.99279E-04-1.79913E-02-2.62050E-01
 -1       649 6.96586E-03-1.59523E-02-2.61922E-01
 -1       650-1.27221E-02-1.11252E-02-1.84897E-01
 -1       651-1.25888E-02-1.12585E-02-3.41719E-01
 -1       652-1.69815E-02 1.04009E-03-1.80284E-01
 -1       653-1.69815E-02 1.09418E-03-2.58680E-01
 -1       654-1.57571E-02 7.50090E-03-3.33508E-01
 -1       655-1.62178E-02-6.71392E-03-4.16903E-01
 -1       656-1.63580E-02-6.37546E-03-3.39337E-01
 -1       657-1.63825E-02-5.98905E-03-2.62713E-01
 -1       658-1.19153E-02 1.31041E-02-2.56631E-01
 -1       659-6.34935E-03 1.59788E-02-3.31507E-01
 -1       660-1.62564E-03 1.71595E-02-4.09979E-01
 -1       661-1.24801E-03 1.71595E-02-3.31588E-01
 -1       662-6.37298E-03 1.59580E-02-4.08826E-01
 -1       663-6.31790E-03 1.59808E-02-2.54094E-01
 -1       664-1.62564E-03 1.70304E-02-4.11037E-01
 -1       665-8.70347E-04 1.70304E-02-2.54254E-01
 -1       666 5.69382E-03 1.52346E-02-3.33842E-01
 -1       667 2.34425E-02-1.03493E-02-2.56059E-01
 -1       668 2.56114E-02 3.86893E-04-2.57889E-01
 -1       669 2.33216E-02 9.12730E-03-3.35700E-01
 -1       670 8.45637E-03 2.33052E-02-3.35492E-01
 -1       671-9.59726E-03 2.39380E-02-2.54141E-01
 -1       672-2.38449E-02 1.08355E-02-2.54774E-01
 -1       673 1.54561E-02-6.69921E-03-4.14014E-01
 -1       674 1.70784E-02-2.83951E-05-2.59166E-01
 -1       675 1.70784E-02 2.27460E-04-1.81583E-01
 -1       676 1.52279E-02-7.06152E-03-2.56385E-01
 -1       677 1.51471E-02-7.25653E-03-1.77407E-01
 -1       678 1.25385E-02-1.23655E-02-3.35970E-01
 -1       679 6.65587E-03-1.60228E-02-4.13335E-01
 -1       680 1.25283E-02-1.23757E-02-1.78647E-01
 -1       681 6.39567E-03 1.47926E-02-1.79734E-01
 -1       682 1.16405E-02 1.10442E-02-1.81220E-01
 -1       683 1.52685E-02 5.97229E-03-3.35700E-01
 -1       684 1.69910E-02-5.40102E-04-4.13055E-01
 -1       685-7.73044E-05-1.80330E-02-3.39919E-01
 -1       686-3.21244E-04-1.80330E-02-1.83551E-01
 -1       687-1.99279E-04-1.80330E-02-2.61735E-01
 -1       688 4.46615E-05-1.80330E-02-4.18102E-01
 -1       689 7.11061E-03-1.58924E-02-1.85513E-01
 -1       690-1.26554E-02-1.11918E-02-2.63308E-01
 -1       691-1.25221E-02-1.13251E-02-4.20130E-01
 -1       692-7.01876E-03-1.57285E-02-2.64016E-01
 -1       693-6.84485E-03-1.58006E-02-1.86687E-01
 -1       694-1.56643E-02 7.72494E-03-4.12242E-01
 -1       695-1.26327E-02-1.11690E-02-2.62761E-01
 -1       696-1.26993E-02-1.11024E-02-1.84350E-01
 -1       697-1.61021E-02-6.66599E-03-4.17846E-01
 -1       698-1.69630E-02 1.14824E-03-3.37969E-01
 -1       699-1.69630E-02 1.04009E-03-1.81179E-01
 -1       700-1.69630E-02 1.09418E-03-2.59574E-01
 -1       701-1.69630E-02 1.20227E-03-4.16364E-01
 -1       702-1.62423E-02-6.32752E-03-3.40280E-01
 -1       703-1.65227E-02-5.65056E-03-1.85147E-01
 -1       704-1.18713E-02 1.31482E-02-1.78908E-01
 -1       705-6.37688E-03 1.59674E-02-4.08873E-01
 -1       706-6.34545E-03 1.59694E-02-3.31460E-01
 -1       707-6.29034E-03 1.59922E-02-1.76727E-01
 -1       708-1.24801E-03 1.70304E-02-3.32646E-01
 -1       709-4.92678E-04 1.70304E-02-1.75862E-01
 -1       710 5.31616E-03 1.53910E-02-4.11720E-01
 -1       711 1.90743E-02-1.81938E-02-2.55747E-01
 -1       712 1.04919E-02-2.36812E-02-3.38331E-01
 -1       713 1.07814E-02-2.35613E-02-1.85513E-01
 -1       714-1.02088E-02-2.37072E-02-3.41345E-01
 -1       715-1.88521E-02-1.72706E-02-3.41172E-01
 -1       716-1.88083E-02-1.73601E-02-4.20130E-01
 -1       717-2.43434E-02-9.61825E-03-2.61771E-01
 -1       718-2.40874E-02-9.90878E-03-3.40280E-01
 -1       719-2.56736E-02 1.38486E-03-2.59574E-01
 -1       720-2.56736E-02 1.49295E-03-4.16364E-01
 -1       721-2.56921E-02 1.33077E-03-1.80284E-01
 -1       722-2.56921E-02 1.38486E-03-2.58680E-01
 -1       723-2.56736E-02 1.43892E-03-3.37969E-01
 -1       724-2.56736E-02 1.33077E-03-1.81179E-01
 -1       725-2.56920E-02 1.43892E-03-3.37074E-01
 -1       726-2.56920E-02 1.49295E-03-4.15469E-01
 -1       727-2.43679E-02-9.23183E-03-1.85147E-01
 -1       728-2.40629E-02-1.02952E-02-4.16903E-01
 -1       729-2.42031E-02-9.95671E-03-3.39337E-01
 -1       730-2.42276E-02-9.57031E-03-2.62713E-01
 -1       731-2.39472E-02-1.02472E-02-4.17846E-01
 -1       732-2.44836E-02-9.27976E-03-1.84204E-01
 -1       733-1.88749E-02-1.72934E-02-3.41719E-01
 -1       734-1.89855E-02-1.71373E-02-1.84350E-01
 -1       735-1.89188E-02-1.72040E-02-2.62761E-01
 -1       736-1.87855E-02-1.73373E-02-4.19583E-01
 -1       737-1.89416E-02-1.72268E-02-2.63308E-01
 -1       738-1.90082E-02-1.71601E-02-1.84897E-01
 -1       739-9.86106E-03-2.38513E-02-1.86687E-01
 -1       740-1.03580E-02-2.35757E-02-4.17767E-01
 -1       741-1.01842E-02-2.36477E-02-3.40439E-01
 -1       742-1.00350E-02-2.37792E-02-2.64016E-01
 -1       743-1.03827E-02-2.36351E-02-4.18673E-01
 -1       744 2.50021E-05-2.66784E-02-3.40234E-01
 -1       745-1.00103E-02-2.37198E-02-2.63111E-01
 -1       746-9.83643E-03-2.37918E-02-1.85782E-01
 -1       747 1.46969E-04-2.67201E-02-4.18102E-01
 -1       748 2.50019E-05-2.67201E-02-3.39919E-01
 -1       749-2.18939E-04-2.66784E-02-1.83866E-01
 -1       750-9.69729E-05-2.66784E-02-2.62050E-01
 -1       751 1.46969E-04-2.66784E-02-4.18417E-01
 -1       752-9.69728E-05-2.67201E-02-2.61735E-01
 -1       753-2.18939E-04-2.67201E-02-1.83551E-01
 -1       754 1.03267E-02-2.36916E-02-4.13335E-01
 -1       755 1.04714E-02-2.36317E-02-3.36926E-01
 -1       756 1.06367E-02-2.36212E-02-2.61922E-01
 -1       757 1.03472E-02-2.37411E-02-4.14740E-01
 -1       758 1.06162E-02-2.35717E-02-2.60517E-01
 -1       759 1.07609E-02-2.35118E-02-1.84108E-01
 -1       760 1.90776E-02-1.81869E-02-3.35970E-01
 -1       761 1.90674E-02-1.81972E-02-1.78647E-01
 -1       762 1.90725E-02-1.81920E-02-2.57309E-01
 -1       763 1.90827E-02-1.81818E-02-4.14632E-01
 -1       764 1.90845E-02-1.81835E-02-4.13070E-01
 -1       765 1.90794E-02-1.81887E-02-3.34409E-01
 -1       766 1.90691E-02-1.81989E-02-1.77085E-01
 -1       767 2.34566E-02-1.01267E-02-3.35363E-01
 -1       768 2.32951E-02-1.05167E-02-1.77407E-01
 -1       769 2.33759E-02-1.03217E-02-2.56385E-01
 -1       770 2.35374E-02-9.93173E-03-4.14341E-01
 -1       771 2.36040E-02-9.95934E-03-4.14014E-01
 -1       772 2.35233E-02-1.01543E-02-3.35037E-01
 -1       773 2.33618E-02-1.05443E-02-1.77080E-01
 -1       774 2.56988E-02 1.31044E-04-3.36750E-01
 -1       775 2.56988E-02 6.42746E-04-1.81583E-01
 -1       776 2.56988E-02 3.86893E-04-2.59166E-01
 -1       777 2.56988E-02-1.24803E-04-4.14333E-01
 -1       778 2.56113E-02-1.24802E-04-4.13055E-01
 -1       779 2.56114E-02 1.31044E-04-3.35472E-01
 -1       780 2.56114E-02 6.42747E-04-1.80305E-01
 -1       781 2.35165E-02 8.65681E-03-1.80045E-01
 -1       782 2.34995E-02 8.92536E-03-2.58387E-01
 -1       783 2.33046E-02 9.39590E-03-4.14041E-01
 -1       784 2.34020E-02 9.16061E-03-3.36214E-01
 -1       785 2.35970E-02 8.69012E-03-1.80559E-01
 -1       786 2.34191E-02 8.89204E-03-2.57873E-01
 -1       787 2.32241E-02 9.36258E-03-4.13527E-01
 -1       788 1.82998E-02 1.66089E-02-3.36806E-01
 -1       789 1.80136E-02 1.68950E-02-1.81220E-01
 -1       790 1.81078E-02 1.67031E-02-2.60150E-01
 -1       791 1.83940E-02 1.64168E-02-4.15735E-01
 -1       792 1.82509E-02 1.65599E-02-3.37943E-01
 -1       793 1.79647E-02 1.68461E-02-1.82357E-01
 -1       794 1.81567E-02 1.67520E-02-2.59013E-01
 -1       795 1.84430E-02 1.64657E-02-4.14599E-01
 -1       796 8.88753E-03 2.32779E-02-2.55963E-01
 -1       797 8.13218E-03 2.35907E-02-4.11720E-01
 -1       798 9.21174E-03 2.29923E-02-1.79734E-01
 -1       799 8.83405E-03 2.31488E-02-2.57613E-01
 -1       800 8.50985E-03 2.34343E-02-3.33842E-01
 -1       801 9.26523E-03 2.31215E-02-1.78084E-01
 -1       802 8.07870E-03 2.34616E-02-4.13370E-01
 -1       803-1.59173E-03 2.57406E-02-3.32646E-01
 -1       804-8.36394E-04 2.57406E-02-1.75862E-01
 -1       805-1.21406E-03 2.58697E-02-2.53196E-01
 -1       806-1.96936E-03 2.58697E-02-4.09979E-01
 -1       807-1.59173E-03 2.58697E-02-3.31588E-01
 -1       808-8.36394E-04 2.58697E-02-1.74804E-01
 -1       809-1.21406E-03 2.57406E-02-2.54254E-01
 -1       810-1.96936E-03 2.57406E-02-4.11037E-01
 -1       811-9.56581E-03 2.39400E-02-1.76727E-01
 -1       812-9.59336E-03 2.39286E-02-2.54094E-01
 -1       813-9.65232E-03 2.39152E-02-4.08873E-01
 -1       814-9.62480E-03 2.39266E-02-3.31507E-01
 -1       815-9.56971E-03 2.39495E-02-1.76775E-01
 -1       816-1.79552E-02 1.93074E-02-2.56986E-01
 -1       817-9.62090E-03 2.39172E-02-3.31460E-01
 -1       818-9.64842E-03 2.39058E-02-4.08826E-01
 -1       819-1.78961E-02 1.93364E-02-1.78908E-01
 -1       820-1.79401E-02 1.92923E-02-2.56631E-01
 -1       821-1.80434E-02 1.92192E-02-4.12432E-01
 -1       822-1.79993E-02 1.92633E-02-3.34709E-01
 -1       823-1.79111E-02 1.93514E-02-1.79263E-01
 -1       824-1.79842E-02 1.92482E-02-3.34354E-01
 -1       825-1.80283E-02 1.92041E-02-4.12077E-01
 -1       826-2.40143E-02 1.06432E-02-1.75337E-01
 -1       827-2.39215E-02 1.08672E-02-2.54072E-01
 -1       828-2.36593E-02 1.12835E-02-4.12242E-01
 -1       829-2.37521E-02 1.10595E-02-3.33508E-01
 -1       830-2.39378E-02 1.06115E-02-1.76039E-01
 -1       831-2.38287E-02 1.10912E-02-3.32806E-01
 -1       832-2.37359E-02 1.13152E-02-4.11541E-01
 -1       833-1.62529E-02-6.62931E-03-3.97511E-01
 -1       834-2.40980E-02-1.02106E-02-3.97511E-01
 -1       835-1.66033E-02-5.78312E-03-2.03596E-01
 -1       836-2.44485E-02-9.36439E-03-2.03596E-01
 -1       837 1.25373E-02-1.23668E-02-3.16305E-01
 -1       838 1.90763E-02-1.81882E-02-3.16305E-01
 -1       839-1.03392E-02-2.36531E-02-3.99341E-01
 -1       840-7.32303E-03-1.56026E-02-3.99341E-01
 -1       841-1.19043E-02 1.31151E-02-2.37200E-01
 -1       842-1.79291E-02 1.93033E-02-2.37200E-01
 -1       843-7.29841E-03-1.55431E-02-3.98435E-01
 -1       844-1.03146E-02-2.35937E-02-3.98435E-01
 -1       845-2.29772E-04-1.79913E-02-2.42504E-01
 -1       846-1.27466E-04-2.66784E-02-2.42504E-01
 -1       847 8.60427E-03 2.33952E-02-3.14372E-01
 -1       848 5.78823E-03 1.51955E-02-3.14372E-01
 -1       849-7.06223E-03-1.57105E-02-2.83348E-01
 -1       850-1.00784E-02-2.37612E-02-2.83348E-01
 -1       851-1.19704E-02 1.30490E-02-3.53784E-01
 -1       852-1.79952E-02 1.92372E-02-3.53784E-01
 -1       853 8.73963E-03 2.31879E-02-2.77083E-01
 -1       854 5.92358E-03 1.49881E-02-2.77083E-01
 -1       855-1.19414E-02 1.31081E-02-2.76417E-01
 -1       856-1.79662E-02 1.92963E-02-2.76417E-01
 -1       857-2.56736E-02 1.34429E-03-2.00778E-01
 -1       858-1.69630E-02 1.05362E-03-2.00778E-01
 -1       859-1.69815E-02 1.13473E-03-3.17476E-01
 -1       860-2.56921E-02 1.42540E-03-3.17476E-01
 -1       861 1.05281E-02-2.36662E-02-3.19229E-01
 -1       862 6.85730E-03-1.59973E-02-3.19229E-01
 -1       863 1.03629E-02-2.36766E-02-3.94233E-01
 -1       864 6.69205E-03-1.60078E-02-3.94233E-01
 -1       865-5.49259E-06-2.66784E-02-3.20688E-01
 -1       866-1.07799E-04-1.79913E-02-3.20688E-01
 -1       867 9.11732E-03 2.30314E-02-1.99203E-01
 -1       868 6.30125E-03 1.48317E-02-1.99203E-01
 -1       869-9.64763E-04 1.71595E-02-2.72794E-01
 -1       870-1.30848E-03 2.58697E-02-2.72794E-01
 -1       871-1.89355E-02-1.71873E-02-2.43158E-01
 -1       872-1.26493E-02-1.11524E-02-2.43158E-01
 -1       873-2.38983E-02 1.09232E-02-2.73755E-01
 -1       874-1.59032E-02 7.36460E-03-2.73755E-01
 -1       875 2.34922E-02 8.71562E-03-1.99502E-01
 -1       876 1.54390E-02 5.56059E-03-1.99502E-01
 -1       877-1.79071E-02 1.93253E-02-1.98338E-01
 -1       878-1.18823E-02 1.31371E-02-1.98338E-01
 -1       879-1.34242E-03 1.71595E-02-3.51186E-01
 -1       880-1.68614E-03 2.58697E-02-3.51186E-01
 -1       881 2.34434E-02 8.83323E-03-2.38416E-01
 -1       882 1.53903E-02 5.67821E-03-2.38416E-01
 -1       883 1.53289E-02-6.81781E-03-3.55108E-01
 -1       884 2.34768E-02-1.00779E-02-3.55108E-01
 -1       885 6.78493E-03-1.60273E-02-3.57433E-01
 -1       886 1.04557E-02-2.36961E-02-3.57433E-01
 -1       887 1.54707E-02 5.71152E-03-2.38930E-01
 -1       888 2.35239E-02 8.86655E-03-2.38930E-01
 -1       889 7.00205E-03-1.59373E-02-2.42820E-01
 -1       890 1.06729E-02-2.36062E-02-2.42820E-01
 -1       891 2.56988E-02 3.22930E-04-2.78562E-01
 -1       892 1.70784E-02-9.23591E-05-2.78562E-01
 -1       893-1.01407E-02-2.36657E-02-3.21107E-01
 -1       894-7.12455E-03-1.56151E-02-3.21107E-01
 -1       895-1.25160E-02-1.12857E-02-3.99980E-01
 -1       896-1.88022E-02-1.73206E-02-3.99980E-01
 -1       897 2.36242E-02-9.91061E-03-4.33759E-01
 -1       898 1.54763E-02-6.65048E-03-4.33759E-01
 -1       899 1.25347E-02-1.23693E-02-2.76974E-01
 -1       900 1.90738E-02-1.81907E-02-2.76974E-01
 -1       901 1.25390E-02-1.23685E-02-3.14743E-01
 -1       902 1.90781E-02-1.81899E-02-3.14743E-01
 -1       903-2.49429E-04-2.67201E-02-1.64005E-01
 -1       904-3.51734E-04-1.80330E-02-1.64005E-01
 -1       905-1.19264E-02 1.30931E-02-2.76061E-01
 -1       906-1.79511E-02 1.92813E-02-2.76061E-01
 -1       907 1.25449E-02-1.23591E-02-4.34297E-01
 -1       908 1.90840E-02-1.81805E-02-4.34297E-01
 -1       909-9.64763E-04 1.70304E-02-2.73852E-01
 -1       910-1.30848E-03 2.57406E-02-2.73852E-01
 -1       911-1.65332E-02-5.95236E-03-2.42379E-01
 -1       912-2.43784E-02-9.53363E-03-2.42379E-01
 -1       913 2.33460E-02 9.06848E-03-3.16243E-01
 -1       914 1.52929E-02 5.91347E-03-3.16243E-01
 -1       915-2.41681E-02-1.00413E-02-3.58728E-01
 -1       916-1.63229E-02-6.46007E-03-3.58728E-01
 -1       917 2.35031E-02-1.02030E-02-3.15292E-01
 -1       918 1.53551E-02-6.94290E-03-3.15292E-01
 -1       919-1.20075E-02 1.30420E-02-3.93001E-01
 -1       920-1.80323E-02 1.92302E-02-3.93001E-01
 -1       921-1.58267E-02 7.33288E-03-2.74457E-01
 -1       922-2.38217E-02 1.08915E-02-2.74457E-01
 -1       923-6.30114E-03 1.59988E-02-1.96116E-01
 -1       924-9.57660E-03 2.39466E-02-1.96116E-01
 -1       925-1.72005E-03 1.71595E-02-4.29577E-01
 -1       926-2.06377E-03 2.58697E-02-4.29577E-01
 -1       927 1.08176E-02-2.35463E-02-1.66411E-01
 -1       928 7.14680E-03-1.58774E-02-1.66411E-01
 -1       929 1.19851E-02 1.06018E-02-3.96287E-01
 -1       930 1.83582E-02 1.64526E-02-3.96287E-01
 -1       931 1.84788E-02 1.64299E-02-4.34047E-01
 -1       932 1.21056E-02 1.05791E-02-4.34047E-01
 -1       933-1.25827E-02-1.12190E-02-3.21569E-01
 -1       934-1.88688E-02-1.72540E-02-3.21569E-01
 -1       935-1.19194E-02 1.31302E-02-2.37555E-01
 -1       936-1.79442E-02 1.93184E-02-2.37555E-01
 -1       937-1.79882E-02 1.92743E-02-3.15278E-01
 -1       938-1.19635E-02 1.30861E-02-3.15278E-01
 -1       939 6.98155E-03-1.58878E-02-2.41415E-01
 -1       940 1.06524E-02-2.35567E-02-2.41415E-01
 -1       941 8.92847E-03 2.31097E-02-2.38143E-01
 -1       942 6.11241E-03 1.49099E-02-2.38143E-01
 -1       943 1.70785E-02-4.76141E-04-3.94937E-01
 -1       944 2.56988E-02-6.08419E-05-3.94937E-01
 -1       945 2.32749E-02-1.05655E-02-1.57662E-01
 -1       946 1.51269E-02-7.30529E-03-1.57662E-01
 -1       947-2.37753E-02 1.10035E-02-3.13825E-01
 -1       948-1.57803E-02 7.44490E-03-3.13825E-01
 -1       949-1.69815E-02 1.18877E-03-3.95870E-01
 -1       950-2.56920E-02 1.47944E-03-3.95870E-01
 -1       951 1.25321E-02-1.23719E-02-2.37643E-01
 -1       952 1.90712E-02-1.81933E-02-2.37643E-01
 -1       953 1.25398E-02-1.23642E-02-3.55636E-01
 -1       954 1.90789E-02-1.81856E-02-3.55636E-01
 -1       955-2.36825E-02 1.12275E-02-3.92559E-01
 -1       956-1.56875E-02 7.66893E-03-3.92559E-01
 -1       957-1.69815E-02 1.08066E-03-2.39081E-01
 -1       958-2.56921E-02 1.37134E-03-2.39081E-01
 -1       959-2.41225E-02-9.82416E-03-3.20888E-01
 -1       960-1.62773E-02-6.24291E-03-3.20888E-01
 -1       961-1.64876E-02-5.73518E-03-2.04539E-01
 -1       962-2.43328E-02-9.31645E-03-2.04539E-01
 -1       963-9.30811E-04 2.57406E-02-1.95460E-01
 -1       964-5.87095E-04 1.70304E-02-1.95460E-01
 -1       965 1.53955E-02-6.84542E-03-3.54781E-01
 -1       966 2.35435E-02-1.01056E-02-3.54781E-01
 -1       967-1.24827E-02-1.13190E-02-4.39186E-01
 -1       968-1.87688E-02-1.73540E-02-4.39186E-01
 -1       969-9.99148E-03-2.37972E-02-2.44684E-01
 -1       970-6.97528E-03-1.57465E-02-2.44684E-01
 -1       971-1.18602E-02 1.31592E-02-1.59477E-01
 -1       972-1.78850E-02 1.93474E-02-1.59477E-01
 -1       973 1.90687E-02-1.81959E-02-1.98312E-01
 -1       974 1.25296E-02-1.23745E-02-1.98312E-01
 -1       975 1.25339E-02-1.23737E-02-2.36082E-01
 -1       976 1.90730E-02-1.81951E-02-2.36082E-01
 -1       977 5.54948E-05-2.67201E-02-3.59465E-01
 -1       978-4.68121E-05-1.80330E-02-3.59465E-01
 -1       979 1.19624E-02 1.07223E-02-3.56254E-01
 -1       980 1.83356E-02 1.65731E-02-3.56254E-01
 -1       981 1.17478E-02 1.09369E-02-2.39565E-01
 -1       982 1.81209E-02 1.67878E-02-2.39565E-01
 -1       983-1.87496E-03 2.57406E-02-3.91439E-01
 -1       984-1.53124E-03 1.70304E-02-3.91439E-01
 -1       985-2.56736E-02 1.31725E-03-1.61580E-01
 -1       986-1.69630E-02 1.02657E-03-1.61580E-01
 -1       987 6.54357E-03 1.48826E-02-1.58614E-01
 -1       988 9.35965E-03 2.30824E-02-1.58614E-01
 -1       989 2.56988E-02 5.78783E-04-2.00979E-01
 -1       990 1.70784E-02 1.63496E-04-2.00979E-01
 -1       991 1.17704E-02 1.08165E-02-2.79598E-01
 -1       992 1.81436E-02 1.66673E-02-2.79598E-01
 -1       993-6.32869E-03 1.59874E-02-2.73483E-01
 -1       994-9.60415E-03 2.39352E-02-2.73483E-01
 -1       995-1.20296E-02 1.30200E-02-4.31863E-01
 -1       996-1.80544E-02 1.92082E-02-4.31863E-01
 -1       997-9.55892E-03 2.39429E-02-1.57386E-01
 -1       998-6.28345E-03 1.59951E-02-1.57386E-01
 -1       999-2.29772E-04-1.80330E-02-2.42189E-01
 -1      1000-1.27466E-04-2.67201E-02-2.42189E-01
 -1      1001-1.58730E-02 7.22086E-03-2.35090E-01
 -1      1002-2.38681E-02 1.07795E-02-2.35090E-01
 -1      1003-6.37986E-03 1.59552E-02-4.28168E-01
 -1      1004-9.65530E-03 2.39029E-02-4.28168E-01
 -1      1005-2.39122E-02-1.03319E-02-4.37237E-01
 -1      1006-1.60670E-02-6.75061E-03-4.37237E-01
 -1      1007-1.15359E-03 1.71595E-02-3.11990E-01
 -1      1008-1.49731E-03 2.58697E-02-3.11990E-01
 -1      1009 7.05392E-03-1.58579E-02-2.03210E-01
 -1      1010 1.07248E-02-2.35268E-02-2.03210E-01
 -1      1011-1.64631E-02-6.12160E-03-2.81162E-01
 -1      1012-2.43083E-02-9.70287E-03-2.81162E-01
 -1      1013-1.69630E-02 1.13473E-03-3.18370E-01
 -1      1014-2.56736E-02 1.42540E-03-3.18370E-01
 -1      1015-1.25055E-02-1.13418E-02-4.39732E-01
 -1      1016-1.87916E-02-1.73767E-02-4.39732E-01
 -1      1017 1.52758E-02 6.18208E-03-3.94584E-01
 -1      1018 2.33289E-02 9.33708E-03-3.94584E-01
 -1      1019 1.69910E-02 3.55697E-05-2.38493E-01
 -1      1020 2.56114E-02 4.50857E-04-2.38493E-01
 -1      1021 2.33961E-02-1.02729E-02-2.76130E-01
 -1      1022 1.52481E-02-7.01277E-03-2.76130E-01
 -1      1023 1.69910E-02-6.04065E-04-4.32451E-01
 -1      1024 2.56113E-02-1.88764E-04-4.32451E-01
 -1      1025-1.88449E-04-2.67201E-02-2.03097E-01
 -1      1026-2.90754E-04-1.80330E-02-2.03097E-01
 -1      1027 1.79779E-02 1.69308E-02-1.61772E-01
 -1      1028 1.16047E-02 1.10800E-02-1.61772E-01
 -1      1029 1.18419E-02 1.07449E-02-3.18494E-01
 -1      1030 1.82151E-02 1.65957E-02-3.18494E-01
 -1      1031 8.41544E-03 2.34734E-02-3.53312E-01
 -1      1032 5.59941E-03 1.52737E-02-3.53312E-01
 -1      1033 1.54220E-02 5.82915E-03-2.77843E-01
 -1      1034 2.34751E-02 8.98417E-03-2.77843E-01
 -1      1035 1.53246E-02 6.06443E-03-3.55671E-01
 -1      1036 2.33777E-02 9.21943E-03-3.55671E-01
 -1      1037 2.31997E-02 9.42141E-03-4.32984E-01
 -1      1038 1.51467E-02 6.26641E-03-4.32984E-01
 -1      1039 7.51499E-05-1.79913E-02-4.37963E-01
 -1      1040 1.77457E-04-2.66784E-02-4.37963E-01
 -1      1041 1.70785E-02-2.20287E-04-3.17354E-01
 -1      1042 2.56988E-02 1.95005E-04-3.17354E-01
 -1      1043 1.70785E-02-3.48212E-04-3.56146E-01
 -1      1044 2.56988E-02 6.70823E-05-3.56146E-01
 -1      1045 1.52271E-02 6.29973E-03-4.33498E-01
 -1      1046 2.32802E-02 9.45473E-03-4.33498E-01
 -1      1047 1.41699E-05-1.79913E-02-3.98871E-01
 -1      1048 1.16478E-04-2.66784E-02-3.98871E-01
 -1      1049-7.21149E-03-1.55791E-02-3.59771E-01
 -1      1050-1.02277E-02-2.36297E-02-3.59771E-01
 -1      1051-6.86370E-03-1.57231E-02-2.05114E-01
 -1      1052-9.87991E-03-2.37738E-02-2.05114E-01
 -1      1053-1.25721E-02-1.12751E-02-3.61321E-01
 -1      1054-1.88583E-02-1.73101E-02-3.61321E-01
 -1      1055-2.56920E-02 1.50646E-03-4.35068E-01
 -1      1056-1.69815E-02 1.21578E-03-4.35068E-01
 -1      1057-1.57177E-02 7.81266E-03-4.31224E-01
 -1      1058-2.37127E-02 1.13712E-02-4.31224E-01
 -1      1059-2.39146E-02 1.06675E-02-1.95722E-01
 -1      1060-1.59194E-02 7.10885E-03-1.95722E-01
 -1      1061-9.62778E-03 2.39144E-02-3.50802E-01
 -1      1062-6.35234E-03 1.59666E-02-3.50802E-01
 -1      1063-7.41976E-04 2.58697E-02-1.55207E-01
 -1      1064-3.98260E-04 1.71595E-02-1.55207E-01
 -1      1065 6.61968E-03-1.60378E-02-4.32437E-01
 -1      1066 1.02905E-02-2.37066E-02-4.32437E-01
 -1      1067-6.35624E-03 1.59760E-02-3.50849E-01
 -1      1068-9.63168E-03 2.39238E-02-3.50849E-01
 -1      1069-9.61401E-03 2.39201E-02-3.12119E-01
 -1      1070-6.33857E-03 1.59723E-02-3.12119E-01
 -1      1071-1.19855E-02 1.30641E-02-3.54140E-01
 -1      1072-1.80103E-02 1.92523E-02-3.54140E-01
 -1      1073-6.31492E-03 1.59931E-02-2.34799E-01
 -1      1074-9.59038E-03 2.39409E-02-2.34799E-01
 -1      1075-1.64175E-02-5.90443E-03-2.43322E-01
 -1      1076-2.42627E-02-9.48569E-03-2.43322E-01
 -1      1077 5.16826E-03 1.53010E-02-4.32840E-01
 -1      1078 7.98428E-03 2.35007E-02-4.32840E-01
 -1      1079 2.33820E-02-1.04956E-02-1.96825E-01
 -1      1080 1.52340E-02-7.23539E-03-1.96825E-01
 -1      1081 1.16989E-02 1.08880E-02-2.40701E-01
 -1      1082 1.80720E-02 1.67388E-02-2.40701E-01
 -1      1083 1.16762E-02 1.10084E-02-2.00668E-01
 -1      1084 1.80494E-02 1.68593E-02-2.00668E-01
 -1      1085 2.36213E-02 8.63131E-03-1.61102E-01
 -1      1086 1.55682E-02 5.47628E-03-1.61102E-01
 -1      1087-7.40996E-03-1.55666E-02-4.38005E-01
 -1      1088-1.04261E-02-2.36171E-02-4.38005E-01
 -1      1089-1.04015E-02-2.35577E-02-4.37099E-01
 -1      1090-7.38534E-03-1.55071E-02-4.37099E-01
 -1      1091-2.44029E-02-9.14720E-03-1.65755E-01
 -1      1092-1.65577E-02-5.56593E-03-1.65755E-01
 -1      1093-2.38055E-02 1.11472E-02-3.52490E-01
 -1      1094-1.58105E-02 7.58864E-03-3.52490E-01
 -1      1095-1.59960E-02 7.14057E-03-1.95021E-01
 -1      1096-2.39911E-02 1.06992E-02-1.95021E-01
 -1      1097-7.75930E-04 1.71595E-02-2.33598E-01
 -1      1098-1.11965E-03 2.58697E-02-2.33598E-01
 -1      1099-9.64154E-03 2.39086E-02-3.89485E-01
 -1      1100-6.36610E-03 1.59609E-02-3.89485E-01
 -1      1101 1.53733E-02 5.94679E-03-3.16757E-01
 -1      1102 2.34264E-02 9.10180E-03-3.16757E-01
 -1      1103 5.35710E-03 1.52228E-02-3.93901E-01
 -1      1104 8.17312E-03 2.34225E-02-3.93901E-01
 -1      1105-1.69815E-02 1.16175E-03-3.56673E-01
 -1      1106-2.56920E-02 1.45243E-03-3.56673E-01
 -1      1107-1.15359E-03 1.70304E-02-3.13048E-01
 -1      1108-1.49731E-03 2.57406E-02-3.13048E-01
 -1      1109-1.79001E-02 1.93625E-02-1.59832E-01
 -1      1110-1.18753E-02 1.31742E-02-1.59832E-01
 -1      1111 1.41710E-05-1.80330E-02-3.98557E-01
 -1      1112 1.16478E-04-2.67201E-02-3.98557E-01
 -1      1113 1.69910E-02-2.20286E-04-3.16076E-01
 -1      1114 2.56114E-02 1.95005E-04-3.16076E-01
 -1      1115 5.41058E-03 1.53519E-02-3.92251E-01
 -1      1116 8.22660E-03 2.35516E-02-3.92251E-01
 -1      1117-1.26160E-02-1.11857E-02-2.82364E-01
 -1      1118-1.89021E-02-1.72207E-02-2.82364E-01
 -1      1119 1.25288E-02-1.23788E-02-1.57420E-01
 -1      1120 1.90679E-02-1.82002E-02-1.57420E-01
 -1      1121-6.28735E-03 1.60045E-02-1.57433E-01
 -1      1122-9.56282E-03 2.39523E-02-1.57433E-01
 -1      1123 1.55194E-02 5.59390E-03-2.00016E-01
 -1      1124 2.35726E-02 8.74893E-03-2.00016E-01
 -1      1125 6.71255E-03-1.60573E-02-3.95638E-01
 -1      1126 1.03834E-02-2.37261E-02-3.95638E-01
 -1      1127-1.26388E-02-1.12085E-02-2.82910E-01
 -1      1128-1.89249E-02-1.72435E-02-2.82910E-01
 -1      1129 1.25441E-02-1.23634E-02-3.93405E-01
 -1      1130 1.90832E-02-1.81848E-02-3.93405E-01
 -1      1131 6.90917E-03-1.59178E-02-2.79620E-01
 -1      1132 1.05800E-02-2.35867E-02-2.79620E-01
 -1      1133-2.40375E-02 1.05872E-02-1.55653E-01
 -1      1134-1.60424E-02 7.02856E-03-1.55653E-01
 -1      1135 1.90858E-02-1.81823E-02-4.32736E-01
 -1      1136 1.25467E-02-1.23609E-02-4.32736E-01
 -1      1137-1.62072E-02-6.41214E-03-3.59671E-01
 -1      1138-2.40524E-02-9.99340E-03-3.59671E-01
 -1      1139-6.88833E-03-1.57826E-02-2.06020E-01
 -1      1140-9.90454E-03-2.38332E-02-2.06020E-01
 -1      1141-1.68786E-04-1.79913E-02-2.81596E-01
 -1      1142-6.64798E-05-2.66784E-02-2.81596E-01
 -1      1143 1.53692E-02-6.72034E-03-3.94597E-01
 -1      1144 2.35172E-02-9.98047E-03-3.94597E-01
 -1      1145-1.34242E-03 1.70304E-02-3.52243E-01
 -1      1146-1.68614E-03 2.57406E-02-3.52243E-01
 -1      1147 1.53147E-02-7.04038E-03-2.75803E-01
 -1      1148 2.34627E-02-1.03005E-02-2.75803E-01
 -1      1149 1.51936E-02-7.33290E-03-1.57336E-01
 -1      1150 2.33416E-02-1.05931E-02-1.57336E-01
 -1      1151 1.16273E-02 1.09595E-02-2.01805E-01
 -1      1152 1.80005E-02 1.68104E-02-2.01805E-01
 -1      1153 1.18909E-02 1.07938E-02-3.17358E-01
 -1      1154 1.82640E-02 1.66447E-02-3.17358E-01
 -1      1155-6.37000E-03 1.59703E-02-3.89532E-01
 -1      1156-9.64544E-03 2.39180E-02-3.89532E-01
 -1      1157-6.31101E-03 1.59837E-02-2.34752E-01
 -1      1158-9.58647E-03 2.39315E-02-2.34752E-01
 -1      1159-1.90021E-02-1.71207E-02-1.64747E-01
 -1      1160-1.27160E-02-1.10857E-02-1.64747E-01
 -1      1161-1.89688E-02-1.71540E-02-2.03953E-01
 -1      1162-1.26826E-02-1.11191E-02-2.03953E-01
 -1      1163 2.33557E-02-1.03704E-02-2.36640E-01
 -1      1164 1.52077E-02-7.11027E-03-2.36640E-01
 -1      1165-1.53124E-03 1.71595E-02-3.90381E-01
 -1      1166-1.87496E-03 2.58697E-02-3.90381E-01
 -1      1167 1.25416E-02-1.23660E-02-3.54074E-01
 -1      1168 1.90806E-02-1.81874E-02-3.54074E-01
 -1      1169 7.07442E-03-1.59073E-02-2.04615E-01
 -1      1170 1.07452E-02-2.35763E-02-2.04615E-01
 -1      1171 7.12630E-03-1.58279E-02-1.65006E-01
 -1      1172 1.07971E-02-2.34968E-02-1.65006E-01
 -1      1173 1.69910E-02-9.23595E-05-2.77284E-01
 -1      1174 2.56114E-02 3.22930E-04-2.77284E-01
 -1      1175 1.51673E-02-7.20777E-03-1.97151E-01
 -1      1176 2.33153E-02-1.04679E-02-1.97151E-01
 -1      1177-9.81759E-03-2.38693E-02-1.67355E-01
 -1      1178-6.80137E-03-1.58186E-02-1.67355E-01
 -1      1179-1.25493E-02-1.12524E-02-3.60775E-01
 -1      1180-1.88355E-02-1.72873E-02-3.60775E-01
 -1      1181-1.69815E-02 1.10770E-03-2.78278E-01
 -1      1182-2.56921E-02 1.39838E-03-2.78278E-01
 -1      1183-1.69630E-02 1.08066E-03-2.39975E-01
 -1      1184-2.56736E-02 1.37134E-03-2.39975E-01
 -1      1185-1.56411E-02 7.78094E-03-4.31926E-01
 -1      1186-2.36361E-02 1.13395E-02-4.31926E-01
 -1      1187-6.29723E-03 1.59894E-02-1.96069E-01
 -1      1188-9.57270E-03 2.39372E-02-1.96069E-01
 -1      1189 1.54359E-02-6.74794E-03-3.94270E-01
 -1      1190 2.35838E-02-1.00081E-02-3.94270E-01
 -1      1191 1.69910E-02 2.91424E-04-1.60909E-01
 -1      1192 2.56114E-02 7.06710E-04-1.60909E-01
 -1      1193 1.03110E-02-2.37561E-02-4.33842E-01
 -1      1194 6.64018E-03-1.60872E-02-4.33842E-01
 -1      1195-1.07798E-04-1.80330E-02-3.20373E-01
 -1      1196-5.49193E-06-2.67201E-02-3.20373E-01
 -1      1197-1.69815E-02 1.05362E-03-1.99883E-01
 -1      1198-2.56921E-02 1.34429E-03-1.99883E-01
 -1      1199 1.20340E-02 1.06507E-02-3.95151E-01
 -1      1200 1.84072E-02 1.65015E-02-3.95151E-01
 -1      1201-1.63474E-02-6.07367E-03-2.82105E-01
 -1      1202-2.41926E-02-9.65493E-03-2.82105E-01
 -1      1203 5.54593E-03 1.51446E-02-3.54961E-01
 -1      1204 8.36196E-03 2.33443E-02-3.54961E-01
 -1      1205-7.75930E-04 1.70304E-02-2.34656E-01
 -1      1206-1.11965E-03 2.57406E-02-2.34656E-01
 -1      1207-6.32479E-03 1.59780E-02-2.73435E-01
 -1      1208-9.60025E-03 2.39258E-02-2.73435E-01
 -1      1209-1.69630E-02 1.16175E-03-3.57568E-01
 -1      1210-2.56736E-02 1.45243E-03-3.57568E-01
 -1      1211-1.66734E-02-5.61387E-03-1.64812E-01
 -1      1212-2.45186E-02-9.19514E-03-1.64812E-01
 -1      1213 5.73475E-03 1.50664E-02-3.16022E-01
 -1      1214 8.55079E-03 2.32661E-02-3.16022E-01
 -1      1215 6.76443E-03-1.59778E-02-3.56028E-01
 -1      1216 1.04352E-02-2.36467E-02-3.56028E-01
 -1      1217 2.56988E-02-1.88767E-04-4.33729E-01
 -1      1218 1.70785E-02-6.04068E-04-4.33729E-01
 -1      1219-1.61371E-02-6.58138E-03-3.98454E-01
 -1      1220-2.39823E-02-1.01626E-02-3.98454E-01
 -1      1221 1.84298E-02 1.63810E-02-4.35184E-01
 -1      1222 1.20567E-02 1.05302E-02-4.35184E-01
 -1      1223-1.69630E-02 1.10770E-03-2.79173E-01
 -1      1224-2.56736E-02 1.39838E-03-2.79173E-01
 -1      1225 1.19135E-02 1.06733E-02-3.57391E-01
 -1      1226 1.82867E-02 1.65242E-02-3.57391E-01
 -1      1227 1.69910E-02-4.76140E-04-3.93659E-01
 -1      1228 2.56113E-02-6.08415E-05-3.93659E-01
 -1      1229 1.25365E-02-1.23711E-02-2.75413E-01
 -1      1230 1.90755E-02-1.81925E-02-2.75413E-01
 -1      1231 1.53416E-02 5.79584E-03-2.77330E-01
 -1      1232 2.33947E-02 8.95085E-03-2.77330E-01
 -1      1233 5.22175E-03 1.54302E-02-4.31190E-01
 -1      1234 8.03776E-03 2.36298E-02-4.31190E-01
 -1      1235-7.23610E-03-1.56386E-02-3.60677E-01
 -1      1236-1.02523E-02-2.36891E-02-3.60677E-01
 -1      1237-7.03761E-03-1.56511E-02-2.82443E-01
 -1      1238-1.00538E-02-2.37017E-02-2.82443E-01
 -1      1239-6.95066E-03-1.56871E-02-2.43779E-01
 -1      1240-9.96686E-03-2.37378E-02-2.43779E-01
 -1      1241-1.69631E-02 1.18877E-03-3.96765E-01
 -1      1242-2.56736E-02 1.47944E-03-3.96765E-01
 -1      1243-1.63930E-02-6.29084E-03-3.19945E-01
 -1      1244-2.42382E-02-9.87209E-03-3.19945E-01
 -1      1245 1.54877E-02 5.44297E-03-1.60588E-01
 -1      1246 2.35409E-02 8.59800E-03-1.60588E-01
 -1      1247-1.25388E-02-1.13085E-02-4.00527E-01
 -1      1248-1.88249E-02-1.73434E-02-4.00527E-01
 -1      1249 6.92967E-03-1.59673E-02-2.81025E-01
 -1      1250 1.06005E-02-2.36362E-02-2.81025E-01
 -1      1251 1.18193E-02 1.08654E-02-2.78461E-01
 -1      1252 1.81925E-02 1.67162E-02-2.78461E-01
 -1      1253 1.54096E-02-6.62288E-03-4.34085E-01
 -1      1254 2.35575E-02-9.88300E-03-4.34085E-01
 -1      1255 5.97706E-03 1.51173E-02-2.75433E-01
 -1      1256 8.79311E-03 2.33170E-02-2.75433E-01
 -1      1257 6.83680E-03-1.59478E-02-3.17824E-01
 -1      1258 1.05076E-02-2.36167E-02-3.17824E-01
 -1      1259-1.26721E-02-1.11752E-02-2.43705E-01
 -1      1260-1.89583E-02-1.72101E-02-2.43705E-01
 -1      1261-7.14917E-03-1.56745E-02-3.22013E-01
 -1      1262-1.01653E-02-2.37252E-02-3.22013E-01
 -1      1263-1.68786E-04-1.80330E-02-2.81281E-01
 -1      1264-6.64795E-05-2.67201E-02-2.81281E-01
 -1      1265-3.51734E-04-1.79913E-02-1.64320E-01
 -1      1266-2.49428E-04-2.66784E-02-1.64320E-01
 -1      1267 1.52885E-02-6.91529E-03-3.15619E-01
 -1      1268 2.34364E-02-1.01754E-02-3.15619E-01
 -1      1269-1.19925E-02 1.30269E-02-3.92646E-01
 -1      1270-1.80173E-02 1.92152E-02-3.92646E-01
 -1      1271-1.72005E-03 1.70304E-02-4.30635E-01
 -1      1272-2.06377E-03 2.57405E-02-4.30635E-01
 -1      1273-1.26055E-02-1.12418E-02-3.22116E-01
 -1      1274-1.88916E-02-1.72768E-02-3.22116E-01
 -1      1275 6.16589E-03 1.50390E-02-2.36493E-01
 -1      1276 8.98195E-03 2.32388E-02-2.36493E-01
 -1      1277-1.58569E-02 7.47662E-03-3.13123E-01
 -1      1278-2.38519E-02 1.10352E-02-3.13123E-01
 -1      1279-1.57641E-02 7.70065E-03-3.91857E-01
 -1      1280-2.37591E-02 1.12592E-02-3.91857E-01
 -1      1281-5.87095E-04 1.71595E-02-1.94402E-01
 -1      1282-9.30811E-04 2.58697E-02-1.94402E-01
 -1      1283 1.25313E-02-1.23762E-02-1.96751E-01
 -1      1284 1.90704E-02-1.81976E-02-1.96751E-01
 -1      1285-4.68120E-05-1.79913E-02-3.59780E-01
 -1      1286 5.54949E-05-2.66784E-02-3.59780E-01
 -1      1287 1.52441E-02 6.03111E-03-3.55157E-01
 -1      1288 2.32972E-02 9.18612E-03-3.55157E-01
 -1      1289-1.69815E-02 1.02657E-03-1.60686E-01
 -1      1290-2.56921E-02 1.31725E-03-1.60686E-01
 -1      1291 6.49009E-03 1.47535E-02-1.60264E-01
 -1      1292 9.30616E-03 2.29532E-02-1.60264E-01
 -1      1293 1.69910E-02 1.63497E-04-1.99701E-01
 -1      1294 2.56114E-02 5.78783E-04-1.99701E-01
 -1      1295-1.20145E-02 1.30049E-02-4.31507E-01
 -1      1296-1.80393E-02 1.91931E-02-4.31507E-01
 -1      1297-1.59496E-02 7.25259E-03-2.34388E-01
 -1      1298-2.39447E-02 1.08112E-02-2.34388E-01
 -1      1299-6.38376E-03 1.59646E-02-4.28215E-01
 -1      1300-9.65919E-03 2.39123E-02-4.28215E-01
 -1      1301-1.61828E-02-6.79854E-03-4.36294E-01
 -1      1302-2.40279E-02-1.03798E-02-4.36294E-01
 -1      1303 1.51954E-02 6.14876E-03-3.94071E-01
 -1      1304 2.32485E-02 9.30376E-03-3.94071E-01
 -1      1305 1.70784E-02 3.55696E-05-2.39770E-01
 -1      1306 2.56988E-02 4.50857E-04-2.39770E-01
 -1      1307-2.90754E-04-1.79913E-02-2.03412E-01
 -1      1308-1.88449E-04-2.66784E-02-2.03412E-01
 -1      1309 1.15558E-02 1.10311E-02-1.62908E-01
 -1      1310 1.79290E-02 1.68819E-02-1.62908E-01
 -1      1311 7.51507E-05-1.80330E-02-4.37648E-01
 -1      1312 1.77458E-04-2.67200E-02-4.37648E-01
 -1      1313 1.69910E-02-3.48211E-04-3.54868E-01
 -1      1314 2.56113E-02 6.70828E-05-3.54868E-01
 -1      1315-1.69630E-02 1.21578E-03-4.35962E-01
 -1      1316-2.56736E-02 1.50646E-03-4.35962E-01
 -1      1317-6.34247E-03 1.59817E-02-3.12166E-01
 -1      1318-9.61791E-03 2.39295E-02-3.12166E-01
 -1      1319-3.98260E-04 1.70304E-02-1.56264E-01
 -1      1320-7.41976E-04 2.57406E-02-1.56264E-01
 -1      1321-1.57339E-02 7.55691E-03-3.53192E-01
 -1      1322-2.37289E-02 1.11155E-02-3.53192E-01
 -1      1323 1.25424E-02-1.23617E-02-3.94966E-01
 -1      1324 1.90814E-02-1.81831E-02-3.94966E-01
 -1      1325-1.27388E-02-1.11085E-02-1.65294E-01
 -1      1326-1.90249E-02-1.71435E-02-1.65294E-01
 -1      1327-1.27054E-02-1.11418E-02-2.04499E-01
 -1      1328-1.89916E-02-1.71768E-02-2.04499E-01
 -1      1329 1.52744E-02-7.13788E-03-2.36314E-01
 -1      1330 2.34223E-02-1.03980E-02-2.36314E-01
 -1      1331 1.70784E-02 2.91423E-04-1.62187E-01
 -1      1332 2.56988E-02 7.06710E-04-1.62187E-01
 -1      1333 9.17080E-03 2.31606E-02-1.97554E-01
 -1      1334 6.35473E-03 1.49608E-02-1.97554E-01
 -1      1335-1.18973E-02 1.31522E-02-1.98694E-01
 -1      1336-1.79221E-02 1.93404E-02-1.98694E-01
 -1      1337-1.19484E-02 1.30710E-02-3.14923E-01
 -1      1338-1.79732E-02 1.92592E-02-3.14923E-01
 -1      1339 1.25270E-02-1.23770E-02-1.58981E-01
 -1      1340 1.90661E-02-1.81984E-02-1.58981E-01
 -1      1341-1.59658E-02 6.99684E-03-1.56355E-01
 -1      1342-2.39610E-02 1.05554E-02-1.56355E-01
 -1      1343-6.77675E-03-1.57591E-02-1.66450E-01
 -1      1344-9.79296E-03-2.38098E-02-1.66450E-01
 -1      1345 1.83176E-02-7.58284E-03-4.25482E-01
 -1      1346-7.55300E-03-8.39039E-03-4.96852E-02
 -1      1347 5.34344E-04 1.23379E-02-4.18236E-02
 -1      1348-1.13956E-02 1.66491E-02-9.87341E-02
 -1      1349 3.79620E-03-1.18972E-02-4.97267E-02
 -1      1350 8.74214E-03-8.37008E-03-4.90580E-02
 -1      1351-1.27600E-03 1.14340E-02-5.37594E-02
 -1      1352 2.11181E-02-8.62017E-04-9.66135E-02
 -1      1353-1.73135E-02 7.02180E-03-9.43048E-02
 -1      1354-3.32816E-03-1.98321E-02-9.33165E-02
 -1      1355 7.06630E-04 2.41814E-02-2.11959E-01
 -1      1356 3.10950E-03-1.73308E-02-9.11635E-02
 -1      1357 5.53672E-04-2.84460E-04-5.06285E-01
 -1      1358-1.52423E-03 1.01769E-02-2.62699E-02
 -1      1359 8.71002E-03-6.70292E-03-5.54898E-02
 -1      1360 1.07115E-02-3.31582E-03-4.61243E-02
 -1      1361 7.41060E-03-5.51956E-03-3.02914E-02
 -1      1362 6.98807E-03 9.43305E-03-5.94669E-02
 -1      1363 9.24439E-03 7.06621E-03-4.99241E-02
 -1      1364 1.37835E-02 2.53526E-03-5.89307E-02
 -1      1365-1.05531E-03-1.16190E-02-5.99033E-02
 -1      1366 5.10550E-03 9.59975E-03-3.51543E-02
 -1      1367 9.41920E-03-1.55092E-02-1.01039E-01
 -1      1368 1.94647E-02 7.19972E-03-1.26770E-01
 -1      1369 1.82448E-03 9.93243E-03-4.67281E-02
 -1      1370-9.66807E-03-1.79371E-02-9.64614E-02
 -1      1371-1.25465E-02 2.05572E-03-4.61859E-02
 -1      1372-7.43152E-03-2.26747E-02-3.63986E-01
 -1      1373 1.03694E-02-2.24007E-02-2.80117E-01
 -1      1374-1.47259E-02 1.27159E-02-4.45824E-01
 -1      1375-9.40103E-03-3.10660E-03-4.88632E-02
 -1      1376-1.15783E-02 6.60003E-03-5.61950E-02
 -1      1377 1.33070E-02-2.78634E-03-7.06831E-02
 -1      1378 9.23981E-03 1.33180E-02-1.27873E-01
 -1      1379-8.77914E-03 1.16280E-02-5.26048E-02
 -1      1380 8.38663E-03-4.34279E-03-2.28479E-02
 -1      1381-2.34736E-04 5.55514E-03-1.77959E-02
 -1      1382 1.10558E-02-9.23735E-04-3.04609E-02
 -1      1383-1.97899E-03 1.44902E-02-6.97543E-02
 -1      1384-6.41859E-03 1.20433E-02-3.97846E-02
 -1      1385 3.05121E-03-1.47484E-02-5.33382E-02
 -1      1386-7.68901E-03 1.14135E-02-3.29836E-02
 -1      1387-1.78747E-02-1.34878E-02-1.24932E-01
 -1      1388 2.08392E-02-1.17206E-02-1.80524E-01
 -1      1389-5.30482E-03-1.16411E-02-3.55542E-02
 -1      1390-2.68024E-03 1.70504E-02-1.23273E-01
 -1      1391 1.37930E-02 4.03063E-03-5.14487E-02
 -1      1392 1.42744E-02 1.90587E-02-1.86707E-01
 -1      1393 1.50369E-02-1.15559E-02-6.56492E-02
 -1      1394-1.00797E-03-1.15369E-02-4.74676E-02
 -1      1395-9.44954E-03 9.37763E-03-6.17086E-02
 -1      1396-1.14780E-02 4.42377E-03-4.33506E-02
 -1      1397-1.90301E-02 6.12837E-04-9.82077E-02
 -1      1398-8.03499E-03 1.47901E-02-4.67491E-02
 -1      1399-1.18054E-02-9.42031E-03-4.05057E-02
 -1      1400 9.49298E-03-1.62758E-03-2.45882E-02
 -1      1401 1.69699E-02 2.44976E-03-1.29352E-01
 -1      1402 8.26157E-03 3.90886E-03-4.88939E-02
 -1      1403 5.85634E-03-2.09656E-02-4.18608E-01
 -1      1404 7.32714E-03 1.90197E-02-7.63511E-02
 -1      1405-9.06255E-03-1.73057E-03-3.28164E-02
 -1      1406 1.59945E-02-1.65532E-02-3.48802E-01
 -1      1407 8.18366E-03 2.01662E-02-3.90478E-01
 -1      1408 3.39667E-03 3.29017E-03-1.94796E-02
 -1      1409-4.03230E-03 1.91089E-02-8.66325E-02
 -1      1410 2.90538E-03 1.74860E-02-1.15084E-01
 -1      1411 2.28369E-03 1.71530E-02-1.83584E-01
 -1      1412 1.30588E-02-1.52037E-03-5.42818E-02
 -1      1413 1.09429E-02 1.05145E-02-8.41344E-02
 -1      1414-9.70847E-03-1.71443E-03-4.36681E-02
 -1      1415 2.03478E-03-1.16510E-02-2.59276E-02
 -1      1416-2.28935E-03-1.04230E-02-3.39074E-02
 -1      1417-1.00459E-02-1.43173E-02-7.02304E-02
 -1      1418-1.04433E-02 2.59628E-03-2.78532E-02
 -1      1419 2.01977E-02 1.35137E-02-2.93159E-01
 -1      1420-1.44494E-02 1.06978E-03-9.25905E-02
 -1      1421 8.18714E-03 2.27285E-02-2.64059E-01
 -1      1422 1.14608E-02-5.86201E-04-2.84595E-02
 -1      1423-1.49845E-02-2.06688E-02-2.39267E-01
 -1      1424 1.06029E-02-7.29666E-03-4.49729E-02
 -1      1425-1.50737E-02 9.88202E-03-1.88563E-01
 -1      1426 1.14275E-03-2.50680E-02-3.19285E-01
 -1      1427 9.92539E-03-1.30612E-02-9.30729E-02
 -1      1428-9.25837E-03-1.48216E-02-1.59367E-01
 -1      1429 2.23571E-03-5.27972E-03-1.71046E-02
 -1      1430 3.37769E-03 4.39943E-03-2.10222E-02
 -1      1431 4.49272E-03 8.39015E-03-4.32963E-02
 -1      1432-4.91279E-03 1.28490E-02-4.07997E-02
 -1      1433 8.43778E-03-3.88385E-03-2.42757E-02
 -1      1434 1.28314E-02 1.31990E-02-6.94325E-02
 -1      1435 1.69437E-02-3.61734E-03-1.38853E-01
 -1      1436 1.19279E-03-1.64392E-02-8.23639E-02
 -1      1437-2.45402E-02 3.94772E-03-2.81389E-01
 -1      1438-1.30069E-02-1.00619E-02-7.98183E-02
 -1      1439 8.26744E-03-2.26040E-02-1.62543E-01
 -1      1440-1.36088E-02 1.09200E-02-7.59333E-02
 -1      1441 1.01230E-02 6.61985E-03-2.55343E-02
 -1      1442 1.03927E-02 1.43703E-02-2.32773E-01
 -1      1443 2.90049E-03-1.76890E-02-1.52830E-01
 -1      1444 5.40574E-03-1.23208E-02-3.15981E-02
 -1      1445-7.78528E-05-1.40844E-02-8.55925E-02
 -1      1446 1.67127E-02-3.01091E-03-2.71661E-01
 -1      1447 1.22084E-02-7.33074E-03-8.24962E-02
 -1      1448 5.99045E-03 2.22652E-03-1.90951E-02
 -1      1449-8.44598E-03 9.16005E-03-3.06461E-02
 -1      1450 1.39999E-02 1.12197E-04-3.27511E-02
 -1      1451-3.65166E-03-1.15811E-02-4.17953E-02
 -1      1452-5.42542E-03 1.33795E-02-3.06902E-02
 -1      1453 4.76544E-03-4.66814E-03-1.63803E-02
 -1      1454-1.15393E-02-4.13796E-03-3.03685E-02
 -1      1455 1.38050E-02 9.04619E-03-9.84247E-02
 -1      1456-8.80858E-03 2.02570E-02-1.25707E-01
 -1      1457 7.30920E-03-8.93071E-03-3.20717E-02
 -1      1458-7.42475E-03 2.78552E-03-1.77705E-02
 -1      1459-6.57137E-03-7.70006E-03-4.91823E-01
 -1      1460 9.61172E-03-8.62855E-03-7.54652E-02
 -1      1461 7.34163E-03-1.54880E-02-7.18596E-02
 -1      1462-6.46985E-03-8.92547E-03-3.27595E-02
 -1      1463-6.53651E-03-2.46628E-02-2.29183E-01
 -1      1464 7.40645E-03-2.23126E-02-3.45424E-01
 -1      1465 6.91273E-03 7.09678E-03-4.97531E-01
 -1      1466 4.11727E-03 1.13295E-02-8.95056E-02
 -1      1467-1.41631E-02 4.44866E-03-7.40274E-02
 -1      1468-2.79872E-03-1.66187E-02-1.35741E-01
 -1      1469-8.41930E-04-1.29673E-02-2.79617E-02
 -1      1470 1.81401E-02 1.36103E-02-1.47462E-01
 -1      1471 2.25161E-02-8.78745E-03-2.98823E-01
 -1      1472 8.78476E-03-9.56343E-03-3.28608E-02
 -1      1473-1.55526E-03-2.03145E-02-8.18623E-02
 -1      1474-1.03234E-02-2.33669E-02-2.88177E-01
 -1      1475-1.70035E-04 2.37888E-02-3.27201E-01
 -1      1476-1.32076E-02-1.82911E-03-6.42293E-02
 -1      1477 2.38105E-02 3.73816E-03-2.29087E-01
 -1      1478 1.87432E-02-6.52371E-03-1.23248E-01
 -1      1479 1.45530E-02 9.84823E-03-1.55349E-01
 -1      1480-1.72472E-02 3.87768E-03-1.38993E-01
 -1      1481 7.51112E-03-3.92656E-03-2.51428E-02
 -1      1482 1.04469E-02 8.94993E-03-5.72661E-02
 -1      1483 4.64555E-03-7.87238E-03-2.12876E-02
 -1      1484-5.39208E-03-1.03012E-02-4.92003E-02
 -1      1485 2.04117E-02 1.21638E-02-2.04406E-01
 -1      1486-1.46131E-02-1.03625E-02-2.75453E-01
 -1      1487 3.52705E-03-1.81077E-02-6.41054E-02
 -1      1488-1.38216E-02-6.73015E-04-3.42752E-02
 -1      1489-1.65215E-02-9.29404E-03-1.95030E-01
 -1      1490 1.26024E-02-4.34107E-03-8.29117E-02
 -1      1491-1.89467E-02-2.41058E-03-1.94284E-01
 -1      1492-1.55390E-03 1.57523E-02-8.99619E-02
 -1      1493-3.72385E-03 6.87467E-03-2.16508E-02
 -1      1494 4.60718E-03-1.55432E-02-1.00362E-01
 -1      1495 1.55713E-02-9.14385E-03-1.31316E-01
 -1      1496-2.13194E-02-6.49214E-03-1.35265E-01
 -1      1497 8.88718E-03-1.96518E-02-9.54427E-02
 -1      1498 6.85721E-03-2.08770E-02-1.04642E-01
 -1      1499 2.07511E-02 4.09988E-03-1.26431E-01
 -1      1500 7.51894E-04-1.14443E-02-2.89210E-02
 -1      1501-8.67760E-03 1.44798E-02-1.13755E-01
 -1      1502-9.24795E-03 1.82801E-02-8.93401E-02
 -1      1503-1.58391E-02 1.92218E-02-2.76619E-01
 -1      1504 6.88576E-04 1.42343E-02-7.25337E-02
 -1      1505-1.72454E-02-5.52816E-03-8.67520E-02
 -1      1506 1.58351E-02 1.24915E-04-6.39639E-02
 -1      1507 1.64850E-02-1.74820E-02-2.25932E-01
 -1      1508-1.17043E-02 1.91226E-02-1.46349E-01
 -1      1509-1.12896E-02-7.08981E-03-3.24671E-02
 -1      1510 4.14065E-03 1.20399E-02-3.76079E-02
 -1      1511 1.61484E-02-1.39894E-02-1.39600E-01
 -1      1512 1.03704E-02 6.30114E-03-4.49464E-02
 -1      1513 8.56982E-04 6.13650E-03-2.30768E-02
 -1      1514-1.19233E-02 3.34007E-03-3.35658E-02
 -1      1515 1.15146E-03-7.34660E-03-2.61346E-02
 -1      1516-2.85006E-03 1.29584E-02-2.99229E-02
 -1      1517 3.76707E-03-2.38813E-02-2.30171E-01
 -1      1518 1.15626E-02-1.59170E-02-1.09195E-01
 -1      1519-5.65288E-03-1.32613E-03-1.79133E-02
 -1      1520-2.03193E-02 1.36172E-02-3.29794E-01
 -1      1521-6.32535E-04-4.96082E-03-1.61135E-02
 -1      1522-4.32983E-03 2.36752E-02-1.77731E-01
 -1      1523 1.16137E-02 9.34782E-03-9.47117E-02
 -1      1524 1.03576E-02 9.51154E-03-2.35661E-02
 -1      1525-6.37546E-03-3.36519E-03-2.01202E-02
 -1      1526 1.24925E-02-1.53009E-02-4.23683E-01
 -1      1527-1.52040E-02-1.32109E-02-8.10937E-02
 -1      1528-1.37242E-02 8.28082E-03-9.66496E-02
 -1      1529-2.83332E-04-2.27687E-02-3.87399E-01
 -1      1530 1.37183E-03-7.40414E-03-1.85656E-02
 -1      1531 1.50773E-02 1.46567E-02-1.35998E-01
 -1      1532 1.00843E-03-3.28073E-03-1.47447E-02
 -1      1533-9.26027E-03-1.64090E-02-8.98773E-02
 -1      1534-3.71487E-03-9.82286E-03-1.50623E-02
 -1      1535-6.84053E-03 2.18732E-02-1.30310E-01
 -1      1536-7.56353E-03-1.03074E-02-2.57122E-02
 -1      1537-5.07962E-03 1.30671E-03-1.56244E-02
 -1      1538-1.28435E-02 1.25125E-02-9.40340E-02
 -1      1539 1.83303E-02 1.14228E-02-1.42740E-01
 -1      1540-9.92523E-03-1.33869E-02-8.88258E-02
 -1      1541-4.85249E-03 1.53777E-02-8.10472E-02
 -1      1542-4.79037E-03 4.37789E-03-2.11897E-02
 -1      1543-2.33114E-02 5.32712E-03-1.63318E-01
 -1      1544-1.29530E-02 1.27708E-02-8.33725E-02
 -1      1545 1.00279E-02-1.05985E-02-5.22629E-02
 -1      1546-5.61952E-03 3.37375E-03-2.16160E-02
 -1      1547-2.09863E-02-2.33746E-03-4.00888E-01
 -1      1548-2.44690E-02-5.74000E-03-2.70416E-01
 -1      1549-1.67485E-03 4.45435E-03-1.82942E-02
 -1      1550-4.12439E-03-4.28392E-03-1.67153E-02
 -1      1551-2.88568E-03 5.28716E-03-1.27505E-02
 -1      1552-1.60225E-02 2.77931E-03-8.91638E-02
 -1      1553 2.21461E-03-3.98169E-03-1.68954E-02
 -1      1554 1.37819E-02 7.59675E-03-9.44930E-02
 -1      1555 1.74383E-02 7.46635E-04-8.12361E-02
 -1      1556 8.40383E-03 2.27040E-02-1.68358E-01
 -1      1557-9.57468E-03 2.18779E-02-2.25818E-01
 -1      1558 2.31728E-02-6.37760E-03-2.15676E-01
 -1      1559-4.40811E-03-1.77703E-02-2.02677E-01
 -1      1560 1.54758E-02 1.19808E-02-5.83029E-02
 -1      1561-1.87214E-02 1.53880E-02-1.85704E-01
 -1      1562-7.09313E-03 1.88350E-02-7.88515E-02
 -1      1563-1.60584E-02 4.95641E-03-7.79121E-02
 -1      1564-2.16330E-03-1.59526E-02-4.67637E-01
 -1      1565 6.38713E-03 4.81895E-03-2.09770E-02
 -1      1566 8.26423E-03-1.36367E-02-7.06209E-02
 -1      1567-8.14088E-04 4.90314E-03-1.98483E-02
 -1      1568-1.06076E-02-2.12705E-02-1.82099E-01
 -1      1569 1.26743E-02-1.38443E-02-9.87381E-02
 -1      1570-8.18913E-03 2.02614E-03-2.21867E-02
 -1      1571-5.82638E-03-2.04916E-02-4.20610E-01
 -1      1572-1.32733E-02 3.27804E-03-4.75682E-01
 -1      1573 2.24165E-02-1.06082E-02-2.39443E-01
 -1      1574-4.02084E-03 1.80238E-02-1.90825E-01
 -1      1575 5.00947E-03 6.77316E-04-1.88274E-02
 -1      1576-9.81746E-03 2.14605E-02-1.75330E-01
 -1      1577-1.28627E-02 1.05553E-02-9.76596E-02
 -1      1578-1.10622E-02-1.13385E-02-3.65631E-02
 -1      1579-6.65085E-03-4.18564E-03-1.87292E-02
 -1      1580 8.69635E-03 2.75429E-05-1.83964E-02
 -1      1581-1.45337E-03-7.41670E-03-2.06403E-02
 -1      1582-1.37316E-02-1.80662E-02-1.51392E-01
 -1      1583 6.07218E-03-2.35474E-02-2.88125E-01
 -1      1584 3.70858E-03 2.05914E-02-1.09292E-01
 -1      1585-1.49318E-02-1.15772E-02-8.01539E-02
 -1      1586 2.41669E-02-2.36843E-03-1.84759E-01
 -1      1587-8.92650E-03 3.86524E-03-2.81784E-02
 -1      1588 6.38666E-03-1.66508E-03-1.80095E-02
 -1      1589 1.06218E-02-1.45050E-02-1.57666E-01
 -1      1590 8.13182E-03 1.30867E-03-1.89123E-02
 -1      1591 8.77539E-03 1.40064E-02-1.80088E-01
 -1      1592 2.25731E-02 1.33185E-03-1.54361E-01
 -1      1593-2.29328E-03-1.22151E-02-3.21007E-02
 -1      1594 1.28539E-02 4.21822E-03-2.09931E-02
 -1      1595 1.25357E-02 1.75127E-02-1.11536E-01
 -1      1596-3.71319E-03 1.37926E-02-2.82912E-02
 -1      1597 1.71993E-03 4.92054E-03-1.98178E-02
 -1      1598 1.63612E-03-2.41754E-02-2.68440E-01
 -1      1599-2.21703E-02 6.50566E-03-4.15891E-01
 -1      1600 4.49394E-03 2.33932E-02-1.92364E-01
 -1      1601 1.84920E-02 8.76794E-03-4.23453E-01
 -1      1602 1.38309E-03 7.43634E-03-1.53659E-02
 -1      1603-2.43335E-02-1.45496E-03-3.20491E-01
 -1      1604-8.34074E-03-1.50279E-02-8.19420E-02
 -1      1605-4.07167E-03-2.51698E-02-3.01200E-01
 -1      1606 1.78373E-02-1.11890E-02-1.22041E-01
 -1      1607 1.90039E-02-1.27276E-02-3.85662E-01
 -1      1608-7.55628E-03-1.72784E-02-6.64161E-02
 -1      1609-2.39245E-02 3.49329E-03-3.62164E-01
 -1      1610 2.21721E-02-4.42928E-03-1.62402E-01
 -1      1611-8.79786E-03-3.44884E-03-2.57602E-02
 -1      1612 6.71018E-03-1.17810E-03-2.44571E-02
 -1      1613-1.15117E-02-1.04280E-02-9.10602E-02
 -1      1614-1.60274E-02 4.72984E-03-7.38568E-02
 -1      1615-1.49329E-02 5.75715E-03-7.89676E-02
 -1      1616-2.20888E-02-1.15275E-02-1.96626E-01
 -1      1617 1.40343E-02-1.94618E-02-2.85979E-01
 -1      1618-1.19276E-02-2.19429E-02-2.36026E-01
 -1      1619 3.71108E-03 1.67570E-02-2.32149E-01
 -1      1620 1.71385E-02 3.25783E-03-1.95101E-01
 -1      1621-3.29117E-03-1.58474E-02-6.98051E-02
 -1      1622 1.12038E-02 2.20861E-02-2.23549E-01
 -1      1623-1.70658E-02-1.58776E-02-1.35816E-01
 -1      1624 3.33390E-03 2.40558E-02-2.66258E-01
 -1      1625-3.68879E-03-1.53705E-02-5.32825E-02
 -1      1626-1.39188E-02-8.13625E-03-8.82664E-02
 -1      1627 7.21321E-03-5.75784E-04-1.83171E-02
 -1      1628 1.36584E-02-1.62190E-02-1.50460E-01
 -1      1629 1.63711E-02-9.10004E-03-9.35688E-02
 -1      1630-1.80063E-03-2.44780E-02-2.88896E-01
 -1      1631 1.29764E-02-5.27833E-03-7.19255E-02
 -1      1632-8.35251E-03 1.42681E-02-8.10748E-02
 -1      1633-4.08880E-03 1.92550E-02-4.33589E-01
 -1      1634 9.51519E-03-1.01865E-02-6.09196E-02
 -1      1635-1.27369E-02 1.28100E-03-4.79700E-02
 -1      1636-1.84396E-02-1.42067E-02-3.90535E-01
 -1      1637 1.95851E-02-1.42408E-02-2.87386E-01
 -1      1638-1.39643E-02 1.76542E-02-3.66751E-01
 -1      1639 1.33615E-03 5.00591E-03-5.01042E-01
 -1      1640 1.80365E-02 1.64857E-02-2.31754E-01
 -1      1641 1.11305E-02-2.08300E-02-3.33430E-01
 -1      1642-1.49480E-02-9.60564E-03-1.35798E-01
 -1      1643-8.61518E-03 1.41821E-04-2.15160E-02
 -1      1644-4.58494E-03-3.18138E-03-1.36191E-02
 -1      1645 4.80840E-03 1.28537E-02-4.71889E-01
 -1      1646-1.72470E-02-1.81731E-02-1.93912E-01
 -1      1647 3.78290E-03 1.27868E-02-7.60133E-02
 -1      1648 3.80365E-03-3.76387E-03-1.66168E-02
 -1      1649-1.88197E-02 1.52733E-02-2.63038E-01
 -1      1650 1.04526E-02-1.94819E-02-3.85440E-01
 -1      1651-1.55435E-02 1.78509E-02-1.97732E-01
 -1      1652-2.87368E-03-5.87099E-03-4.95396E-01
 -1      1653 7.22216E-03-1.85425E-03-4.95936E-01
 -1      1654-1.27536E-03-4.88732E-03-1.84406E-02
 -1      1655 7.99326E-03-2.30861E-02-2.24534E-01
 -1      1656-2.35053E-02-6.19806E-03-3.46843E-01
 -1      1657 1.82518E-02-4.02718E-03-1.04791E-01
 -1      1658 7.14400E-03-1.04617E-02-4.79693E-01
 -1      1659 2.28776E-02 8.34428E-03-2.56623E-01
 -1      1660-1.24665E-02 2.07674E-02-2.34261E-01
 -1      1661-1.24415E-02-1.92213E-02-1.43294E-01
 -1      1662 2.69514E-03 7.22314E-03-1.40789E-02
 -1      1663 4.90574E-03 4.71814E-03-1.42745E-02
 -1      1664-7.35000E-03-3.47934E-04-1.37500E-02
 -1      1665 1.98391E-02-1.30680E-02-1.98982E-01
 -1      1666 1.38497E-02 1.94686E-02-3.10259E-01
 -1      1667 1.75691E-02 1.64527E-02-2.91928E-01
 -1      1668-9.41387E-03 1.61237E-02-1.80751E-01
 -1      1669-6.54302E-03-2.26988E-02-1.51355E-01
 -1      1670-2.31283E-02 1.06003E-02-2.48062E-01
 -1      1671-1.81650E-02 1.68210E-02-2.26750E-01
 -1      1672-3.92147E-03 4.89031E-03-1.53375E-02
 -1      1673-8.30987E-03-7.18979E-03-4.15541E-02
 -1      1674-1.47291E-03-2.47221E-02-1.70506E-01
 -1      1675-1.85901E-02-7.27379E-03-1.00804E-01
 -1      1676 2.18422E-02 8.02436E-03-3.41090E-01
 -1      1677-1.65689E-02-8.09934E-03-4.47626E-01
 -1      1678-1.79013E-02-3.43919E-03-7.67427E-02
 -1      1679-9.27058E-03 6.67257E-03-4.03903E-02
 -1      1680 2.53800E-03 1.27990E-02-3.22772E-02
 -1      1681-2.38875E-02 7.09638E-03-2.20758E-01
 -1      1682-2.32577E-03-5.30249E-03-1.26927E-02
 -1      1683 1.46146E-02 4.62281E-03-8.85537E-02
 -1      1684-1.04903E-02 2.19359E-02-2.77798E-01
 -1      1685-2.04158E-02 7.26599E-03-1.25778E-01
 -1      1686 9.60868E-03 2.00530E-02-1.31857E-01
 -1      1687 2.26942E-02-5.70478E-04-1.39854E-01
 -1      1688 5.89499E-03 1.01655E-02-3.83521E-02
 -1      1689 1.78663E-02-3.80360E-03-2.03920E-01
 -1      1690-1.70167E-02 1.37073E-02-1.22326E-01
 -1      1691 1.21550E-02 6.53049E-03-3.23009E-02
 -1      1692-2.07790E-02-1.50638E-02-2.67579E-01
 -1      1693 1.53012E-02-2.72251E-03-5.64629E-02
 -1      1694-1.45079E-02-1.04698E-02-6.58822E-02
 -1      1695 2.40098E-02 4.80155E-03-2.89894E-01
 -1      1696 1.12603E-03 1.43565E-02-5.04537E-02
 -1      1697-2.46108E-02-6.88187E-04-2.42162E-01
 -1      1698 1.54163E-02 1.90991E-02-2.47332E-01
 -1      1699-5.23306E-03-2.45513E-04-1.61155E-02
 -1      1700-2.09065E-04-6.38877E-03-1.49857E-02
 -1      1701 3.48227E-03 1.95919E-02-4.24513E-01
 -1      1702-7.95888E-03 3.54137E-03-3.97460E-02
 -1      1703-3.52351E-03 2.09825E-03-1.40584E-02
 -1      1704-7.29106E-03 2.17746E-02-3.50793E-01
 -1      1705-7.99756E-03-1.43734E-02-4.61511E-01
 -1      1706-1.69837E-02-2.94864E-03-2.75478E-01
 -1      1707 1.42000E-02 9.10235E-03-8.15952E-02
 -1      1708 5.78011E-03-1.70751E-02-5.70825E-02
 -1      1709-7.12488E-03-1.65472E-02-9.49236E-02
 -1      1710-1.96793E-02 1.19892E-02-1.59102E-01
 -1      1711-2.44388E-03 3.11051E-03-5.05136E-01
 -1      1712 4.56564E-03-2.22815E-02-1.58218E-01
 -1      1713-1.18551E-02 6.05862E-04-4.59094E-02
 -1      1714 6.78161E-03 2.16039E-02-1.02953E-01
 -1      1715 1.37127E-02 2.13317E-02-2.74575E-01
 -1      1716-1.51305E-02 9.72938E-03-2.44800E-01
 -1      1717 3.20797E-03 6.38768E-03-1.67646E-02
 -1      1718-1.31159E-02 5.50561E-03-8.36542E-02
 -1      1719 8.19383E-03-1.11896E-02-5.10956E-02
 -1      1720-1.01398E-02-1.49674E-02-2.20152E-01
 -1      1721-1.95279E-02 1.35902E-02-3.91151E-01
 -1      1722-4.68141E-03-2.24575E-02-1.44090E-01
 -1      1723 2.21574E-02 1.03652E-02-3.00006E-01
 -1      1724 6.27267E-04-1.51856E-02-9.17164E-02
 -1      1725-1.50016E-02 1.64926E-02-1.40484E-01
 -1      1726 1.63630E-02 3.33836E-03-2.70200E-01
 -1      1727 1.32426E-03-2.30988E-03-5.07520E-01
 -1      1728-1.28564E-02-2.06920E-02-1.88624E-01
 -1      1729 2.23850E-02 4.32221E-03-1.77654E-01
 -1      1730 3.30997E-03-1.87796E-02-2.14741E-01
 -1      1731-7.32810E-03 2.61135E-04-4.98630E-01
 -1      1732 1.84735E-02 6.25800E-03-7.25722E-02
 -1      1733-8.85131E-03 6.97606E-03-4.87900E-01
 -1      1734-5.04503E-03 4.65273E-03-2.51159E-02
 -1      1735-1.21649E-02 6.22153E-03-5.08923E-02
 -1      1736 9.08035E-03 2.21377E-02-3.31636E-01
 -1      1737 6.25050E-03-4.52082E-04-2.20862E-02
 -1      1738-3.68571E-03-9.94610E-03-2.15653E-02
 -1      1739 1.53154E-02 3.98047E-03-5.71499E-02
 -1      1740-5.77492E-03 2.26725E-03-1.75523E-02
 -1      1741-1.47904E-03 2.19804E-02-3.80718E-01
 -1      1742-1.88409E-02-3.35547E-03-1.35606E-01
 -1      1743 4.44645E-03-4.10336E-03-1.68845E-02
 -1      1744 2.15766E-02 6.29491E-03-1.60604E-01
 -1      1745-1.50343E-02 1.07579E-02-9.20314E-02
 -1      1746-1.99262E-02-1.45709E-02-1.95468E-01
 -1      1747 1.84471E-02-2.67238E-03-9.70441E-02
 -1      1748 1.02606E-02 6.98092E-03-4.77424E-01
 -1      1749 1.96311E-02 1.33302E-02-2.40199E-01
 -1      1750 1.69582E-02 1.55095E-02-1.79435E-01
 -1      1751 1.92113E-02 1.34688E-02-3.63865E-01
 -1      1752-9.77420E-03-1.58947E-02-1.14757E-01
 -1      1753-1.96257E-03 9.34915E-03-4.96410E-01
 -1      1754-1.36446E-02 2.27692E-03-5.63095E-02
 -1      1755-5.05998E-03-1.54627E-02-8.79644E-02
 -1      1756 1.22113E-02-2.05184E-02-2.18107E-01
 -1      1757-1.82723E-02 3.99807E-03-2.04193E-01
 -1      1758-1.83555E-02 1.63599E-02-3.16457E-01
 -1      1759 3.56228E-03-5.44379E-03-1.43191E-02
 -1      1760-3.91200E-03 6.54393E-04-1.39513E-02
 -1      1761 1.46731E-02-1.09574E-02-9.12444E-02
 -1      1762-4.11194E-04-7.07325E-03-1.60977E-02
 -1      1763 1.35130E-02 2.16199E-04-5.48256E-02
 -1      1764-1.33313E-02 9.84290E-03-6.07937E-02
 -1      1765 1.68052E-02-1.44172E-03-9.70053E-02
 -1      1766 1.02345E-02-1.91092E-02-1.20045E-01
 -1      1767 9.56257E-03 9.33654E-03-2.26059E-02
 -1      1768 9.72117E-03-2.19754E-02-1.90686E-01
 -1      1769 6.65042E-04-2.47304E-02-2.12200E-01
 -1      1770 2.16891E-02-7.39279E-03-3.61608E-01
 -1      1771-9.81840E-03 1.80798E-02-4.21542E-01
 -1      1772 1.46595E-02 9.16887E-03-2.15392E-01
 -1      1773-1.45646E-02-1.95404E-02-3.38355E-01
 -1      1774 1.53602E-02 1.69547E-02-3.38080E-01
 -1      1775 1.94638E-02-1.01275E-02-1.44997E-01
 -1      1776-6.53977E-03-1.07826E-02-2.63369E-02
 -1      1777 8.20823E-03 2.28979E-02-2.14792E-01
 -1      1778 1.23713E-02 1.58965E-02-4.35635E-01
 -1      1779-1.02851E-02-1.45140E-02-2.76001E-01
 -1      1780-2.26533E-02 8.80134E-03-3.60288E-01
 -1      1781 1.74264E-03 1.48967E-02-6.39677E-02
 -1      1782-1.03997E-02 1.99276E-02-3.73311E-01
 -1      1783-5.18496E-03-1.71107E-03-1.19545E-02
 -1      1784 6.43395E-03-1.97748E-02-1.15608E-01
 -1      1785 2.32597E-02-3.65825E-03-2.08815E-01
 -1      1786 1.37252E-02-6.52718E-03-9.61394E-02
 -1      1787-1.65545E-03 2.18576E-02-1.31254E-01
 -1      1788 7.96938E-04-1.32655E-02-5.88041E-02
 -1      1789 4.50810E-03 1.90621E-02-6.98213E-02
 -1      1790-2.00236E-03 2.25741E-02-1.79289E-01
 -1      1791 2.33477E-03-8.55986E-03-4.96425E-01
 -1      1792-2.01604E-02 1.42177E-02-2.13314E-01
 -1      1793-3.16639E-03-2.44915E-02-1.91755E-01
 -1      1794-2.35823E-02-4.89958E-03-2.00922E-01
 -1      1795 6.48098E-03 3.99393E-03-2.62165E-02
 -1      1796-2.10474E-02-2.78038E-03-1.43347E-01
 -1      1797-9.07325E-03 9.17419E-03-1.82243E-02
 -1      1798-1.88441E-02-1.17327E-02-1.11984E-01
 -1      1799-1.80276E-02-6.72349E-03-9.11325E-02
 -1      1800 1.49763E-03 2.26558E-02-1.60992E-01
 -1      1801-5.81862E-03 1.45885E-04-1.68152E-02
 -1      1802 1.09280E-02-1.18595E-02-6.30538E-02
 -1      1803 1.07462E-02-2.03663E-02-1.68369E-01
 -1      1804 5.01843E-03 3.59782E-03-1.46364E-02
 -1      1805-2.10938E-02 2.40959E-03-1.20933E-01
 -1      1806 1.49758E-02 1.31322E-02-8.56928E-02
 -1      1807-8.77864E-03-1.88181E-02-1.39732E-01
 -1      1808 9.75273E-03-2.11008E-02-1.43421E-01
 -1      1809-4.01719E-03-1.76512E-02-2.56375E-01
 -1      1810-5.59786E-03 2.31466E-02-2.63476E-01
 -1      1811 1.46781E-02-9.77664E-03-1.96610E-01
 -1      1812 1.13719E-02-8.84315E-03-9.02493E-02
 -1      1813-9.80814E-03 8.16066E-03-4.84881E-02
 -1      1814-3.64765E-03 7.14826E-03-1.51694E-02
 -1      1815-5.80165E-03 1.13978E-02-4.76687E-01
 -1      1816 1.02520E-02-5.02690E-03-4.89192E-01
 -1      1817 8.82975E-03 8.69422E-03-7.44550E-02
 -1      1818 7.46035E-03-7.90093E-03-1.91239E-02
 -1      1819 1.12209E-03-5.77269E-03-1.47314E-02
 -1      1820 1.17673E-02-1.40498E-02-2.34371E-01
 -1      1821-1.87976E-02 1.40236E-02-1.47803E-01
 -1      1822-5.39228E-03 3.77741E-03-1.43486E-02
 -1      1823 1.12089E-02-1.45250E-02-1.87932E-01
 -1      1824 1.30180E-02 1.13297E-02-4.12336E-02
 -1      1825-3.67043E-03 1.70935E-02-2.68082E-01
 -1      1826 1.48280E-02 8.89387E-04-4.68183E-01
 -1      1827 3.08334E-03 6.76585E-03-1.61260E-02
 -1      1828-2.30576E-02-1.01938E-02-2.61900E-01
 -1      1829-2.12130E-02-1.29905E-02-3.28327E-01
 -1      1830-1.81815E-02-1.80427E-02-2.41053E-01
 -1      1831 5.14735E-03 1.33380E-02-2.34354E-02
 -1      1832-9.64200E-04 7.35889E-03-1.60023E-02
 -1      1833-2.34279E-02-8.01271E-03-2.99407E-01
 -1      1834-2.17703E-02-8.76034E-03-1.49859E-01
 -1      1835-7.62521E-03-2.30434E-02-1.93326E-01
 -1      1836 7.67439E-03 1.00480E-03-2.22930E-02
 -1      1837-1.77402E-02-2.21554E-03-9.07154E-02
 -1      1838 1.94272E-03-1.03067E-02-4.88302E-02
 -1      1839 3.96435E-03 2.28054E-02-3.61423E-01
 -1      1840-1.24932E-03 2.43208E-02-2.64172E-01
 -1      1841 2.20127E-02-8.88689E-04-3.97863E-01
 -1      1842-1.85578E-02-1.62504E-02-3.44914E-01
 -1      1843 2.32734E-02-8.50537E-03-2.58642E-01
 -1      1844 1.38012E-03-2.28584E-02-1.32056E-01
 -1      1845-5.01183E-03 1.63519E-02-5.05661E-02
 -1      1846-2.10484E-02 9.33115E-03-1.46886E-01
 -1      1847-2.44629E-02 4.11042E-03-2.29420E-01
 -1      1848 1.21717E-02 3.29661E-03-4.92429E-01
 -1      1849-2.62494E-03-2.43678E-02-3.43574E-01
 -1      1850 1.69991E-03 1.61789E-02-3.06471E-01
 -1      1851-1.41692E-02-8.06118E-03-5.69565E-02
 -1      1852-1.39114E-02-2.05186E-02-2.89946E-01
 -1      1853 1.47480E-02 8.22771E-03-2.72300E-01
 -1      1854-1.49529E-02 6.35883E-03-1.26125E-01
 -1      1855-8.75136E-03 1.49241E-02-2.68926E-01
 -1      1856-1.44997E-02-5.05650E-03-5.94786E-02
 -1      1857-4.60346E-03 2.34608E-02-3.14183E-01
 -1      1858-7.68397E-03 1.13062E-02-6.95855E-02
 -1      1859 2.04317E-02-1.24350E-02-3.30952E-01
 -1      1860-2.11572E-02-8.93403E-03-3.92039E-01
 -1      1861-1.41023E-02-9.99297E-03-1.55647E-01
 -1      1862-8.03122E-03-3.67149E-03-1.50571E-02
 -1      1863-1.01533E-02 2.15892E-02-3.27962E-01
 -1      1864-1.53821E-02 1.56874E-02-4.04313E-01
 -1      1865 5.90908E-03 1.41224E-02-9.77314E-02
 -1      1866 8.61252E-03-3.33482E-04-1.56356E-02
 -1      1867-2.60620E-03-4.43686E-03-1.28485E-02
 -1      1868 2.51726E-02-1.04206E-03-2.65551E-01
 -1      1869 2.01281E-02-1.19333E-02-2.41250E-01
 -1      1870-2.75874E-03-4.28496E-03-1.10009E-02
 -1      1871-2.34785E-02-8.67897E-03-2.20483E-01
 -1      1872-2.20481E-02 5.66482E-04-1.48343E-01
 -1      1873 4.31148E-03 4.26712E-03-1.65074E-02
 -1      1874 3.72723E-03-1.77927E-02-2.75061E-01
 -1      1875 1.41474E-02 1.80230E-02-3.85398E-01
 -1      1876-1.22618E-03 1.42980E-02-5.71975E-02
 -1      1877-1.51010E-02-1.31429E-02-4.35731E-01
 -1      1878-3.19950E-03-1.42816E-02-6.81738E-02
 -1      1879 6.01277E-03 2.30420E-02-1.42784E-01
 -1      1880-2.39526E-02 8.76850E-03-3.01115E-01
 -1      1881 3.54221E-04 8.77787E-03-1.94389E-02
 -1      1882-6.98601E-04-7.56390E-03-4.94219E-01
 -1      1883-4.94521E-03 4.32778E-03-1.66490E-02
 -1      1884 1.92662E-02 4.05295E-03-9.66057E-02
 -1      1885 2.03389E-02 1.20140E-02-3.42573E-01
 -1      1886 2.12389E-02-8.23267E-03-1.70970E-01
 -1      1887 1.84101E-02 1.34572E-02-1.91872E-01
 -1      1888-1.64052E-02-3.10308E-04-1.14607E-01
 -1      1889 2.27555E-02 6.31567E-03-2.11868E-01
 -1      1890 2.10739E-02 1.00139E-02-1.73582E-01
 -1      1891 1.99285E-03 1.07789E-02-4.89758E-01
 -1      1892 1.55347E-02-1.71531E-03-1.04039E-01
 -1      1893 1.22019E-02-1.40416E-03-5.38463E-02
 -1      1894-1.78717E-03 5.22583E-03-4.99304E-01
 -1      1895 5.52989E-04 1.93547E-02-1.02053E-01
 -1      1896 6.32661E-03 1.58719E-02-5.34800E-02
 -1      1897-1.22676E-02-1.90862E-02-3.97977E-01
 -1      1898-4.27587E-03-6.22907E-03-1.63957E-02
 -1      1899 2.48732E-02-2.27224E-05-2.20121E-01
 -1      1900 1.75785E-02 1.32207E-02-4.09921E-01
 -1      1901-8.51732E-04 6.99753E-03-1.89691E-02
 -1      1902-2.45536E-03-2.53426E-02-2.38742E-01
 -1      1903 3.07771E-03-5.02664E-03-1.17218E-02
 -1      1904-5.83194E-03 2.39171E-02-2.22356E-01
 -1      1905 1.89285E-02-2.48958E-03-4.41959E-01
 -1      1906 1.48959E-02-9.34678E-03-2.52510E-01
 -1      1907 1.09077E-02-8.67984E-03-4.66596E-01
 -1      1908 9.23281E-03-1.54446E-02-2.83453E-01
 -1      1909-5.76968E-03 8.55974E-03-4.41421E-02
 -1      1910 2.55510E-03 6.13944E-03-1.43078E-02
 -1      1911 7.37164E-03 8.09556E-04-1.20672E-02
 -1      1912 5.41624E-03 2.28530E-02-3.11576E-01
 -1      1913 2.46215E-02 1.25835E-05-3.32518E-01
 -1      1914 2.17632E-02 4.42812E-03-3.91401E-01
 -1      1915-2.31647E-02 9.70002E-03-1.98762E-01
 -1      1916-1.84929E-02-1.78393E-02-2.95015E-01
 -1      1917 9.44698E-03 1.38509E-02-2.83526E-01
 -1      1918-9.30951E-03 1.60315E-02-2.24711E-01
 -1      1919-7.38237E-03 2.31687E-02-2.92170E-01
 -1      1920-4.73341E-03 1.48698E-03-1.13736E-02
 -1      1921 2.41860E-03 3.17105E-03-1.07851E-02
 -1      1922-2.36039E-02-2.29176E-03-1.89517E-01
 -1      1923-1.37874E-05 1.83332E-02-8.85240E-02
 -1      1924 1.95545E-02 1.42023E-03-1.04465E-01
 -1      1925-1.70150E-02 1.92495E-03-7.46301E-02
 -1      1926 2.37673E-02-4.59446E-03-3.08390E-01
 -1      1927-1.71795E-02 4.82161E-03-3.08567E-01
 -1      1928-7.78341E-03-2.42138E-02-3.18154E-01
 -1      1929-2.46952E-02 1.55829E-03-2.83882E-01
 -1      1930 1.50627E-03-1.98299E-02-4.29744E-01
 -1      1931-3.60407E-03 2.37259E-02-2.17466E-01
 -1      1932-6.34342E-03-1.63868E-02-1.92255E-01
 -1      1933-2.37852E-02 2.95072E-03-1.85087E-01
 -1      1934-2.41028E-02 3.47659E-03-3.19312E-01
 -1      1935 1.86835E-02-1.42139E-02-3.24940E-01
 -1      1936-1.40735E-02 1.05200E-02-2.99618E-01
 -1      1937-2.00168E-02-1.14178E-02-1.49967E-01
 -1      1938-1.70258E-02 1.66477E-02-1.76970E-01
 -1      1939-1.69292E-03-1.71962E-02-3.25341E-01
 -1      1940 5.30259E-03-1.75001E-02-1.71867E-01
 -1      1941 1.65669E-02 3.17685E-03-2.32785E-01
 -1      1942-2.14168E-02 1.30478E-02-2.79817E-01
 -1      1943-2.18890E-02-1.19636E-02-2.32624E-01
 -1      1944-4.60395E-03 1.77197E-02-1.54640E-01
 -1      1945 1.34568E-02-1.93369E-02-1.90729E-01
 -1      1946-2.38130E-02 6.37079E-03-3.30685E-01
 -1      1947-4.54432E-03 1.64664E-02-3.54073E-01
 -1      1948-1.76259E-02-1.10048E-03-2.33087E-01
 -1      1949 1.13837E-02 2.08379E-02-1.76803E-01
 -1      1950-1.72573E-02 4.29554E-03-2.61121E-01
 -1      1951 2.41959E-02-5.21058E-03-2.58488E-01
 -1      1952 2.22510E-03 1.66107E-02-2.68149E-01
 -1      1953 1.03266E-02-2.26450E-02-2.40418E-01
 -1      1954 1.28975E-02-1.16604E-02-1.43317E-01
 -1      1955-2.45104E-02-3.81416E-03-2.42111E-01
 -1      1956 1.71490E-02-1.68905E-02-2.68099E-01
 -1      1957 9.59302E-03 1.31105E-02-3.23847E-01
 -1      1958 2.19671E-02 9.65002E-03-2.14959E-01
 -1      1959 1.15675E-02 1.30169E-02-1.86802E-01
 -1      1960 3.90177E-03 1.65945E-02-1.47735E-01
 -1      1961 1.67141E-02-4.13938E-03-3.39510E-01
 -1      1962 1.73286E-02 1.76647E-03-1.61514E-01
 -1      1963 1.57233E-02 3.48632E-03-3.11080E-01
 -1      1964-2.47623E-02-5.65437E-03-3.13670E-01
 -1      1965-1.82925E-02-3.17559E-03-2.43020E-01
 -1      1966-4.42384E-03 1.72498E-02-2.21170E-01
 -1      1967-1.71874E-02-1.74335E-03-4.45859E-01
 -1      1968-1.67707E-02 6.01609E-03-3.46056E-01
 -1      1969-1.10837E-02 1.46432E-02-1.47673E-01
 -1      1970 1.16468E-02-1.39846E-02-3.23950E-01
 -1      1971 1.42580E-02-1.94450E-02-2.44469E-01
 -1      1972 3.71770E-03 2.39645E-02-2.21653E-01
 -1      1973-7.43887E-03-2.39104E-02-2.71844E-01
 -1      1974 2.39814E-02 2.70340E-03-1.92486E-01
 -1      1975-1.51753E-02-1.05902E-02-2.34073E-01
 -1      1976-2.23994E-02-7.15959E-03-1.79596E-01
 -1      1977 3.49743E-03-2.33528E-02-3.61747E-01
 -1      1978 1.44433E-02-9.94591E-03-3.39111E-01
 -1      1979-1.74626E-02 1.76115E-02-2.66221E-01
 -1      1980 1.39885E-03-1.78913E-02-1.82389E-01
 -1      1981-4.13855E-04 2.32229E-02-1.74056E-01
 -1      1982-1.70365E-02-2.05056E-03-3.44949E-01
 -1      1983-1.70536E-02-7.46120E-03-1.71483E-01
 -1      1984-1.58098E-02-8.75693E-03-2.28837E-01
 -1      1985 2.17146E-02 1.13573E-02-2.48767E-01
 -1      1986-1.63813E-02 6.33624E-03-2.83615E-01
 -1      1987-7.23139E-03 2.24063E-02-1.67633E-01
 -1      1988 2.34159E-02-4.24680E-03-3.54604E-01
 -1      1989 2.44486E-02-3.21558E-03-2.31539E-01
 -1      1990 2.13651E-02-5.02574E-03-4.01401E-01
 -1      1991 1.73481E-03 1.67308E-02-2.12680E-01
 -1      1992-1.91660E-02 1.54632E-02-2.23483E-01
 -1      1993 4.29155E-03-1.73617E-02-3.24655E-01
 -1      1994-4.61925E-03 2.25205E-02-3.54259E-01
 -1      1995 1.28285E-02 9.74078E-03-2.44797E-01
 -1      1996-1.78180E-02-1.75154E-03-1.57215E-01
 -1      1997 1.50476E-02 9.09826E-03-1.74859E-01
 -1      1998-3.52897E-03 1.75704E-02-3.17274E-01
 -1      1999 8.53797E-03-1.53870E-02-2.00738E-01
 -1      2000 1.70761E-02-5.76364E-03-1.45114E-01
 -1      2001-1.85115E-02-1.53025E-02-1.62306E-01
 -1      2002 1.35291E-02-1.04585E-02-2.94464E-01
 -1      2003-2.42021E-02 7.32276E-03-2.62429E-01
 -1      2004-2.05540E-02-1.24680E-02-3.65270E-01
 -1      2005-9.63112E-03-1.47820E-02-3.27763E-01
 -1      2006 2.22175E-02-9.27130E-03-2.01048E-01
 -1      2007-1.77291E-02 5.25612E-03-1.84835E-01
 -1      2008 3.24816E-03-2.03286E-02-1.28617E-01
 -1      2009-1.27987E-03 1.77315E-02-1.55002E-01
 -1      2010 6.44773E-03 2.33362E-02-2.33209E-01
 -1      2011 2.46626E-02 2.53231E-03-2.63609E-01
 -1      2012 1.68851E-02-5.74053E-03-1.84378E-01
 -1      2013-1.82861E-02-4.03890E-03-1.72097E-01
 -1      2014 2.15461E-02-1.11891E-02-2.80815E-01
 -1      2015-1.99040E-03 1.78352E-02-2.24082E-01
 -1      2016 1.36382E-02 9.26618E-03-3.19988E-01
 -1      2017-1.44509E-02 1.04753E-02-1.51966E-01
 -1      2018-4.09116E-03-2.35227E-02-3.74892E-01
 -1      2019-6.78911E-03 2.08495E-02-3.95585E-01
 -1      2020-2.25924E-02 7.58146E-03-1.72423E-01
 -1      2021 1.52074E-02-8.46467E-03-2.23834E-01
 -1      2022-1.86607E-02 2.55134E-03-1.45503E-01
 -1      2023 1.54898E-02-1.68790E-02-1.87414E-01
 -1      2024-8.53247E-03-1.55960E-02-1.54441E-01
 -1      2025-8.16543E-03-1.53977E-02-1.93589E-01
 -1      2026 1.87059E-02-1.53735E-02-2.42460E-01
 -1      2027-1.00924E-02-2.23668E-02-3.27034E-01
 -1      2028 1.91407E-02 1.14245E-02-3.84601E-01
 -1      2029-5.56303E-03-2.39503E-02-1.85878E-01
 -1      2030-2.01699E-03-1.67164E-02-1.52110E-01
 -1      2031 1.93486E-02 1.38356E-02-3.27266E-01
 -1      2032 1.49094E-02-9.22203E-03-1.61726E-01
 -1      2033 1.68121E-02 4.02291E-03-1.60981E-01
 -1      2034-2.32867E-02-5.10968E-03-3.78666E-01
 -1      2035-7.45993E-03 1.53204E-02-1.45468E-01
 -1      2036-1.42824E-02 7.74324E-03-1.59252E-01
 -1      2037 4.15406E-03 2.38502E-02-1.87942E-01
 -1      2038 1.63183E-02 1.86295E-02-2.09007E-01
 -1      2039-1.77213E-02 1.56440E-02-3.57576E-01
 -1      2040-1.20265E-02-2.06916E-02-3.64822E-01
 -1      2041 1.64673E-02 1.13181E-03-2.24984E-01
 -1      2042-2.47794E-02-2.88963E-03-2.83218E-01
 -1      2043-8.71991E-03-2.34856E-02-2.35502E-01
 -1      2044-5.50672E-03-1.66722E-02-1.52173E-01
 -1      2045 2.24082E-03-2.37157E-02-1.93005E-01
 -1      2046 7.17842E-03 1.43919E-02-1.44093E-01
 -1      2047 8.81303E-03-1.65750E-02-4.43466E-01
 -1      2048 9.66301E-03 1.27435E-02-1.45563E-01
 -1      2049-2.29073E-02-9.77787E-04-3.60314E-01
 -1      2050 1.98639E-02 2.69826E-03-4.29855E-01
 -1      2051 1.61530E-03 1.72780E-02-1.47309E-01
 -1      2052-9.22118E-03 1.45227E-02-3.10149E-01
 -1      2053 1.45885E-02 1.75371E-02-1.45133E-01
 -1      2054-1.21818E-02-1.35092E-02-1.72681E-01
 -1      2055-2.19477E-02 3.44982E-03-1.51522E-01
 -1      2056-1.50860E-02-8.76147E-03-3.23757E-01
 -1      2057 1.03778E-02-1.56624E-02-1.36893E-01
 -1      2058-1.74525E-02 5.54787E-03-1.45220E-01
 -1      2059 1.82209E-02-2.39360E-03-1.71003E-01
 -3
    1PSTEP                         2           1           1          
  100CL  101 1.000000000        2059                     0    1           1
 -4  STRESS      6    1
 -5  SXX         1    4    1    1
 -5  SYY         1    4    2    2
 -5  SZZ         1    4    3    3
 -5  SXY         1    4    1    2
 -5  SYZ         1    4    2    3
 -5  SZX         1    4    3    1
 -1         1 3.13184E+01 2.26654E+01 2.27272E+01-1.24876E+00-5.73234E-01 1.19147E+01
 -1         2-5.74688E+00-2.25197E+00 5.33170E-01 2.81928E-01-3.46107E-01-9.76517E+00
 -1         3 3.67150E+01 4.79605E+01 3.56484E+01 3.72626E+00-1.19990E+01-2.78584E+00
 -1         4 5.55782E-01 8.35008E-01-7.87763E-01-7.16668E-01-1.09312E+01-1.03863E+00
 -1         5 9.06328E+00 8.24306E+00 1.20441E+01-4.06826E-02 5.32140E+00 4.60439E+00
 -1         6 3.09177E+01 2.86348E+01 2.50716E+01 5.24654E+00 7.01000E+00 9.56651E+00
 -1         7 4.21479E+00 8.97556E+00 7.10007E+00 7.76958E-01 5.06047E+00-4.16119E+00
 -1         8 1.21001E+01 1.29806E+01 1.59058E+01 2.47603E-02 7.93201E+00-1.36960E+00
 -1         9-7.58616E+00-1.19564E+01-3.48468E+00 2.21353E+00 8.53365E+00-4.02392E+00
 -1        10-5.19992E+01-3.82472E+01-3.79937E+01-1.92312E+00 1.88919E+00 1.14633E+01
 -1        11-3.64535E+01-2.82443E+01-2.72378E+01 3.13168E+00-5.44332E+00 1.29935E+01
 -1        12 1.16278E+01 1.02302E+01 1.23603E+01-7.93932E-01-5.28519E+00 4.85072E+00
 -1        13-1.39166E+01-1.26716E+01-7.46514E+00 2.79610E+00-8.14204E+00 6.13478E+00
 -1        14 6.05537E+00 6.43781E+00 7.00709E+00-4.25404E-01 7.95958E+00 2.07584E+00
 -1        15 1.46721E+00 3.26593E+00 3.40360E+00-1.99905E+00-7.75022E+00-1.55440E+00
 -1        16-2.97092E+01-3.70295E+01-2.80970E+01-3.79682E+00-1.06910E+01-4.39930E+00
 -1        17-1.05311E+01-1.87605E+01-8.30352E+00-1.15490E+00-8.35996E+00-7.73440E+00
 -1        18 9.44540E+00 8.45082E+00 1.12616E+01-2.16341E-01 5.71436E+00-4.91170E+00
 -1        19-3.79139E+01-2.93643E+01-2.83241E+01-3.40354E+00-3.57093E+00-1.28924E+01
 -1        20-3.13148E+01-2.95970E+01-2.56438E+01-4.84809E+00-7.71228E+00-1.14916E+01
 -1        21-2.54751E+01-2.10207E+01-1.95747E+01 2.97090E+00 4.84395E+00-1.17709E+01
 -1        22-5.73443E+00-6.58830E+00-6.89946E+00-4.70621E+00-1.45911E+00-9.68829E+00
 -1        23-3.77759E+01-2.72504E+01-2.73761E+01 1.75060E+00 2.69189E+00-1.44482E+01
 -1        24 5.11420E+00 3.81436E+00 2.38014E+00 1.18149E+00 3.81836E+00 9.84317E+00
 -1        25-9.53255E-01 1.34593E+00 7.86225E+00-1.34552E+00 2.24547E+00 4.48614E+00
 -1        26-9.04119E+00-3.95899E+00 4.68164E-01-1.97104E+00 4.19566E+00 7.73394E+00
 -1        27-2.27814E+01-2.52361E+01-2.02154E+01-3.59685E+00 8.53808E+00 5.72115E+00
 -1        28 7.79084E+00 6.95436E+00 1.05883E+01 2.27323E-01 6.17988E+00 2.43210E+00
 -1        29-8.86649E-01 8.14177E-02-4.14059E+00 9.50069E-01 5.49414E+00 3.48557E+00
 -1        30-1.35134E+01-1.37369E+01-1.40318E+01 1.55599E+00 5.37932E+00-8.03032E+00
 -1        31-3.53684E+01-3.25382E+01-2.85887E+01 5.22312E+00 7.59694E+00-1.14126E+01
 -1        32 3.23881E+01 3.23028E+01 2.72348E+01-5.11078E+00 8.89157E+00-8.85656E+00
 -1        33-1.70035E+02-1.38656E+02-4.42185E+01 6.85352E+01 2.01764E+00 7.99436E+01
 -1        34 2.20062E+00-6.19916E-01-1.80929E+00 2.07431E-01 3.85082E+00-7.67371E+00
 -1        35-1.85084E+02-1.12404E+02-3.71944E+01-1.03895E+02-3.39313E+01-9.49169E+00
 -1        36-1.50218E+02-3.63049E+01-2.38309E+01 1.23584E+01 3.79188E+01 1.62841E+01
 -1        37-9.73105E+01-4.57289E+01-2.24157E+01 2.65157E+01 2.45052E+01-7.85939E+00
 -1        38 2.83510E+01 3.21168E+01 2.54570E+01-4.39034E+00 8.75891E+00-5.81653E+00
 -1        39-6.53220E+00-3.28204E+00-1.72381E+00-1.43696E+00 4.21425E+00 1.11503E-02
 -1        40 1.78636E+00 3.13466E+00-6.66199E-01-1.32184E+00 7.15555E+00-2.36324E+00
 -1        41-1.54743E+02-8.22305E+01-2.96090E+01-2.24048E+01 1.42754E+01 1.00247E+01
 -1        42-2.73974E+01 9.89507E+00 7.69770E-01 1.85911E+01 5.67281E+00 1.58338E+00
 -1        43-2.05077E+01 3.55172E+00 4.41972E+00 1.92968E+01 1.02930E+01-2.81762E+00
 -1        44-5.35996E+00-1.09765E+01-1.79160E+00 2.82189E+00-6.09758E-01-7.76462E+00
 -1        45 1.78928E+01-2.39475E+01-1.42215E+00-1.04464E+00 8.84167E+00-1.52102E+01
 -1        46-4.06651E+00-4.30920E+00-8.89613E+00-4.07953E-01 2.21495E+00-7.71201E+00
 -1        47-1.28378E+00-3.68771E+00-5.12387E+00-1.74909E+00 3.36726E+00-6.92412E+00
 -1        48 4.73967E+00 1.74860E-01-1.05521E+00 1.15133E+00-3.17317E+00-6.00152E+00
 -1        49-3.64646E+00-2.07166E+01-1.66953E+00 4.43789E+00-7.29174E+00-1.89533E+01
 -1        50 2.94407E+01 3.95165E+01 2.90310E+01 2.07278E+00 1.45903E+01 2.90933E+00
 -1        51-2.00034E+00-3.13725E+01-7.19574E+00 5.09170E+00 8.92392E+00 4.87877E+00
 -1        52-1.03808E+01-2.01189E+01-1.24308E+01-1.03201E+01 2.13374E+01 4.99326E+00
 -1        53 6.28508E+00 7.72018E+00 6.08963E+00-4.07432E+00 1.08795E+01-1.85702E-01
 -1        54-1.41528E+02-6.40039E+01-2.09810E+01 1.44049E+01 8.55405E+00 6.76333E+00
 -1        55 2.56052E+01 3.43687E+01 2.52490E+01-1.80260E+00 1.16363E+01-2.33823E+00
 -1        56-8.25200E+00 4.53991E+00-2.48670E+00-6.23558E+00 7.35884E+00 3.57007E+00
 -1        57 2.92207E+01 2.76151E+01 2.39279E+01 4.49327E+00 7.89235E+00 7.86089E+00
 -1        58 2.40151E+01 2.91087E+01 2.23651E+01 3.38506E+00 9.76418E+00 4.06714E+00
 -1        59-2.17556E+01-3.90280E+01-1.26448E+00 2.37862E+01-5.57452E+00 6.71676E+00
 -1        60-1.33812E+01-9.41909E+00-7.14631E+00-6.12979E+00-1.55509E+01 2.43259E+01
 -1        61-3.68021E+01-1.27584E+02-2.42578E+01 6.31162E+01 4.16939E+00-4.92800E+00
 -1        62-5.25923E+01-1.67962E+02-2.26642E+01-2.00846E+01-2.18503E+00-3.10683E+01
 -1        63 7.28094E+00 2.01259E+00 1.96213E+00-1.48986E+00 6.61707E-01 6.79852E+00
 -1        64 2.23913E+01-1.15468E+01-5.98874E+00-7.13006E+00-2.04708E+00 1.27898E+01
 -1        65 5.20606E+00-8.63701E+00-2.97395E+00 3.02511E+01-7.24919E+00 1.90947E+01
 -1        66-1.19440E+02-8.30589E+01-8.78815E+00-9.06059E+01 5.92747E+00-1.78959E+01
 -1        67-6.66319E+01-1.33467E+02-3.19473E+01-4.26512E+01-2.09128E+01-2.89337E+01
 -1        68 4.72471E+00 1.02042E+01 4.97718E+00-1.22403E+00-8.13855E+00 5.81988E+00
 -1        69-1.45005E+01-5.57060E+00-9.58039E+00-1.51024E+00-9.99204E+00 1.00271E+01
 -1        70-1.41363E+00 1.40845E+00-6.03612E+00-6.84550E-01-1.00385E+01 4.30546E+00
 -1        71-1.81965E+02-2.27663E+01-2.67448E+01-8.53921E+00 3.17301E+01-8.59755E+00
 -1        72-1.24631E+02-9.47398E+00-1.64456E+01 1.88752E+01 9.66622E-01 2.42416E+01
 -1        73-1.61046E+01-1.14079E+01-1.74626E+00-7.73813E+00-1.16441E+01-6.26686E-01
 -1        74 1.98547E+01 2.73198E+01 1.98605E+01-1.39467E+00-1.53179E+01-3.16525E-02
 -1        75-7.98422E+00 4.10063E+01-2.37005E+00 1.95223E+01 3.64263E+00-3.82401E+00
 -1        76-7.03201E+00-1.06241E+01-8.01587E+00-6.58745E+00 9.63036E+00 3.34887E-01
 -1        77-3.46960E+00-3.88564E-01 3.12920E+00-4.33360E-01-6.54788E-01 6.54336E+00
 -1        78 2.61627E+01 1.94222E+01 1.91912E+01-1.27337E+00-2.46172E+00 1.24311E+01
 -1        79-7.25781E+00-4.29041E+00-3.33628E+00-2.24650E-02-2.23791E+00 7.44818E+00
 -1        80 2.14854E+01 2.93892E+01 2.14182E+01-9.63505E-01-1.27675E+01 2.54709E+00
 -1        81-6.86455E+00-9.39527E+00-2.56914E+00 2.34186E+00-7.87681E+00 3.26617E+00
 -1        82 5.97667E+00 8.95609E-01 1.65679E+00 3.22626E+00-5.12093E+00-5.64955E+00
 -1        83-2.62411E+00-4.42940E+00-5.08651E+00-7.17048E-01-1.64470E+00-8.85980E+00
 -1        84 9.10409E+00 6.70482E+00 6.98512E+00 1.38154E+00-5.77621E-01-1.12571E+01
 -1        85 1.54337E+01 8.10241E+00 8.46435E+00-6.61890E+00-4.67179E-01-9.47717E+00
 -1        86-3.66696E-02-2.55631E+00 3.14687E+00 7.74815E-01-6.45147E+00 1.84034E+00
 -1        87 3.44405E+01 3.25957E+01 2.82222E+01-5.29958E+00-8.30631E+00 8.27326E+00
 -1        88-1.03233E-01 1.14873E+00-4.18582E-02-3.13711E-01-5.07913E+00-2.71636E+00
 -1        89 5.38357E+00 4.04161E+00 9.21265E+00-1.13128E+00-7.25375E+00-7.22293E+00
 -1        90 2.29936E+01 2.28639E+01 1.93060E+01 3.62251E+00-1.05323E+01-1.05739E+01
 -1        91 2.90413E+00 7.54690E+00 3.32103E+00-1.75781E+00-7.86419E+00 9.95936E+00
 -1        92-1.34608E+01-4.11449E+00-1.03006E+01-6.14359E-01-6.79505E+00 8.57772E+00
 -1        93 2.63992E+00 1.04113E+00-1.55572E+00-8.60092E-01-4.89582E+00 6.06687E+00
 -1        94-1.52678E+02-3.72462E+02 3.08615E+00 9.93344E+00-1.74244E+01-2.84862E+01
 -1        95 5.83959E+01-4.52490E+01-1.45762E+01-2.66932E+01 1.38573E+00 1.10744E+01
 -1        96-1.39616E+02-3.16555E+02-3.03566E+01-5.92890E+01-1.49145E+02-4.13467E+01
 -1        97 5.97032E+00-4.24316E+01-3.95250E+00 2.24980E+00-1.47902E+01-1.92229E+00
 -1        98-5.94445E+01-1.39395E+02-1.10450E+01 4.28255E+00-6.95524E-01-7.98843E+00
 -1        99 1.23116E+01-7.67645E+00 4.24854E-01-4.46365E+00 7.65828E+00 7.91737E-01
 -1       100-8.35598E+00-6.39758E+01-6.80194E+00 7.51954E+01-5.12725E+01-1.15778E+01
 -1       101-4.33397E+01-1.68633E+01-3.66815E+01 6.95654E+01 3.09308E+00 6.85048E+01
 -1       102-1.04096E+02-3.85377E+02-3.64565E+01 8.97374E+01-1.80513E+01-3.30638E+01
 -1       103-7.72236E+01-3.86281E+02-5.83617E+01 2.13322E+02 1.64410E+02-6.90838E+01
 -1       104-2.39932E+01-8.60126E+01-6.09268E+00 1.31777E+01-2.85399E+01 6.78842E+00
 -1       105-1.23865E+02-6.58394E+01 2.57768E+01 3.40488E+01 4.93901E+01 5.89070E+00
 -1       106-1.43207E+02-1.14211E+02-1.16292E+00 4.28796E+01 1.34325E+01 1.88892E+01
 -1       107-2.29886E+02-1.32723E+02-1.72146E+01 1.12034E+02 7.44046E+01-7.04711E+01
 -1       108-6.86220E+01-1.08945E+02-7.09100E+00 3.42770E+01-1.38877E+01 1.81772E+01
 -1       109-2.95160E+02-4.16591E+02-3.98573E+01 2.12681E+02-8.03577E+01-1.37369E+01
 -1       110-8.49344E+01-6.58915E+01-1.28337E+01 1.49415E+02-9.70546E+00 8.25514E+01
 -1       111-6.65258E+00-1.08319E+02-3.16891E+01-1.60814E+01 6.34504E+01 2.94634E+01
 -1       112-9.92585E+00-8.34165E+01 1.04769E+01 8.39258E+00 1.54712E+01-5.56478E+00
 -1       113-4.67888E+02-2.48594E+02-1.09608E+02 2.12109E+01-2.23772E+02-9.33910E+01
 -1       114-4.61399E+02-2.89542E+02-1.88162E+02 2.10826E+02-3.00262E+02 1.29175E+02
 -1       115-1.59770E+02-9.77858E+01-6.43609E+01 8.23166E+01-4.31862E+01 8.33710E-01
 -1       116 1.45560E+00-2.16947E+01-5.80534E+00-3.48676E+00 1.34603E+01 1.00410E+01
 -1       117-2.39875E+01-7.77655E+01-1.75318E+01-3.03605E+01 3.98341E+01 1.27688E+01
 -1       118-4.43935E+01-7.88399E-01-1.42914E+00-3.95743E+01 4.97201E+00 2.41033E+01
 -1       119-2.43065E+02-9.00016E+01-1.87767E+00 4.90100E+01-3.48336E+01-6.50328E+01
 -1       120-4.94550E+02 3.03088E+01-1.70419E+01 8.78280E+01-4.43489E+01 8.86386E+01
 -1       121-4.47497E+02-2.72221E+02-1.22834E+02-2.68062E+02-1.80531E+02-2.01665E+02
 -1       122-2.03193E+01-2.79459E+01 5.65714E+00-1.14054E+01 1.30866E+01 2.57711E+00
 -1       123-2.81794E+01-5.17024E+01-1.24725E+01-9.26658E+00 4.33826E+01-7.98633E+00
 -1       124-4.25150E+02-2.57687E+02-5.12211E+01-1.16866E+02-7.56012E+01 2.04583E+01
 -1       125-1.02463E+02-4.52515E+01 9.88230E-01-2.13513E+01 7.27111E+00 3.89652E+01
 -1       126 1.29325E+01-4.36228E+01-2.16986E+01-3.31950E+01 2.51318E+01-1.99915E+01
 -1       127-4.30162E+00-3.41097E+01-2.44202E+01-2.32211E+01 1.21112E+01-2.97020E+01
 -1       128 7.44417E+00-1.12303E+01-9.43381E+00-1.87382E+01 5.44335E+00-5.10492E-01
 -1       129 5.06293E+00-5.16913E+00-1.56728E+00-7.24351E+00 6.88535E+00 1.54240E+00
 -1       130-3.18102E+02-2.29657E+02-1.03337E+01-2.20609E+02-5.68752E+00-2.80515E+01
 -1       131-1.66520E+02-3.43198E+02-1.68536E+02-3.89463E+02-2.33632E+02-2.05939E+02
 -1       132-7.48653E+01-4.33115E+01 1.76065E+01-4.16525E+01 2.25776E+01 3.00922E+01
 -1       133-8.09703E+01-1.40140E+02-2.68668E+01-1.30661E+02-3.96450E+01-8.97680E+00
 -1       134-6.68643E+01-5.47407E+02-4.64640E+01-2.20142E+02 5.37219E+01 1.47903E+02
 -1       135 8.01141E+00-1.55168E+01 3.63602E-01-7.20280E-01 7.28544E+00-7.01812E+00
 -1       136 2.33570E+01-9.27663E+01 1.33470E+00-3.52772E+00 2.04024E+01 9.63160E+00
 -1       137-1.09176E+01-6.95008E+01-2.55231E+01-3.14519E+01 2.62504E+01 6.74658E+00
 -1       138 8.72987E+00-6.76148E+01-3.63247E+00 1.44783E+01 4.78315E-01-2.49288E+00
 -1       139-1.44357E+02-3.86758E+02-1.95196E+00-4.89526E+00-7.56179E+01 6.15325E+01
 -1       140-1.44320E+01-2.47342E+01-2.85076E+00 2.97878E+00 1.32390E+00-6.41420E+00
 -1       141-1.78652E+02-4.13662E+02-4.89153E+01-8.99445E+01-2.10029E+00 9.87346E+01
 -1       142-3.50133E+01-1.00894E+02-3.37483E+00-1.97149E+01 3.54379E+01 8.91015E+00
 -1       143-1.76922E+01-2.20178E+01-3.13460E+00 9.29697E+00-3.02381E+00-4.84167E+00
 -1       144-1.91176E+02-4.49112E+02-1.59380E+02-3.21619E+00-1.98132E+02 1.29767E+02
 -1       145-5.97308E+01-1.75676E+02-4.29097E+01 1.04620E+01-1.45481E+01 2.45530E+01
 -1       146-3.80243E+02-2.51987E+02-2.18376E+01 1.02274E+02 7.21541E+01 6.09691E+01
 -1       147-4.27383E+01-4.70242E+01-1.14167E+01 5.21272E+00 5.65761E+00-1.31493E+01
 -1       148-3.74844E+01-7.66127E+01-6.16373E+00 8.89221E+00-3.41918E+00-9.84121E+00
 -1       149-3.59873E+02-3.68488E+02-8.34861E+01 2.94753E+02-6.97220E+01 2.13478E+02
 -1       150-1.71630E+02-4.45436E+02 2.13156E+01 1.52717E+02 2.43201E+00-2.36702E+01
 -1       151-3.63603E+02-3.69488E+02-8.33516E+01 1.88316E+02-1.35467E+02 1.76774E+02
 -1       152-6.53052E+01 1.40498E+01 4.94641E+00 5.06689E+01 2.03391E+01-4.59975E+00
 -1       153-4.83176E+01-9.60761E+01 8.04312E+00 3.50336E+01 3.28691E+01-3.20352E+01
 -1       154-5.85467E+01-1.10485E+01-1.18241E+00 2.72657E+01-3.70846E+00 9.89006E+00
 -1       155-4.29483E+02-1.67621E+02-4.22355E+01 1.05622E+02 8.93345E+01 1.58767E+01
 -1       156-1.94028E+00 5.64211E+01-8.27898E+00 3.16625E+01 1.96163E+01-8.52340E+00
 -1       157-9.05962E+01 2.69964E+02-3.69025E+00 1.36779E+02 1.37023E+01-5.44753E+01
 -1       158-6.59006E+01 1.05347E+02 3.17706E+01 2.33902E+01-4.48447E+01 1.67632E-01
 -1       159-3.15175E+02-1.19716E+02-1.63612E+01-1.57365E+00 7.24207E+00 9.95211E+01
 -1       160-3.14641E+02-1.62294E+02-5.58108E+01-8.71603E+01 5.83762E+01 1.18790E+02
 -1       161-1.77028E+02-4.87038E+01-2.51858E+01 1.57755E+01-4.13266E+00-1.03352E+01
 -1       162-6.22812E+01-1.13546E+01-6.70210E+00-9.64025E+00-2.53243E+01-2.72919E+00
 -1       163-6.36180E+02-8.31151E+01-2.25271E+01 3.92499E+00 3.01109E+01 7.58860E-01
 -1       164-4.68489E+01-3.97609E+01-2.33492E+01-3.65079E+01-2.95366E+01-3.14517E+01
 -1       165-1.98322E+02-6.42694E+01-4.17802E+01-6.70224E+01 4.15503E+01 2.38322E+01
 -1       166-1.04496E+01-2.16035E+01-1.76494E+00-4.32133E+00-2.63185E+01 1.73180E+01
 -1       167-4.33894E+02-1.18374E+02-1.61491E+01 8.86642E+00-5.50266E+00-1.65237E+02
 -1       168 2.40489E-01-1.07412E+00-2.93963E-01-3.59118E+00-4.75144E+00-1.53622E+00
 -1       169-4.86688E+01-3.36007E+01-2.01401E+01 1.02849E+01-4.21869E+01 5.73511E+01
 -1       170-6.74778E+02-1.96649E+02-5.40474E+01-2.24135E+02 1.17359E+02 2.62509E-01
 -1       171-3.41171E+02-2.20914E+02-2.62891E+01-2.40012E+02-2.51662E+01-5.54827E+01
 -1       172 8.04343E+01-1.73455E+01 2.73144E+00-7.25382E+01 1.51845E+01-1.88383E+01
 -1       173-2.05975E+02-2.28580E+02-5.41274E+01-1.63293E+02 1.10575E+02 7.14484E+01
 -1       174 1.31991E+01-5.15512E+00 1.34274E+00-1.37897E+01-2.58612E-01 2.43395E+00
 -1       175 1.31572E+02 2.79828E+01 2.40299E+01-1.41192E+02 4.58518E+01-4.76180E+01
 -1       176-1.71360E+02-3.92515E+02-1.29284E+01-4.56463E+01 1.16836E+02-3.06561E+00
 -1       177-7.66576E+01-4.35070E+01 3.84626E+00 6.85063E+00 4.48141E+00 1.99537E+01
 -1       178-2.27566E+02-5.45794E+02-5.12834E+01-1.80689E+02-6.88957E+00-1.24295E+02
 -1       179-7.92824E+01-6.96771E+01-2.73757E+01 1.07045E+01-3.68901E+01 4.97523E+01
 -1       180-1.48298E+01-1.37211E+01-9.92071E+00-8.73527E-01-1.89409E+01 2.00749E+01
 -1       181-4.04586E+01-1.17272E+02-7.16074E+00 2.79649E+01 5.50816E+01 2.41397E+00
 -1       182 4.88241E+00-1.20342E+01 8.67508E+00 6.67010E+00 1.64785E+00-2.54759E+00
 -1       183-3.26443E+00-1.10766E+01-6.34891E+00 1.32199E+01-1.94352E+00 5.26608E+00
 -1       184-1.43224E+02-4.41120E+01-2.35002E+01 1.53007E+01-7.62620E+00-6.26890E+01
 -1       185-8.19733E+00-8.34483E+00-7.29220E+00-2.16028E+00 8.54954E+00 8.31892E-02
 -1       186-2.91149E+01-1.37848E+02-1.43760E+01-2.42323E+01-1.11082E+01 1.26737E+01
 -1       187-7.52661E+01-6.91387E+01-3.79861E+01 4.45879E+01-3.15113E+01 2.78443E+01
 -1       188-4.87970E+00-2.02088E+01 1.76548E+00 6.88646E-01-6.23670E+00-9.83357E+00
 -1       189-1.25320E+02-1.04267E+02-1.98000E+01 5.69632E+01 1.60477E+00 1.31018E+01
 -1       190-1.50539E+01 7.56699E-01-4.61360E+00 2.12055E+00-1.92426E+00 9.85067E+00
 -1       191 2.55047E+01-3.02303E-01 6.22114E+00-2.81329E+01 2.68847E+00-6.18268E+00
 -1       192-6.78036E+01-2.44288E+01 6.44146E+00-3.58780E+01-3.51716E+01-2.70450E+01
 -1       193 3.60833E+01 2.52743E+01 2.58316E+01-5.06782E-01 9.69304E-01 1.41095E+01
 -1       194 7.39298E-01 1.33993E+00 3.55502E+00 1.56219E+00 5.82112E-01 9.18525E+00
 -1       195-1.00662E+01-6.82727E+00-6.70751E+00-1.60517E+00 1.22595E+00-1.22545E+01
 -1       196 8.18145E+00 4.29997E+00 1.38329E+00-1.78631E+00 4.24945E-01-1.01305E+01
 -1       197-7.46646E+00-8.52622E+00-9.06859E+00-3.07848E-01 7.12614E+00 5.18262E-01
 -1       198-3.45279E+01-4.73645E+01-3.44767E+01-8.94660E-01 1.42703E+01 1.40540E+00
 -1       199-5.61301E+00-5.05717E+00-5.77234E+00-7.35611E-01-1.14352E+01-1.47237E+00
 -1       200-1.16495E+01-1.39022E+01-1.15650E+01-1.06914E+00-1.17437E+01-1.10622E+00
 -1       201 2.89425E+01 3.00684E+01 2.48436E+01 4.86521E+00 6.70689E+00 8.17256E+00
 -1       202-6.15146E-01 1.01222E+00 8.68695E+00-2.37977E+00 2.93062E+00 5.47147E+00
 -1       203 5.56024E+00 3.73412E+00 4.10122E+00-1.86088E+00 7.52222E+00-6.23952E+00
 -1       204-9.66058E+00-1.55078E+01-1.08114E+01 4.69817E-01 7.55560E+00-6.84973E+00
 -1       205 1.62508E+01 2.11524E+01 1.57467E+01-1.65070E+00 1.21474E+01-3.68492E+00
 -1       206-9.24302E-01-4.65612E+00 4.53702E+00 1.67329E+00 8.28604E+00-2.07335E+00
 -1       207-3.26833E+01-1.95763E+01-2.11941E+01-6.82618E+00 1.89930E-01 9.93134E+00
 -1       208-3.19687E+01-2.40175E+01-2.35702E+01 2.01111E+00-4.64291E+00 1.53054E+01
 -1       209-7.63908E+00-7.42980E+00-5.15287E+00-2.59720E+00 4.25845E+00 1.28343E+01
 -1       210-1.26772E+01-5.08563E+00-6.22769E+00-8.47945E-01-5.04045E+00 8.95227E+00
 -1       211-1.42491E+01-1.51863E+01-1.27865E+01-2.91864E+00 4.89877E+00 1.20458E+01
 -1       212-2.42587E+00-3.89386E+00 5.32045E-01 1.61717E+00-5.69183E+00 9.09372E+00
 -1       213-3.41872E+01-3.79621E+01-3.03748E+01 5.43601E+00-8.84646E+00 7.25993E+00
 -1       214-2.83450E+01-2.91940E+01-2.42239E+01-4.55022E+00 9.61333E+00 7.88927E+00
 -1       215-5.13462E+00-7.58392E+00-5.47941E+00 6.66668E-01-1.13554E+01 5.99300E+00
 -1       216-7.85204E+00-1.31309E+01-4.11782E+00-2.04910E+00 6.29396E+00 4.15449E+00
 -1       217-2.01150E+01-2.52084E+01-1.90812E+01 2.63335E+00-1.29998E+01 3.94352E+00
 -1       218-1.35190E+01-1.31381E+01-1.14723E+01-3.36546E+00 1.12696E+01 3.16443E+00
 -1       219-2.88768E+01-3.92559E+01-2.86839E+01 1.49998E+00-1.32546E+01 1.30537E+00
 -1       220-2.95499E+01-4.03292E+01-2.94191E+01 1.20122E+00 1.47877E+01-1.45636E+00
 -1       221 5.54317E+00 5.43433E+00 6.92377E+00-7.01828E-01-7.42122E+00-3.67925E+00
 -1       222 1.33698E+01 1.42192E+01 1.50418E+01 1.11648E+00-7.52001E+00-4.59846E+00
 -1       223-3.54620E+01-4.25358E+01-3.28371E+01 4.96697E+00 1.08460E+01-5.75914E+00
 -1       224 1.09271E+01 9.88398E+00 1.03742E+01 2.68810E-01-6.88697E+00-4.97215E+00
 -1       225-7.15224E+00-6.42194E+00 1.46265E+00-3.22959E+00-5.73723E+00-8.80439E+00
 -1       226 7.16641E-01-6.35150E+00-2.00593E+00 1.24547E+00 8.93180E+00-1.06585E+01
 -1       227 7.95971E+00 6.06582E+00 9.45148E+00-5.63863E-01-5.62980E+00-9.74891E+00
 -1       228 1.50340E+00-4.37436E+00-1.96970E+00 2.59499E+00 5.68782E+00-1.11328E+01
 -1       229-3.71421E+01-2.86401E+01-2.76943E+01-2.99191E+00-3.30394E+00-1.08915E+01
 -1       230 3.89734E+00 3.86993E+00 4.38756E+00 3.24645E-01 2.82556E+00-6.88283E+00
 -1       231-3.87355E+01-2.82019E+01-2.81806E+01-4.81443E-01-1.57568E+00-1.27416E+01
 -1       232 1.53479E+01 9.57912E+00 1.00818E+01 7.31311E-01 3.89748E+00 1.00658E+01
 -1       233 4.40761E+00-8.78615E-01-2.46007E+00-1.09138E+00 4.98420E+00 1.06905E+01
 -1       234 1.95915E+00 2.26226E+00-3.94523E+00 2.58892E+00 6.64452E+00 2.24804E+00
 -1       235-2.74701E+00 2.56949E+00-4.11935E-01-2.95832E+00 1.06487E+01 2.87214E+00
 -1       236 3.74630E+00 3.61083E+00-8.81567E-01 2.49704E+00 3.24129E+00 3.10931E+00
 -1       237 2.09243E+01 8.71684E+00 1.16272E+01 1.90312E+00 5.48428E+00-1.11379E+01
 -1       238 2.12211E+01 1.16110E+01 1.46876E+01-1.99292E+00 7.03714E+00-7.52952E+00
 -1       239 4.27593E+01 3.25023E+01 3.16852E+01-2.29321E+00 4.23588E+00-1.41961E+01
 -1       240-5.32593E+01-1.45529E+01 9.50935E+00 2.44891E+01-1.73347E+01-1.21175E+01
 -1       241-5.99757E+01-2.15176E+01 3.73627E-01 2.19954E+01-2.09403E+00-2.11810E+01
 -1       242-4.23010E+01-1.62459E+01 4.62777E+00 1.31204E+01-5.23412E+00-2.60880E+00
 -1       243 2.44262E+01 4.74036E+01-3.76067E-01-4.23091E+01-1.40725E+00 2.00904E+01
 -1       244-1.53056E+01-6.01550E+01 3.69579E+00 1.41151E+01-1.01925E+01 7.94102E+00
 -1       245 4.03843E+00 3.51699E+00 2.88748E+00-1.15825E+00 4.06860E+00-2.40407E+00
 -1       246-7.70420E+00 5.69478E+00 1.07990E+00-8.95215E+00 3.37892E+00-1.47042E+00
 -1       247-8.70954E+00-3.44807E+01 1.76328E+01 6.16132E+00-9.34634E+00-1.80369E+01
 -1       248-7.72555E+01-3.41264E+01-7.78274E+00-1.81255E+01-4.47431E+00-1.25334E+01
 -1       249 3.30416E+01 3.96670E+01 3.06103E+01 4.69474E+00-1.18848E+01-6.35279E+00
 -1       250 3.17044E-01 2.72889E+01 1.20302E+01 5.33931E+01 1.44911E+01 5.39009E+00
 -1       251-2.34192E+01-2.39636E+01 2.22283E+01-8.11090E+00-6.66831E+00-4.09621E+00
 -1       252 4.07601E+01 4.17927E+01 3.47547E+01 6.54677E+00-1.06465E+01-8.73713E+00
 -1       253 1.02415E+01 7.70332E+00 5.45629E+00 2.32345E+00-5.86760E+00-7.02710E+00
 -1       254 2.69462E+01 2.04650E+01 1.99601E+01 2.33942E+00-7.01740E+00-1.31281E+01
 -1       255 8.81474E+00 3.06412E+00-3.86773E-01 9.47218E-01-1.19965E+00-4.47587E+00
 -1       256-7.22729E+00-9.52605E+00-1.54924E+01 4.97071E-01-1.86789E+00-7.84509E+00
 -1       257-3.29842E+01-3.03068E+01 1.58492E+01-3.06650E+01 2.30681E+00-6.16068E+01
 -1       258-7.00363E+00-5.57333E+00 1.86496E+01 1.09885E+01-1.73345E+01-3.90799E+00
 -1       259-2.03323E+01-4.00349E+01 3.35276E+00-3.69662E+00-1.38987E+01-1.05875E+00
 -1       260-2.21505E+01-5.74275E+01 3.44835E+01 1.22226E+01 4.99894E+01-1.28114E+01
 -1       261 7.70330E-01-9.21105E+00 1.89696E+01-1.07740E+00-9.90920E+00-2.03528E+01
 -1       262-5.22494E+00-3.75695E+00-8.58387E+00 3.39821E-02 8.25094E+00-8.75937E-01
 -1       263-6.68261E+00-1.29148E+01-1.06469E+01-4.70565E+00 4.26343E+01 1.91716E+00
 -1       264-4.62412E+01-4.38463E+01 4.60077E+00-1.09428E+01 8.57815E+00 1.46816E+01
 -1       265 3.74756E+00-4.47251E+01-2.43373E+00 1.72617E+01-2.79411E+01-1.28154E+01
 -1       266-6.92053E+01-1.33744E+01 4.71475E+00 1.80566E+01 1.70787E-01-8.63886E+00
 -1       267-7.85104E+01-3.39760E+01 1.23264E+01 7.85023E+00 1.24303E+01 4.99683E+01
 -1       268-1.67196E+01-9.28926E+00-1.42240E+01-8.54212E+00 2.44965E+00 7.37829E+00
 -1       269-3.70434E-01-9.65293E-01-3.50031E+00-9.31659E-01-2.44998E+00 8.45692E+00
 -1       270-4.64726E+01-3.46209E+01 7.11383E+00-1.63062E+01-1.77599E+01-1.72925E+01
 -1       271-2.53196E+01-1.98841E+01 6.05367E+00 7.50045E+00 4.66653E+00 1.64383E+01
 -1       272 5.17666E+00 1.03468E+01 6.22895E+00-4.91717E+00-2.94269E+00 7.10456E+00
 -1       273 1.01936E+01 5.69351E+00 4.90002E+00-1.65737E+00-7.03975E+00 9.58567E+00
 -1       274-6.56837E+00 8.52044E+00-1.40282E+00-1.88716E+01 1.30634E+01-2.91962E+01
 -1       275-3.90972E+01 9.45580E+00-1.07629E+00 1.33406E+00-9.68652E+00 1.51684E+01
 -1       276 1.70888E+01 1.39934E+01 2.82726E+01 8.15105E+00 1.32930E+00-4.36549E+00
 -1       277 1.22190E+01-1.53897E+01-9.23214E-01 4.99990E+00 1.18377E+01 7.23144E+01
 -1       278 6.25168E+00 5.45514E+00-3.64708E-02-2.52201E+00-3.87432E+00 3.05831E+00
 -1       279 7.35107E+00 4.99597E+00 5.03656E+00-1.53591E+00-1.09147E+01 5.74660E+00
 -1       280-1.89250E+01 6.57800E+00 1.63696E+00 1.62661E+01-7.60947E+00 1.19291E+01
 -1       281-5.73275E+01-8.00518E+01 2.32287E+00 1.98944E+01-1.65240E+01 2.84791E+01
 -1       282 3.67490E+00 8.97824E+00 1.69974E+00-1.16287E-01-6.99841E+00 1.42852E+00
 -1       283-2.63736E+01-2.29293E+01-5.43397E+00 4.61679E+00-4.25631E+01 6.87292E+00
 -1       284-2.66818E+01-5.73055E+01 3.97074E+00-9.07962E-01-1.38268E+01-5.86136E+00
 -1       285-7.33316E+00-6.47653E+00-1.09219E+01-1.17559E-02-6.60973E+00 1.13399E-01
 -1       286-3.29686E+01-1.22781E+00 3.13159E+01 5.01353E-01-2.60728E+01-4.15985E+01
 -1       287 2.39252E+01 1.20942E+01-7.93050E+00 2.79531E+01-4.30327E+01 5.68759E-01
 -1       288 2.82747E+01 3.68874E+01 2.74333E+01 1.80408E+00-1.30753E+01-4.93886E+00
 -1       289-5.62262E+02-6.01776E+01 1.75318E+02 3.35787E+01-7.18213E+00-1.04328E+00
 -1       290-7.85403E+02-7.68404E+01 2.00894E+02 3.51593E+01-4.12885E+01 6.68340E+00
 -1       291-3.72601E+02-1.22839E+02 1.72186E+02-1.20354E+02-7.59802E+00-3.95708E+01
 -1       292-4.48307E+02-1.86808E+02 1.14252E+02-1.99898E+02 6.15698E+00-1.00442E+01
 -1       293-1.42260E+02-1.07572E+02 2.51648E+01-4.95013E+01 9.34052E+00 1.43072E+01
 -1       294-1.97340E+02-1.42679E+02 3.27430E+01-9.89234E+01 2.19195E+01-1.45858E+01
 -1       295-3.10043E+02-8.72549E+02 3.37194E+02-3.05666E+02 1.53824E+02 1.25691E+02
 -1       296-3.56455E+02-7.84328E+02 2.61568E+02-3.00200E+02-4.89737E+00-4.34319E+01
 -1       297-1.12261E+02-5.37259E+02 1.34672E+02-1.04455E+01-1.11548E+01 1.98741E+01
 -1       298-6.96693E+01-4.77189E+02 1.97670E+02-7.26733E+00-1.27266E+01-3.55271E+01
 -1       299-1.34415E+02-3.79157E+02 1.38282E+02 1.41407E+02-6.47289E+01 5.52370E+01
 -1       300-2.11007E+02-4.45957E+02 1.29861E+02 2.14854E+02-6.87349E+00-1.61036E+01
 -1       301-2.27122E+02-1.97785E+02 1.20304E+02 1.51137E+02-1.16916E+01-1.41521E+01
 -1       302-3.03957E+02-2.86212E+02 1.35034E+02 2.26413E+02-3.62588E+01-3.22033E+01
 -1       303-3.42399E+02-1.75348E+02 1.41219E+02 1.59377E+02 6.55230E+01-5.96528E+01
 -1       304-4.56737E+02-2.85081E+02 1.42254E+02 2.65059E+02-5.70911E+01 1.36995E+01
 -1       305-5.03922E+02-1.04460E+02 1.09786E+02 8.95685E+01 1.12641E+01-6.85071E+00
 -1       306-3.92238E+02-7.60760E+01 1.71707E+02 7.24989E+01-3.62436E+01 4.48265E+01
 -1       307-3.72979E+02-2.19641E+02 1.24360E+02-1.91708E+02-4.10131E+01-3.26418E+00
 -1       308-4.15908E+02-2.21232E+02 1.44001E+02-1.99670E+02 7.00571E+01 7.45459E+01
 -1       309-1.70611E+02-1.71583E+02 2.87240E+01-9.72784E+01-5.00637E+00-4.30153E+00
 -1       310-1.41818E+01-1.23166E+01 9.05996E+01 1.11961E+02 5.32576E+01 2.70447E+01
 -1       311-2.09887E+02-4.49060E+02 1.92921E+02-1.83147E+02 8.94639E+01 1.04959E+02
 -1       312-3.14160E+02-4.79776E+02 1.86685E+02-2.52069E+02-2.05094E+01-5.78617E+01
 -1       313-1.23021E+02-5.73478E+02 1.28481E+02-1.69014E+01-7.18989E+00 2.23302E+01
 -1       314-1.28656E+02-4.57446E+02 1.88334E+02-1.37711E+01-3.54311E+01-5.25788E+01
 -1       315-2.74058E+02-3.63739E+02 7.47956E+01 1.84702E+02-6.88925E+00 6.25967E+01
 -1       316-2.09185E+02-2.97351E+02 7.73582E+01 1.38123E+02 2.47595E+01-2.33852E+01
 -1       317-1.07105E+02 5.25766E+00 9.90692E+00 1.90344E+01-2.50759E+00 2.38060E+00
 -1       318-1.00886E+02 3.79767E+00 1.99493E+01 6.84673E+01-2.14402E+00 1.83585E+01
 -1       319-6.68399E+02-3.30683E+02 1.97099E+02 2.82702E+02 6.83126E+01 1.27831E+01
 -1       320-5.87908E+02-2.61436E+02 2.42455E+02 2.30368E+02-6.85584E+01 1.24218E+02
 -1       321-4.16396E+00-4.35348E+00-3.68784E+00 2.49018E+00 1.43774E+00 7.54967E+00
 -1       322 3.08489E+01 2.20555E+01 2.22727E+01-6.80778E-01 1.29898E+00 1.31897E+01
 -1       323-3.18325E+00 1.67377E+00 6.26261E+00 4.41859E-01 2.13553E+00-5.97885E+00
 -1       324 8.51100E+00 1.56127E+01 6.12076E+00-2.72547E-01 8.59712E+00 1.53020E+00
 -1       325 2.80727E+01 3.12225E+01 2.49632E+01-4.07525E+00 9.46143E+00-6.76085E+00
 -1       326-3.33182E+01-2.48376E+01-2.44836E+01 2.21736E+00-4.87506E+00 1.40744E+01
 -1       327-6.31436E+00-3.91692E+00-5.78432E+00-1.10159E+00 9.53994E-01 9.17236E+00
 -1       328-6.81991E+00-1.23418E+01-1.12174E+01 3.29680E+00-4.76137E+00 9.59040E+00
 -1       329-3.80371E+01-3.30302E+01-2.99193E+01-5.07950E+00 6.32769E+00 1.18378E+01
 -1       330-1.53356E+00-1.26043E+00 4.64362E+00 2.37848E+00-4.55450E+00 4.01642E+00
 -1       331-3.41872E+01-3.79621E+01-3.03748E+01 5.43601E+00-8.84646E+00 7.25993E+00
 -1       332-1.02821E+01-9.55280E+00-2.62853E+00-3.05881E+00 6.19143E+00 2.90073E+00
 -1       333-2.69761E+00-3.17598E+00-2.14951E-01 2.18950E+00-7.52338E+00 5.12944E+00
 -1       334-2.57893E+01-3.06176E+01-2.37473E+01-4.64999E+00 9.70558E+00 5.94383E+00
 -1       335 7.54232E-01-1.69141E+00 2.73233E+00 7.31063E-01-8.21733E+00 3.66771E+00
 -1       336-1.20425E+01-2.08353E+01-1.51073E+01 2.14608E+00 9.58031E+00 3.38305E+00
 -1       337-4.28439E+00-8.72281E+00 1.66784E+00-1.20431E+00 6.03117E+00 2.04074E+00
 -1       338-5.46872E+00-8.40483E+00-3.07038E+00 2.12535E+00-8.66752E+00 4.35362E-01
 -1       339-1.56843E+01-2.56599E+01-1.76056E+01-2.59682E+00-1.24293E+01 1.37258E+00
 -1       340-3.51368E+00-1.02921E+01 1.66988E+00 2.11999E+00 7.79637E+00 1.71216E-01
 -1       341-3.20813E+01-4.36054E+01-3.18641E+01 1.49429E+00 1.37998E+01-9.67146E-01
 -1       342 1.44633E+01 4.60276E+00 7.60956E+00 1.04229E+01-8.13885E+00-3.00353E+00
 -1       343-8.52586E-01-4.53128E+00 4.29300E+00-1.36486E+00-6.86407E+00-2.93736E+00
 -1       344-3.76858E+01-4.51655E+01-3.48804E+01 5.37303E+00 1.09131E+01-5.83338E+00
 -1       345-3.33083E+01-3.96268E+01-3.07057E+01 4.81883E+00 1.07571E+01-5.74998E+00
 -1       346-5.93930E+00-8.88520E+00-2.03687E+00-2.31389E+00-9.87561E+00-7.77480E+00
 -1       347-3.21394E+01-3.13402E+01-2.67249E+01-5.03367E+00-9.00417E+00-1.09719E+01
 -1       348-1.05286E+01-9.24391E+00-8.91679E+00 1.10437E+00 7.10761E+00-1.10012E+01
 -1       349-8.66476E-01 6.57946E-01 4.17839E+00 1.00679E+00 4.35230E+00-4.15107E+00
 -1       350-1.13890E+00-1.62269E+00 1.09947E+00-2.71799E+00-4.03782E+00-7.26988E+00
 -1       351-2.07265E+01-1.39422E+01-1.63723E+01 1.62842E+00 4.83421E+00-7.69098E+00
 -1       352-1.37924E+01-8.04509E+00-7.34624E+00-5.28070E-01-2.74866E+00-4.85008E+00
 -1       353 5.54234E+00 1.13839E+01 5.54068E+00-8.93895E+00 5.27827E+00-1.02550E+01
 -1       354-3.26579E+01-2.38169E+01-2.37759E+01-6.45722E-01-1.34690E+00-1.36763E+01
 -1       355-1.17603E+01-1.11768E+01-1.16993E+01-1.25649E+00 4.12104E+00 8.36336E+00
 -1       356-5.93439E+00-6.06502E+00-9.34320E+00-6.90259E-02 5.82140E+00 3.77731E+00
 -1       357 4.85697E+00 7.03278E+00 5.63947E+00 1.12448E+00 7.73396E+00 6.06121E+00
 -1       358 3.18041E+01 2.99210E+01 2.59863E+01-5.11045E+00 1.00993E+01-1.07384E+01
 -1       359 1.79226E+01 1.81589E+01 1.42657E+01-6.67754E+00 5.02430E+00-1.18291E+01
 -1       360-8.84631E+01-3.90666E+01 3.20191E+00-1.94711E+01 8.86115E-01 1.49902E+01
 -1       361-4.06050E+01-4.21150E+01 1.34825E+01 2.74848E+01 6.47556E+00-1.33075E+01
 -1       362-5.10838E+01-7.02499E+01 5.43061E+00-3.15282E+01 1.27316E+01 1.24613E+01
 -1       363-3.21312E+01-3.18197E+01-1.62743E+00-1.84316E+01-1.59648E+01-1.17167E+01
 -1       364 7.87564E+00 1.36530E+00 1.70165E+01 3.57069E+01 2.21805E+01 1.26140E+01
 -1       365-5.10899E+01-1.47291E+01 1.91548E+01-2.29626E+01-5.95557E+00 1.39032E+01
 -1       366-1.78439E+01-1.42577E+01 1.44095E+01-1.16385E+01-8.37979E+00-5.39303E+00
 -1       367 2.38466E+01 2.30010E+01 1.97228E+01 3.68937E+00-9.70411E+00-1.18248E+01
 -1       368 2.25721E+00 1.50801E+00 8.54645E-01 3.30429E-01-6.14274E+00-1.11148E+01
 -1       369-1.53782E+01-1.41694E+01-1.76189E+01 2.16000E-01-1.42940E+00-6.93177E+00
 -1       370-4.62126E+01-1.12963E+01-4.51654E+00-5.41172E+00-1.58888E+00-1.59763E+01
 -1       371-3.25131E+01-8.50084E+01-6.36721E+00 1.00965E-01-2.30483E+01-6.77493E-01
 -1       372-3.40882E+01-5.44702E+01 1.01128E+01-5.25047E+01-6.16612E+01-2.94089E+01
 -1       373 2.20773E+00-4.12654E+01 4.73401E+00 8.60806E+00 5.04102E+01 2.24183E+01
 -1       374-4.81144E-01 3.06326E+00-2.60085E+00 4.71726E-01 9.51186E+00-2.33681E+00
 -1       375-2.32053E+01-5.62913E+01 1.29313E+01 1.85628E+01-9.67962E+00 1.39344E+01
 -1       376-3.71854E+01-2.00077E+01-1.56972E+01-3.71760E+01 2.14299E+01 2.04622E+01
 -1       377-1.02934E+02-2.80146E+01 3.70936E+00-2.13334E+01-9.32990E+00-1.98311E+01
 -1       378-3.72259E+01-2.81121E+01 1.10587E+01 6.56414E+00-9.21325E+00 3.21126E+01
 -1       379-2.80869E+01-2.35342E+01 4.08198E+00-6.40491E+00 5.38195E+00 7.36151E-01
 -1       380-3.25348E+01-7.70545E+01-1.88561E+00-2.13065E+01-1.27168E+01-1.12619E+01
 -1       381-5.53224E+00-6.28501E+00-8.35218E+00-2.09625E-01-5.46084E+00 6.79408E+00
 -1       382-2.37369E+01-1.79160E+00-1.28615E+00-1.61182E+01-4.66294E+00-7.53005E+00
 -1       383-1.16601E+02-3.42828E+01 2.70870E+01 1.74572E+01-1.43944E+01-1.94069E+01
 -1       384-4.77819E+01-1.14347E+01-5.43055E+00 2.01206E+01-3.25238E+00 5.48930E+00
 -1       385-1.46378E+01-4.54649E+00-2.17847E+00-3.39577E+00-4.46346E+00 6.02117E+00
 -1       386 1.09385E+01 1.07463E+01 6.07768E+00-2.95813E+00-5.65193E+00 4.95839E+00
 -1       387-7.73610E+00-6.11857E+00-5.94813E+00 1.38975E+00-9.11331E+00 4.25337E+00
 -1       388-4.31511E+01-3.08512E+01-8.94691E+00 2.27404E+01 3.48831E+00-3.29127E+00
 -1       389-1.48634E+01-4.08241E+01 5.15592E+00 6.87255E+00-1.25653E+01 9.63873E+00
 -1       390-2.46523E+01-6.20010E+01-4.35121E+00 1.76260E+00-2.56009E+01-1.42601E+00
 -1       391-3.03165E+00-1.35130E+00-5.30447E+00 1.34837E+00-8.46413E+00 1.07119E+00
 -1       392-1.69223E+01-8.38744E+00-1.22639E+01-4.27956E+00-2.48707E+01-5.11830E+00
 -1       393-6.31000E+01-2.76110E+01 3.58455E+00 1.40782E+01 5.86424E-01-1.86630E+01
 -1       394-1.06723E+02-7.91029E+01 6.32239E-01 1.96787E+01-1.24810E+01 5.26307E+01
 -1       395-1.45625E+01-1.29679E+01 1.90928E+01 1.38091E+01 4.26970E+00-2.12563E+01
 -1       396-9.77326E+01-5.43309E+01 1.20848E+01-1.92889E+01-5.30284E+00 1.09829E+01
 -1       397-7.95554E+01-9.82655E+01-1.65956E+01-1.03347E+01 1.72336E+00 2.33539E+00
 -1       398-2.96828E+01-4.83283E+01-1.96210E+00-4.56396E+01-1.73117E+00 5.19804E+00
 -1       399-4.01582E+01-1.65985E+01 1.16976E+00-1.47200E+01-3.08642E+00-1.95775E+00
 -1       400-5.40534E+01 8.32993E+00-1.87783E+00 1.57915E+00-8.21451E+00 1.86268E-01
 -1       401-1.61922E+01-4.91155E+01-1.37200E+01 3.89548E+01 1.21200E+01 1.61441E-01
 -1       402-7.12388E+01-5.51105E+01 3.17208E+01 7.50530E+00-2.14130E+00 2.29688E+01
 -1       403-3.41614E+01-3.22169E+01 9.20447E-01-5.42737E+00-1.65782E+00-7.05526E+00
 -1       404-2.15516E+01-3.13769E+01 1.30584E+01-3.00987E+00-7.69554E+00 4.12280E+00
 -1       405-3.55913E+01-1.97010E+01 7.09580E+00 1.75484E+00-1.38949E+01-1.15542E+01
 -1       406-5.30594E+01-1.40785E+01-2.16436E+00 2.04475E+00 1.01230E+01-2.14495E+01
 -1       407-8.82189E+00-1.26953E+01-5.93893E-01-7.88181E+00 4.66498E-01-1.90279E+01
 -1       408-2.46819E+01-7.29999E+01-3.53958E+00-1.68537E+01-1.24368E+01 2.05256E+00
 -1       409-3.44514E+01-7.54335E+01-3.31277E+00-6.36324E-01-2.90789E+01-5.40149E+00
 -1       410-6.31587E+01-9.10201E+01 1.08334E+01-1.96184E+01-3.94202E+01-1.73701E+01
 -1       411-7.83927E+01-1.94401E+01 2.55609E+01-1.70593E+01-2.48193E+01-4.44605E+01
 -1       412-8.46407E+00-4.20690E+01 1.13427E+01 1.49108E+01 7.47287E+01 2.21495E+01
 -1       413-6.77087E+00-5.41765E+01-5.51175E+00 7.37413E+00 3.60427E+01 1.14563E+01
 -1       414-3.29294E+01-5.62329E+01 1.54173E+01 5.01754E+00 1.34287E+01 2.49873E+01
 -1       415-6.91123E+01-7.66415E+01 7.99667E+00 2.39718E+01-3.49936E+01 1.47249E+01
 -1       416-6.13284E+01-4.85100E+01 2.32238E+01-1.43749E+01 1.35362E+01 1.85392E+01
 -1       417-5.26894E+01-3.30689E+01-7.61485E-01 5.63514E+00 5.87938E+00-8.08687E+00
 -1       418-1.03426E+02-7.04322E+01-1.14772E+01-1.46890E+01 5.30098E+00-1.37611E+01
 -1       419-5.25205E+01-3.01995E+01 1.09827E+01 2.76099E+01-8.76988E+00 4.29969E+01
 -1       420-1.94524E+01 2.87326E+00 4.52046E-01 8.00283E+00-1.12692E+01 3.31880E+01
 -1       421-3.95517E+01-2.80643E+01 1.14518E+01-4.15310E+00-3.82024E+00-1.47536E+01
 -1       422-8.21608E+00-2.69913E+01 5.65531E+00 1.73906E+01 8.76423E+00 1.35493E+01
 -1       423-6.83270E+01-5.00080E+01 3.78245E+00-7.99891E+00-1.40530E+01-2.13845E+01
 -1       424-6.53252E+01-8.43171E+01-1.42032E+01 6.66006E-01 1.04640E+01 6.48759E+00
 -1       425-8.47216E+00 6.93189E+00-4.64258E+00-3.23009E+00 3.08952E-02-2.24849E+01
 -1       426-1.80580E+02-7.23338E+01 1.92390E+01-1.65839E+00 1.31894E+00-7.80778E+01
 -1       427-3.01618E+01-1.09791E+02-2.94291E+00-2.33440E+01-9.16112E+00 6.55194E+00
 -1       428-8.52911E+00-3.51474E+01-3.16528E+00 8.21109E+00 1.10233E+01-8.63070E+00
 -1       429-2.43204E+01 2.24388E+00-1.32579E+00-5.18646E+00-3.61002E-01 2.10806E+00
 -1       430 1.11498E+01 2.66825E+00-2.55087E+00-1.51415E+01-8.06825E-01 3.14389E+00
 -1       431-6.94271E+01-6.62888E+01-2.19044E+01-3.22930E+00 9.40553E+00-3.55243E+01
 -1       432-4.09054E+01-5.89114E+01 5.59050E+00 5.98887E+00-1.52260E+00 1.06386E+01
 -1       433-3.20905E+00-1.22199E+01 6.46851E-01 6.16366E+00-5.20321E+00 8.14522E+00
 -1       434-1.38305E+01-6.66900E+01-6.83030E-01 1.03145E+01-2.70969E+01 1.42826E+00
 -1       435-2.33805E-01-4.20024E+01-1.13831E+00 1.23423E+01-1.66463E+01 2.64274E-01
 -1       436-1.94937E+01-3.02164E+01 7.48688E+00-6.11567E-01-2.65997E+01 4.42571E-01
 -1       437-1.33881E+01 2.05181E+01-2.36854E+00 2.02273E+01-1.23202E+01-4.95878E+00
 -1       438-4.65878E+01-3.40691E+01-3.39566E+01-7.94985E-01 3.18503E+00 1.40635E+01
 -1       439 8.69156E+00 8.96334E+00 1.18498E+01-6.91536E-01 2.05179E+00 9.42112E+00
 -1       440-3.76507E+01-2.74202E+01-2.73949E+01 6.33591E-01 1.45946E+00-1.48192E+01
 -1       441-1.37096E+01-1.17029E+01-1.41137E+01 6.04240E-02 1.37701E+00-1.12383E+01
 -1       442 2.97376E+01 2.17220E+01 2.16645E+01-6.89491E-01 1.40470E+00-1.42632E+01
 -1       443 8.79077E+00 1.04940E+01 8.92821E+00 4.41899E+00 9.58627E+00 8.63912E-01
 -1       444-9.73889E+00-1.43542E+01-1.05603E+01 2.41719E+00 9.66555E+00 1.07218E+00
 -1       445-9.65644E+00-1.63447E+01-6.60378E+00-2.18800E+00 9.75098E+00-3.94336E-01
 -1       446-6.12815E-01 2.74858E+00 1.47835E+00-2.14732E+00-7.80900E+00-1.19817E+00
 -1       447 3.47585E-01 3.11939E+00 5.61411E-01 1.89117E+00-1.33106E+01-2.19063E+00
 -1       448-1.69138E+01-2.07626E+01-1.67898E+01 1.91778E+00-1.26869E+01-2.14174E+00
 -1       449-3.16896E+01-4.34920E+01-3.16515E+01-7.76788E-01-1.38868E+01-1.36763E+00
 -1       450 2.89425E+01 3.00684E+01 2.48436E+01 4.86521E+00 6.70689E+00 8.17256E+00
 -1       451 3.09443E+01 2.98912E+01 2.56117E+01 4.25871E+00 6.82652E+00 8.40606E+00
 -1       452 7.08794E-01 1.58116E+00 8.94663E+00-2.60392E+00 2.94727E+00 4.48189E+00
 -1       453 9.23741E+00 1.06976E+01 1.40725E+01 3.52237E-02 4.18937E+00 6.37183E+00
 -1       454 5.87816E+00 1.50123E+01 8.98805E+00-1.17002E+00 8.11563E+00-6.67579E+00
 -1       455-2.02573E+01-1.23780E+01-1.35285E+01 3.02195E+00 8.03847E+00-6.59847E+00
 -1       456-5.91297E-01-1.46251E+00 3.21030E+00 1.90776E+00 4.17145E+00-3.98128E+00
 -1       457 2.26492E+01 2.98442E+01 2.20997E+01-2.44231E+00 1.18275E+01-3.47797E+00
 -1       458 1.62508E+01 2.11524E+01 1.57467E+01-1.65070E+00 1.21474E+01-3.68492E+00
 -1       459 2.51071E+00 5.05581E-01 6.77896E+00 1.00850E+00 9.05831E+00-2.39566E+00
 -1       460 2.75200E+00-7.16945E-01 8.08443E+00 1.07391E+00 7.10460E+00-2.00220E+00
 -1       461-3.56272E+01-2.73114E+01-2.59258E+01 8.40266E+00-1.80735E+00 1.14970E+01
 -1       462 3.71088E+00 3.93443E+00 5.15581E+00-7.16096E-01-3.94869E-01 6.38669E+00
 -1       463-1.04958E+01-6.14647E+00-6.16251E+00-2.28935E-01-3.01002E+00 1.00738E+01
 -1       464 3.98816E+00 5.86523E+00 9.89590E+00-1.03254E+00 1.73891E+00 8.68005E+00
 -1       465 3.53860E+00-4.86563E+00 4.75033E-01 6.77648E+00-6.34709E+00 8.78844E+00
 -1       466 3.71706E+00-4.11605E+00 2.07617E+00-2.27118E+00 5.82844E+00 9.51427E+00
 -1       467-2.73309E+01-2.64497E+01-2.26416E+01 4.24427E+00-8.40591E+00 1.02429E+01
 -1       468-9.65829E+00-9.52484E+00-4.22878E+00 2.93198E+00-5.90451E+00 2.81218E+00
 -1       469-2.42777E+01-2.61741E+01-2.12402E+01-4.34918E+00 9.35494E+00 6.70416E+00
 -1       470-3.00092E+01-3.26469E+01-2.63782E+01 5.07181E+00-1.28972E+01 6.89396E+00
 -1       471-1.28744E-01-3.83865E+00 5.27517E+00-1.61234E+00 4.17371E+00 2.86048E+00
 -1       472-2.01150E+01-2.52084E+01-1.90812E+01 2.63335E+00-1.29998E+01 3.94352E+00
 -1       473 6.55799E+00 4.07447E+00 8.07443E+00 8.25550E-01-7.56673E+00-1.44091E+00
 -1       474-7.87005E+00-9.31134E+00-3.18461E+00-2.54354E+00-6.31323E+00-2.81374E+00
 -1       475-4.10812E+01-1.82269E+01-2.55400E+01-1.14996E+01-7.29410E+00-5.61531E+00
 -1       476-2.61674E+00-2.34803E+00 3.86783E+00-2.17295E+00-5.47717E+00-7.86387E+00
 -1       477-8.80607E+00-5.67981E+00-1.34568E+00-2.58573E+00-6.11456E+00-7.94224E+00
 -1       478-3.32621E+01-2.72210E+01-2.54634E+01 3.15096E+00 5.88904E+00-1.25238E+01
 -1       479-3.71421E+01-2.86401E+01-2.76943E+01-2.99191E+00-3.30394E+00-1.08915E+01
 -1       480-4.58378E+00-7.45274E+00-5.00482E+00 5.62013E+00 3.35115E+00-9.51953E+00
 -1       481-4.58705E+01-3.34536E+01-3.33954E+01-9.09570E-01-1.14920E+00-1.16688E+01
 -1       482 8.31071E+00 6.67506E-01 5.31227E+00-1.10793E+00 5.16755E+00 8.11615E+00
 -1       483 4.69195E+00 7.11190E+00 1.56792E+00 2.99970E+00 1.90679E+00 1.22215E+01
 -1       484 3.34373E+01 2.53791E+01 2.47617E+01 2.33349E+00 4.16986E+00 1.37460E+01
 -1       485 2.51927E+01 2.97227E+01 2.31194E+01 3.70422E+00 9.56107E+00 5.11069E+00
 -1       486 2.02690E+01 2.68590E+01 1.98409E+01 2.59415E+00 1.16731E+01 4.32579E+00
 -1       487 4.24707E+00 2.67224E+00 2.30401E+00 2.40622E+00 1.03048E+01 3.36189E+00
 -1       488-4.35169E+00-4.02249E+00-7.60814E+00 2.72652E-01 5.67490E+00 3.84051E+00
 -1       489 1.62788E+01 1.66263E+01 1.20829E+01-3.19746E+00 5.04284E+00-9.46243E+00
 -1       490-7.57886E+00-7.59725E+00-7.99896E+00 4.70797E-02 4.54188E+00-8.28472E+00
 -1       491 7.55290E+00 7.05427E+00 5.02211E+00-1.65407E+00 7.13924E+00-9.51277E+00
 -1       492 1.16826E+01 5.06145E+00 4.99866E+00 1.95755E+00 3.96481E+00-9.29986E+00
 -1       493-2.18784E+01-4.34391E+01-9.21659E-01 1.49123E+01 1.10706E+01-2.34701E+01
 -1       494-6.26541E+01-3.89846E+01-1.00709E+01 2.30659E+01-1.87400E+01 4.32072E+01
 -1       495-1.30184E+01 4.77536E+00 4.13407E+00-3.00613E+00-2.99541E-01-8.00007E+00
 -1       496-2.31089E+01-1.02667E+01-1.44509E+00-2.79773E+00 7.73382E+00-8.82136E+00
 -1       497-5.76380E+01-2.87485E+01 1.78639E+00 1.71496E+01-1.31207E+01 1.39044E+01
 -1       498 1.93132E+01-5.62584E+00-5.81558E+00-3.33089E+01 1.12400E+01 4.67252E+00
 -1       499-3.55369E+01-1.13119E+01 4.38737E+00 1.38756E+01-3.66086E+00 6.86720E+00
 -1       500-6.85752E+00-3.92342E+00-2.89864E+00 2.40398E+00 6.30309E+00-3.65332E+00
 -1       501-3.02546E+01-3.54554E+01 8.40123E+00 5.91200E+00 1.23024E+01-1.53944E+01
 -1       502-2.02124E+01-7.19953E+00-8.09352E+00 8.94124E+00 1.69144E+01-1.79465E+01
 -1       503-1.40327E+01-1.61412E+01-1.46058E+01 1.48452E+00 7.77034E+00-4.03336E+00
 -1       504-3.67610E+00 8.65801E+00 2.56818E+00-1.72129E+01 9.52218E+00-1.73335E-02
 -1       505-2.69089E+01-6.71668E+01 1.68216E+01-6.50911E+00-1.24518E+01-1.25790E+01
 -1       506 3.03525E+01 3.37127E+01-1.30099E+01 2.70161E+01-1.54278E+01-1.37073E+01
 -1       507 9.07527E+00 1.39083E+01 9.52410E+00 8.89596E-01-7.84877E+00-4.43725E+00
 -1       508 2.71731E+01 3.16288E+01 2.47556E+01 4.49863E+00-1.30427E+01-6.50533E+00
 -1       509 8.14408E+00 1.32546E+01 7.05296E+00 2.21635E+01 3.73719E+00 4.12859E+00
 -1       510-1.38855E+01 1.69484E+00-5.55838E+00-5.48413E+00-8.14658E+00-6.49443E+00
 -1       511 1.27857E+01 1.18110E+01 8.86668E+00 2.33319E+00-8.31693E+00-7.41084E+00
 -1       512-8.24956E+00-9.20644E+00-9.05683E+00-9.85322E-01-6.32438E+00-7.57519E+00
 -1       513 3.09524E+01 2.60288E+01 2.39891E+01 2.84465E+00-7.41326E+00-1.33974E+01
 -1       514-9.71319E+00-8.75678E+00-1.22719E+01 1.20557E+00-1.59624E+00-6.96977E+00
 -1       515 1.03810E+01 7.95644E+00 6.46167E+00 1.76534E+00-3.61786E+00-1.04495E+01
 -1       516-7.28157E+00-7.68594E+00-1.05200E+01-7.60043E-01-6.14817E-01-9.27520E+00
 -1       517-6.49044E+01-2.39379E+01-1.72230E+00-1.34843E+01 1.65820E+01 3.05013E+01
 -1       518-1.63156E+01-1.35484E+01-3.89014E+00-1.65627E+01-1.06069E+01-3.70002E+01
 -1       519-4.34128E+01-1.15130E+01 2.53904E+01-1.62248E+01-1.83930E+01 4.25502E+01
 -1       520-9.79775E+00-4.38102E+01 3.43020E-01-8.06087E+00 2.81472E+01-9.06387E-01
 -1       521-1.41337E+00 8.31916E-01 1.87280E+01-2.90644E+00 1.87607E+01-1.41816E+01
 -1       522-2.36993E+01-5.78855E+01 5.10280E-01-4.08862E+00-1.17407E+01-5.42917E+00
 -1       523-3.78432E+00-2.76114E+00-5.38939E+00 4.15395E-01 7.39281E+00-1.56770E-01
 -1       524-1.79889E+01-9.35524E+00-5.78575E+00-9.74046E-01 5.75674E+01-2.55899E+01
 -1       525-1.00188E+01-2.72403E+01-1.84807E+00-2.58947E+00 7.34258E-01-1.43001E+00
 -1       526-4.89255E+01-8.46742E+01-1.72512E+01-1.96621E+01-7.59442E+00-1.86709E+01
 -1       527-3.89705E+00-3.90482E+01-1.63217E+00 4.15822E+00 1.92005E+00 1.10484E+01
 -1       528-2.83181E+01-1.63415E+01-7.74704E-01 1.09909E+01 4.05833E+00 2.31755E+01
 -1       529 7.06347E+00-2.97893E+01-1.68165E+01 1.80458E+01 2.81693E+01-4.30125E+01
 -1       530-8.59691E+01-4.49289E+01 1.58958E+01 1.20205E+00 1.97198E+01-1.64506E+01
 -1       531-1.06934E+00-1.64103E+00-3.27678E+00-1.52514E+00-1.63448E+00 1.00491E+01
 -1       532 3.27277E+01 2.42636E+01 2.39933E+01-1.80204E+00-1.03346E+00 1.04936E+01
 -1       533-2.04276E+01-1.71788E+01-1.90596E+01 5.26268E+00-1.54974E+00 8.21645E+00
 -1       534-1.00198E+01-9.14759E+00-1.32562E+01-3.41993E-01-3.00509E+00 9.17178E+00
 -1       535-2.29453E+00-2.46869E+01-6.68700E+00 1.10672E+01-1.59863E+00 7.14718E+00
 -1       536 1.63133E+01 8.03790E+00 1.08970E+01 2.99712E+00-6.41795E+00 1.00098E+01
 -1       537-1.23856E-01-6.69753E+00-3.54259E+00 2.71295E+00-5.42048E+00 1.07426E+01
 -1       538 3.32810E+01 3.10618E+01 2.70883E+01-4.68733E+00-9.20778E+00 1.00044E+01
 -1       539 5.58224E+00-1.83344E+01 1.64382E+01 3.12733E+00 1.37947E+01 1.60109E+01
 -1       540-5.55880E+00-1.21053E+01 5.45535E+00-1.75323E+01-1.00788E+00-3.09427E+01
 -1       541 1.00430E+01-2.24726E+01-5.75657E+00 9.38686E-01-1.32396E+01-2.38676E+01
 -1       542 1.61003E+01-5.56402E+00-2.56921E+00 8.64797E+00 1.94117E+01 4.87232E+01
 -1       543-8.97795E+00-7.98858E+00-1.11182E+01-3.84997E-01-4.97279E+00 4.18570E+00
 -1       544 1.93094E+01 2.51947E+01 1.87363E+01-2.26229E+00-1.30722E+01 6.98752E+00
 -1       545-4.32396E+00 1.09435E+00 1.89520E+00-1.21825E+01-8.30016E+00 3.89674E+00
 -1       546-3.98907E+01-1.07991E+02 1.13272E+01 2.07525E+01-1.76517E+01 1.60569E+01
 -1       547-2.82328E+01-1.03242E+02-4.15612E+00-3.06359E+01 2.18425E+01-6.61711E+00
 -1       548-1.57289E+01-1.26562E+01 5.98534E+00 1.44932E+01 1.56282E+01-1.42142E+01
 -1       549-3.28425E+00-5.14805E-01-6.42011E+00-8.70145E-01-8.56933E+00 1.97514E+00
 -1       550 3.16034E+00 3.75366E+00 3.21083E+00-5.20221E-01-1.09946E+01 3.33046E+00
 -1       551 9.59881E+00-1.29337E+01-2.53904E-01-7.26612E+00-3.00622E+01 1.16867E+01
 -1       552-8.20910E-01-2.35250E+00-3.35248E+00-1.79643E+00-9.24382E+00 7.96668E-01
 -1       553-5.56860E+00-2.24930E+01 1.83187E+01-5.00988E+00 1.25130E+01-1.78952E+01
 -1       554-1.95159E+01-3.33851E+01 7.93520E+00 1.96795E+00-2.56080E+01-8.60396E+00
 -1       555-1.85251E+01 7.20813E+00-5.29439E+00 1.27359E+01 8.31137E+01 3.37890E+01
 -1       556 2.77478E+01 3.46469E+01 2.62682E+01 3.46860E+00-1.38097E+01-3.40375E+00
 -1       557 2.06799E+01 1.77093E+01 1.59228E+01 7.88289E+00-9.68810E+00-3.29442E+00
 -1       558-3.20498E+02-6.35903E+01 6.50794E+01 2.83489E+01-7.30639E+00 5.12024E+00
 -1       559-3.74979E+02-6.27525E+01 8.33841E+01-4.68103E+01-2.85854E+01-2.49196E+01
 -1       560-2.53076E+02-8.07569E+01 1.17288E+02 1.98510E+01 3.28148E+01 5.69335E+00
 -1       561-5.04314E+02-6.83368E+01 8.80831E+01-4.20290E+01-5.45460E+01-3.58273E+01
 -1       562-6.70240E+02-1.52964E+02 1.35315E+02-4.17006E+01 3.81632E+01-4.04684E+01
 -1       563-1.87192E+02-1.01177E+02 9.75752E+01-6.99053E+01 5.85544E+00-1.48355E+01
 -1       564-5.24560E+02-1.44835E+02 1.50502E+02-6.03281E+01-3.86964E+00 9.51996E+01
 -1       565-2.31274E+02-1.15856E+02 6.73908E+01-1.06131E+02 2.76127E+01-2.05778E+00
 -1       566-1.47836E+01-8.85000E+01-3.62937E+01 2.96298E+00-1.54697E+01 3.65628E-01
 -1       567-1.53709E+01-3.87505E+01-9.68372E-01 3.02490E+00 3.89407E+00-8.42166E+00
 -1       568 2.65643E+00-6.33867E+01-4.56848E+01 1.11429E+01-2.47159E+01 5.28721E+00
 -1       569-5.84706E+01-6.21228E+01 4.22158E+00-2.95358E+01 1.45484E+01-1.99777E+01
 -1       570-1.79777E+02-8.40180E+02 1.95433E+02-2.07744E+02-1.89568E+01-3.71261E+01
 -1       571-1.14095E+02-3.34659E+02 1.23933E+02-1.10339E+02 9.23339E+01 6.29457E+01
 -1       572-1.80181E+02-6.46829E+02 2.18907E+02-2.09798E+02-1.72891E+02-1.93932E+01
 -1       573-1.45933E+02-3.76977E+02 1.02810E+02-1.46224E+02 3.56507E+01-3.25567E+00
 -1       574-6.16197E+01-3.13805E+02 5.88279E+01-1.25131E+01-1.89050E+01-1.08804E+01
 -1       575-6.20986E+01-4.00267E+02 8.19698E+01-1.92004E+01 1.34346E+01 5.39039E+00
 -1       576-4.52093E+01-2.73435E+02 5.07558E+01-1.04155E+01-1.54464E+01 4.16411E-01
 -1       577-4.92421E+01-3.20808E+02 1.35671E+02-1.58144E+01 1.45390E+01-2.95428E+01
 -1       578-1.22945E+02-5.06745E+02 1.52321E+02 8.59491E+01-1.36281E+02 7.53658E+00
 -1       579-1.29791E+02-2.45727E+02 9.02108E+01 1.01648E+02-9.07125E+00 5.59262E+00
 -1       580-1.38322E+02-7.02339E+02 1.59349E+02 8.62171E+01 1.10682E+01 4.39925E+01
 -1       581-1.33707E+02-2.27772E+02 6.58103E+01 1.05776E+02 1.24718E+01-2.81272E+01
 -1       582-1.18883E+02-9.82688E+01 5.61241E+01 6.14267E+01 2.04528E+00-2.33122E+00
 -1       583-1.63995E+02-1.25805E+02 6.15886E+01 9.53255E+01-9.27565E+00 3.65754E+00
 -1       584-1.40490E+02-1.24558E+02 5.53752E+01 9.22078E+01-1.53307E+01-2.20074E+00
 -1       585-1.69157E+02-1.56027E+02 6.80632E+01 1.12578E+02-1.23361E+01-1.97220E+01
 -1       586-1.29493E+02-1.24852E+02 7.57909E+01 5.12508E+01 6.02811E+01-4.53809E+01
 -1       587-3.20803E+02-1.18132E+02 6.77462E+01 1.31243E+02 9.62745E+00-5.51796E+00
 -1       588-4.09189E+02-1.46354E+02 1.03144E+02 1.44176E+02 8.93493E+00-6.56465E+01
 -1       589-2.32911E+02-2.26530E+02 7.99956E+01 1.57441E+02-6.22692E+00-2.08513E+01
 -1       590-1.98268E+02-2.19596E+01 4.32328E+01-1.84011E+00-1.31080E+01-1.26725E+01
 -1       591-5.96075E+02-1.17446E+02 1.02744E+02 3.79075E+01 1.23981E+01 1.06964E+01
 -1       592-5.88727E+02-9.80305E+01 1.68018E+02 1.75653E+01-4.39028E+01 1.25033E+02
 -1       593-2.52543E+02-2.59903E+01 4.60326E+01-2.24816E+00-2.17638E+01-1.62934E+01
 -1       594-6.35707E+02-1.13936E+02 1.58628E+02-8.75096E+01-2.08862E+01 3.79914E+01
 -1       595-2.19808E+02-1.45474E+02 8.29077E+01-1.32106E+02-2.82767E+01-1.74435E+01
 -1       596-2.40699E+02-1.28968E+02 9.32085E+01-1.36719E+02 3.27532E+01 3.89654E+01
 -1       597-6.10957E+02-1.23651E+02 1.50988E+02-1.11252E+02 3.11573E+00-1.28143E+02
 -1       598-1.46308E+02-2.39557E+02 3.99553E+01-1.12784E+02 4.25459E+00 1.55814E+01
 -1       599-6.39067E+01-1.12451E+02 1.37815E+01-5.91196E+01-3.96920E+00-1.08248E+01
 -1       600 2.59910E+01-9.05599E+00 5.14975E+01 4.75691E+01 3.73248E+01 3.23298E+01
 -1       601-4.90431E+00-6.90088E+01 9.64131E+01 7.30950E+01 4.78665E+01 3.73220E+01
 -1       602-7.74236E+01-8.68947E+01 4.20803E+01-4.78041E+01-3.65818E+01-3.23541E+01
 -1       603-1.42055E+02-4.87634E+02 2.10158E+02-1.21042E+02-4.88779E+01-2.94646E+01
 -1       604-2.43420E+02-2.43788E+02 9.60534E+01-1.72008E+02-2.20952E+01 2.13548E+01
 -1       605-1.34246E+02-6.29300E+02 1.45029E+02-1.32977E+02 1.77643E+01-2.73379E+01
 -1       606-8.93857E+01-5.17518E+02 8.29243E+01-4.57204E+01 6.89630E+00 7.68685E+00
 -1       607-4.57961E+01-2.51385E+02 2.88843E+01-9.74198E+00-6.15492E+00 3.84579E+00
 -1       608-6.17484E+01-2.47679E+02 5.92770E+01-6.02147E+00-3.93513E+01-2.19900E+01
 -1       609-7.36573E+01-4.19539E+02 1.36304E+02-2.71047E+01 1.23918E+01-3.14182E+01
 -1       610-6.13888E+01-1.67948E+02 5.90313E+01 6.58261E+01 1.00257E+01-3.56361E+00
 -1       611-1.45666E+02-6.62498E+02 1.18165E+02 1.15658E+02 1.19754E+01 3.11989E+01
 -1       612-1.07091E+02-1.88393E+02 5.00611E+01 8.30380E+01-1.56011E+01 2.59535E+01
 -1       613-1.19015E+02-4.55561E+02 1.55354E+02 1.13296E+02-7.40087E+01 2.23134E+01
 -1       614-2.17843E+01 2.01809E+00-6.11166E+00-1.52008E+01-3.71913E+00 4.65156E+00
 -1       615-7.30741E+01 4.61162E+01-1.70434E+01 2.37727E+01-1.79883E+00-1.08677E+00
 -1       616-5.26337E+01-2.96850E+01-4.38682E-01 1.52918E+01 7.28449E+00 1.41181E+01
 -1       617-1.31455E+02-3.25848E+01-2.78452E+01 7.05957E+01 2.30939E+01-4.03983E+01
 -1       618-3.50578E+02-1.73111E+02 1.51736E+02 1.25007E+02-8.70271E+01 8.19362E+01
 -1       619-7.35314E+02-1.86341E+02 2.04985E+02 1.29549E+02 2.94320E+01 1.42988E+02
 -1       620-3.97265E+02-2.42612E+02 1.24299E+02 2.04029E+02 7.84696E+00 2.33765E+01
 -1       621-9.54609E+02-1.70046E+02 2.02579E+02 8.61290E+01-3.34802E+01-3.71897E+01
 -1       622 3.10606E+01 1.92655E+01 1.29000E+01 1.67840E+01 7.83642E+00-2.01001E+00
 -1       623-3.88771E+01 2.87761E+01-1.45391E+01-2.48066E+01 4.61669E+01 3.71002E+01
 -1       624-1.79650E+01-8.86920E-01-8.92746E-01 9.46038E+00-9.16939E+00 1.27241E+01
 -1       625-6.72993E+01-2.66791E+01 2.15155E+01 3.24229E+01-2.97949E+00-3.66367E-01
 -1       626 1.33082E+00-1.68043E+01-4.10777E+00 2.62466E+01 2.35192E+01-2.51425E+01
 -1       627-4.06936E+01-5.20929E+01 4.87813E+00 3.17545E+01 4.56571E+00-2.68486E+01
 -1       628-3.76864E+00-1.75340E+01-1.51494E+00 6.40800E+00 1.10257E+01-2.12184E+01
 -1       629-1.90029E+01-2.60513E+00-2.48346E+00 1.21245E+01-3.22756E+01 3.41454E+01
 -1       630-2.87427E+01-9.62083E+00 1.76935E+00-1.36801E+00 1.87181E+01-1.03039E+01
 -1       631-4.10328E+00 7.83038E+00 5.42227E+00-1.09787E+01 9.97357E+00-1.28704E+01
 -1       632-1.75761E+01-9.57814E+01-6.93329E+00 4.82447E+00-8.73956E+00 1.41745E+01
 -1       633-3.26136E+01-3.29505E+01 1.76856E+00 4.98704E+00-6.55187E+00 7.33948E+00
 -1       634-3.45961E+01-7.53391E+01-8.88538E+00 1.73445E+01-1.28673E+00 7.91918E+00
 -1       635-2.01983E+01-5.29689E+01 1.69744E+01 6.75903E+00-1.55298E+00-1.08081E+01
 -1       636-1.38634E+01-3.02913E+01 5.55923E+00-4.68387E+00 8.39335E+00-5.86459E+00
 -1       637-1.09070E+01 5.96751E+00-6.49706E+00 1.16854E+01 4.56099E+01-1.90910E+01
 -1       638-1.25810E+01-5.06344E-01 3.24475E+00-8.05710E+00 3.29074E+01-8.49714E+00
 -1       639-3.05206E+01-3.34822E+01 1.82234E+01-1.87967E+00-3.94386E+01-9.51183E+00
 -1       640-8.67621E+01-9.84091E+01 5.95903E+00 2.03164E+01 1.09007E+01 4.56766E+00
 -1       641 2.44764E+01 1.74033E+01-2.30669E+00 2.95657E+01 4.49749E+00-6.73171E+00
 -1       642 1.33783E+01 3.95409E+01 1.59727E+01 5.01922E+01 1.33894E+01 9.07200E+00
 -1       643-4.84283E+01-2.41951E+01-3.71893E+00-9.29254E+00 1.39292E+01 4.74231E+00
 -1       644-1.41069E+01-1.57458E+01-1.90050E+00-7.16346E+00-1.68736E+01-2.93388E+01
 -1       645-3.07763E+01-2.38681E+01-9.44151E+00-1.10618E+01-1.34480E+01-3.72560E+01
 -1       646-4.00157E+01-1.41870E+01 3.30028E+01 4.71363E+00-2.67141E+01 6.36705E+00
 -1       647-2.91816E+00-2.52327E+01 1.31548E+00-9.75883E+00 2.87412E+01-1.74482E+00
 -1       648-1.23237E+01-5.87690E+01-8.88088E-01-1.51136E+01 1.37867E+01-4.31528E-01
 -1       649 9.26049E+00-1.36926E+01 2.61934E+00-8.80285E+00 3.01463E+01-1.04849E+01
 -1       650 5.70228E+00-7.44317E-01 4.75889E+00 7.99675E+00 4.33486E+00-3.03479E+00
 -1       651-8.22247E+01-6.24498E+01-1.53819E+01 3.50014E+00-2.04900E+01-5.31621E+01
 -1       652 5.93417E+00-1.21477E+01-1.65928E+00 2.21893E+00-2.37425E+00 3.44038E+01
 -1       653-3.24700E+01-2.10792E+01-2.67008E-01-5.52010E+00-3.25743E+00 2.98352E+01
 -1       654 3.49126E+01-1.52673E+01-7.20885E+00 2.64266E+01 4.53892E+01-3.75314E+01
 -1       655-9.07175E+01-6.69185E+01 1.15528E+01 6.56451E-01 2.32206E+00-5.51866E+01
 -1       656-4.10445E+01-3.59797E+01 1.51269E+01 3.77831E+00 1.23616E+01-1.91648E+01
 -1       657 2.20849E+01 6.91413E+00-9.96245E-01 4.27071E+01 2.71151E+01 7.84779E+01
 -1       658-6.13433E+00 7.97792E+00 1.41296E+00-1.30617E+01-1.57551E+00 2.38004E-01
 -1       659-3.12757E+01-9.85508E+01 2.84109E-01 1.89564E+01-3.21989E+01-2.78811E+00
 -1       660-3.64722E+01-9.17154E+01 3.58049E+00 2.40718E+01 3.66794E+01-2.21330E+00
 -1       661-1.05890E+01-8.57479E+01 3.17986E+00-2.69681E+00 4.05333E+00 1.07886E+01
 -1       662-6.64906E+01-6.55605E+01 8.43849E+00-1.07886E+01 3.70071E+01-2.63983E+01
 -1       663-5.49517E+00-3.31565E+01-3.65132E-01-1.53047E+01-2.14835E+01 6.94189E+00
 -1       664-1.90022E+01-6.07946E+01 1.04034E+01 1.52570E+01 7.64539E+00-6.56560E+00
 -1       665 3.40466E+00-2.34297E+01 1.70140E+01 3.80259E+00-2.58238E+01-8.89772E+00
 -1       666-8.49283E+00 3.72391E+01 4.17180E+00 5.35001E+00 3.13497E+01 3.19711E+01
 -1       667-3.89956E+02-3.47234E+02 1.26861E+02 2.69790E+02-2.37920E+01-1.55474E+01
 -1       668-3.71027E+02-6.52502E+01 6.75291E+01 4.45653E+01 3.90891E+00-2.43334E+01
 -1       669-2.39134E+02-7.93753E+01-7.27197E+01-5.75831E+01 6.10795E+01-1.36554E+01
 -1       670-1.63814E+02-6.76558E+02 1.75561E+02-1.55967E+02-1.03072E+01-2.24086E+01
 -1       671-1.82231E+02-2.78930E+02 6.12117E+01 1.21399E+02 3.16622E+00 2.45391E+01
 -1       672-5.27118E+02-3.18833E+02 1.57444E+02 3.01760E+02 1.86762E+01 2.50576E+01
 -1       673-1.20620E+02-4.72947E+01-1.33014E+01-4.27525E+00-3.17996E+01 5.94813E+01
 -1       674-2.54260E+01-1.03391E+01 4.08668E+00-4.95988E+00 1.45495E+01-2.02335E+01
 -1       675-2.12442E+00 7.04345E+00 3.85754E+00-2.14191E+00 7.44688E-01-1.80230E+01
 -1       676 2.06029E+01 1.58884E+01-1.77038E+00-1.91066E+01 1.07780E+01 1.93820E+00
 -1       677 1.77540E+01 2.06556E+00 1.02073E+00-4.83000E+00 3.53559E+00-2.20747E+00
 -1       678-4.98731E+00-1.30095E+01 3.88544E+00-8.58229E+00 9.70256E+00 1.02502E+00
 -1       679-8.63752E+01-6.01765E+01 4.40737E+00 6.11436E+00-5.87160E+01-1.23402E+01
 -1       680 1.76162E+01 1.79943E+01 7.78007E+00-2.03551E+01 1.55403E+01-1.24664E+01
 -1       681 2.83391E+01 2.17753E+01-1.50372E+01 2.49971E+01-1.99184E+00-6.33642E+00
 -1       682-2.24646E+01 1.51556E+01 1.19444E+01 1.46129E+01-1.10893E-01-4.99208E+00
 -1       683 6.62828E+01 2.83046E+00-2.93813E+01 1.13859E+01 1.64688E+01-1.79476E+01
 -1       684-9.80319E+01-5.90462E+01-5.52464E+00 1.57986E+01-3.29965E+01 6.58982E+01
 -1       685-1.70665E+01-6.29993E+01 1.38026E+01-5.44136E+00-1.21308E+01-8.78527E+00
 -1       686 1.30320E+00 8.36974E+00 1.44302E+01-7.27864E+00 2.56694E+01-9.53812E+00
 -1       687 2.22557E+00-1.76018E+01 2.72291E+01-9.99708E+00 1.07011E+01-1.83543E+01
 -1       688-2.82432E+01-7.37993E+01-1.41946E+01-5.05615E+00-2.03453E+01-6.34586E+00
 -1       689-1.35322E+01-1.78363E+01-3.05702E+00-7.64911E+00 3.15579E+01-1.70450E+01
 -1       690-2.29040E+01-2.50470E+01-4.57810E-01-3.19978E+00 1.05753E+01 1.30154E+01
 -1       691-6.22166E+01-5.45662E+01-1.28656E+01-8.07992E+00 1.06385E+01 2.06887E+00
 -1       692-6.00039E+00-2.64515E+01-6.59955E+00 5.67858E+00-2.02555E+01 7.13146E+00
 -1       693-1.29538E+01-3.85295E+01 3.03617E-01-8.82523E-01 1.62631E+01 8.21996E+00
 -1       694-4.87505E+01-1.78610E+01-5.93811E+00 2.53866E+01 3.08673E+01-6.97661E+01
 -1       695-8.10917E+00-1.02056E+01 2.03810E-01 5.67483E+00 6.36986E+00 1.34083E+01
 -1       696 1.74512E+01 1.94760E+01 4.25827E+00 2.55332E+01 4.01939E+00 2.94561E+00
 -1       697-2.68249E+01-5.62012E+01-2.52592E+00-1.47450E+01-1.93903E+01-5.20150E+01
 -1       698 4.83638E+00-4.30167E+01 6.10469E+00 7.19872E+00 2.78333E+01-1.57033E+01
 -1       699 3.01951E+00-1.44104E+01 4.27823E+00-9.13589E-01 3.43800E+00 1.90876E+01
 -1       700 4.19920E+01-1.41554E+01 1.83675E+01-6.80814E-01 9.58442E+00 2.18252E+01
 -1       701-6.00911E+01-5.07545E+01-2.61541E+00 5.84339E-01 1.13975E+01-6.79385E+00
 -1       702 5.41343E+01-1.96040E+01-8.45866E+00 4.32723E+00-3.86332E+01-2.95663E+01
 -1       703-3.51652E+00 2.14814E+00 2.87459E+00 1.76511E+01 1.45566E+01 3.46163E+01
 -1       704 1.28304E+01 4.10174E+00-9.15677E-02-2.11948E+01-3.63051E+00-7.73668E-01
 -1       705-6.19249E+01-7.25044E+01 6.84247E+00 4.70433E+00 8.85046E+00 3.75630E+00
 -1       706-3.16969E+01-1.37918E+01-7.19037E+00 6.70354E+00 3.54590E+01-4.39165E+01
 -1       707-4.71164E+00 1.59877E+00-4.49305E+00-8.86566E+00-1.42229E+01 8.34631E+00
 -1       708-8.24514E+00 1.32006E+01 2.63015E+01-5.20488E+00 2.51120E+00-3.15901E+00
 -1       709 3.90990E+00-1.65198E+01-2.74769E+00 5.45665E+00-1.72278E+01 9.23217E-01
 -1       710-6.56071E+01-1.99114E+01-1.03031E+01-8.18136E+00 7.99000E+01 3.78636E+01
 -1       711-1.69462E+02-1.80308E+02 6.88710E+01 1.08552E+02 6.88087E+00-1.00720E+01
 -1       712-1.32591E+02-5.53634E+02 1.29161E+02 7.81393E+01 4.09352E+01 2.84745E+01
 -1       713-4.80429E+01-1.32049E+02 3.13994E+01 2.35846E+01-7.72242E-01-6.76068E+00
 -1       714-2.70991E+02-8.39654E+02 3.01674E+02-2.18593E+02-2.12936E+02-3.76331E+01
 -1       715-1.70176E+02-7.64632E+01 1.45124E+01-3.50155E+01-2.00855E+01-2.66022E-01
 -1       716-1.91051E+01-2.69033E+01-7.50347E+01 6.96615E+01 1.38890E+01-1.39319E+01
 -1       717-3.62245E+02-1.70079E+02 9.80578E+01-1.56458E+02 2.00765E+01-9.76845E+00
 -1       718-4.58279E+02-1.28098E+02 1.46662E+02-6.64741E+01-2.21546E+01 1.22474E+02
 -1       719-4.37119E+02-7.46979E+01 1.44556E+02-3.65991E+00-1.75198E+01 1.95923E+01
 -1       720-2.23496E+02-1.15278E+02 1.55327E+01-2.16345E+01 1.67723E+01-1.66867E+01
 -1       721-1.09322E+02-2.79122E+01 2.40911E+01 1.19415E+01-3.08983E+00 1.59113E+01
 -1       722-6.60434E+02-8.57164E+01 1.66400E+02-3.95084E+00-5.92522E+01 1.99607E+01
 -1       723-4.54205E+02-9.12220E+01 1.30086E+02 8.75482E+00-1.21285E+01-5.02893E+00
 -1       724-9.88235E+01-4.62569E+01 4.47426E+01 7.06592E+00 1.93495E+01 1.47395E+01
 -1       725-6.24985E+02-9.30098E+01 1.45679E+02 5.33944E+00-5.26420E+01-3.55479E+00
 -1       726-2.32998E+02-9.48454E+01 1.16712E+01-3.99783E+01-1.22009E+01-2.32141E+01
 -1       727-1.25288E+02-5.18293E+01 3.81328E+01-9.35443E+00 1.14412E+01 1.23331E+01
 -1       728-3.67489E+02-1.55280E+02 5.46263E+01-2.48690E+01 1.98060E+01-5.81588E+01
 -1       729-6.24118E+02-1.32020E+02 1.57425E+02-2.80287E+01 2.74286E+01-4.93311E+01
 -1       730-2.85263E+02-1.11957E+02 1.44319E+02-8.01115E+01-9.06546E+00-3.05505E+01
 -1       731-3.57484E+02-1.67419E+02 7.57056E+01-5.64588E+01-1.97116E+01 5.21227E+00
 -1       732-6.96179E+01-4.12762E+01 5.67833E-01 8.41462E+00 1.75492E+01-2.26840E+01
 -1       733-1.98131E+02-1.11538E+02-4.53700E+00-1.56417E+01-4.45536E+01-1.06737E+02
 -1       734-3.29750E+00 1.35795E+01 5.80104E+00 1.88122E+01 9.36917E+00 3.10535E+00
 -1       735-5.52393E+01-4.42003E+01 1.62377E+01-1.68471E+01 1.11174E+00 1.19455E+01
 -1       736 6.92529E+01 2.44969E+01-9.30695E+01 1.10195E+02 4.59380E+00-8.18992E+00
 -1       737-9.35557E+01-6.83385E+01 2.40777E+01-4.75493E+01 7.09571E+00-2.77004E+00
 -1       738-6.38039E+01-4.20435E+01 1.88054E+01-3.04263E+01 1.60938E+01-1.17963E+01
 -1       739-6.54253E+01-1.77340E+02 3.68817E+01-3.88074E+01 4.60902E+01 2.77995E+01
 -1       740-1.76530E+02-6.13945E+02 1.15843E+02-1.36204E+02-1.35104E+01-2.62791E+01
 -1       741-3.07945E+02-9.00732E+02 2.69365E+02-1.83820E+02 5.64925E+01-7.23217E+01
 -1       742-2.29378E+02-5.20438E+02 2.23594E+02-2.11275E+02 1.34178E+02 9.72297E+01
 -1       743-2.13605E+02-5.08264E+02 1.59749E+02-1.35192E+02-1.03605E+02-1.72291E+00
 -1       744-6.69407E+01-4.18700E+02 7.13183E+01-3.70768E+01 1.81075E-01 1.17348E+01
 -1       745-2.79088E+02-5.51895E+02 1.90765E+02-2.49532E+02 2.04131E+01-3.58762E+01
 -1       746-5.57919E+01-1.95363E+02 2.54297E+01-4.45681E+01 2.64027E+01-2.33290E+00
 -1       747-5.06679E+01-1.78125E+02 2.78533E+01-2.61335E-01-2.52536E+01-1.46087E+01
 -1       748-6.70652E+01-4.94038E+02 1.29610E+02-2.45687E+01-2.47213E+01-2.89474E+01
 -1       749-3.11410E+01-2.21454E+02 4.45147E+01-2.78103E+01 1.35679E+01-8.54100E-01
 -1       750-7.89099E+01-5.22656E+02 1.07689E+02-3.05614E+01 5.56642E+00 8.52937E+00
 -1       751-3.11592E+01-8.02741E+01 1.56813E+01 5.86930E+00-1.96778E+01-1.38662E+01
 -1       752-5.53602E+01-4.69816E+02 1.76223E+02-2.91401E+01 7.08050E+00-3.63610E+01
 -1       753-2.35617E+01-1.51160E+02 7.69036E+01-2.63702E+01 1.73848E+01-1.83878E+01
 -1       754-1.83693E+02-3.78075E+02 8.22305E+01 4.97824E+01-1.28169E+02 1.79476E+00
 -1       755-1.20447E+02-4.91166E+02 1.54752E+02 1.02749E+02-8.61481E+01 7.32943E+00
 -1       756-1.53534E+02-3.76709E+02 1.63501E+02 1.47744E+02-6.17541E+01 4.72013E+01
 -1       757-1.86282E+02-5.58699E+02 1.08819E+02 7.45652E+01-3.82667E-01 5.52623E+01
 -1       758-2.10652E+02-3.98985E+02 1.27109E+02 1.86997E+02 5.65555E+00-3.29832E+01
 -1       759-3.03059E+01-1.08431E+02 4.39457E+00 1.57900E+01-1.94790E+01-5.86996E+00
 -1       760-1.72883E+02-1.89607E+02 9.94403E+01 1.14064E+02-3.26890E+00-2.98894E-01
 -1       761-5.22744E+01-4.25016E+01 3.68444E+01 2.35408E+01 5.37726E+00-1.04165E+01
 -1       762-1.44012E+02-1.45701E+02 1.05038E+02 8.28825E+01 7.31698E+01-1.70503E+01
 -1       763-9.47893E+00-1.65745E+02-9.37298E+00 9.01113E+00-4.34202E+00 1.56637E+01
 -1       764 6.81077E+01-1.28737E+02-2.39983E+01-2.56175E+01-2.47597E+01 2.68051E+01
 -1       765-2.06617E+02-2.34968E+02 1.05895E+02 1.56967E+02-3.10262E+01-7.97869E+00
 -1       766-1.02979E+02-9.20398E+01 4.84884E+01 6.70482E+01-8.93897E+00-1.68966E+01
 -1       767-4.20397E+02-1.00733E+02 1.21854E+02 1.35945E+02 5.45668E+00-2.87055E+00
 -1       768-5.03282E+01-3.18014E+01 3.82656E+01 3.18196E+01 1.56995E+01-2.79147E+01
 -1       769-2.42718E+02-1.77689E+02 1.25809E+02 1.39205E+02 8.09673E+01-7.72633E+01
 -1       770-2.69177E+02-1.09970E+02 3.27011E+01 2.73108E+00 8.44637E+00 1.36235E+01
 -1       771-3.20016E+02-1.04634E+02 5.44745E+01 3.83520E+01-2.62901E-01-8.16053E+00
 -1       772-4.01612E+02-1.09071E+02 1.69177E+02 1.58318E+02 1.85103E+01-8.33115E+01
 -1       773-1.08608E+02-1.00994E+02 3.53769E+01 7.25563E+01 6.22566E+00-1.32942E+01
 -1       774-6.11635E+02-1.19394E+02 1.27971E+02 7.40305E+01 1.86426E+01-5.10340E+00
 -1       775-6.34035E+01-1.35657E+01 1.59248E+01-7.86854E+00-6.77289E-02-8.94528E+00
 -1       776-2.98353E+02-5.34649E+01 1.11107E+02 1.63876E+01 4.13096E+01-6.48922E+01
 -1       777-4.05487E+02-1.39982E+02 5.10666E+01 6.72760E+01 8.78874E+00 2.60213E+01
 -1       778-4.45569E+02-1.32105E+02 6.86106E+01 6.80593E+01-4.93269E+01 1.18181E+02
 -1       779-5.85101E+02-9.80271E+01 2.04005E+02 5.69027E+01-4.39165E+01 4.98666E+01
 -1       780-6.54012E+01-1.33331E+01 1.62450E+01-7.44240E+00-8.52545E-01-4.46335E+00
 -1       781-1.57323E+02-8.67823E+01 5.05817E+01-6.12132E+01-8.36131E+00 1.19426E+01
 -1       782-2.79393E+02-1.81716E+02 8.51789E+01-1.42430E+02-1.85527E+01 1.23326E+01
 -1       783-5.72513E+02-1.77775E+02 1.33730E+02-8.42100E+00-3.61698E+01 5.08591E+01
 -1       784-6.48253E+02-1.68094E+02 1.41530E+02-1.19034E+02-3.29533E+01 3.86933E+01
 -1       785-1.48093E+02-8.12321E+01 3.04487E+01-4.57178E+01-1.67814E+01 6.92086E+00
 -1       786-3.09118E+02-1.84456E+02 1.11865E+02-1.39009E+02 4.76838E+01 4.97157E+01
 -1       787-5.62079E+02-1.50844E+02 1.34866E+02-6.10949E+01 3.15533E+00-1.26168E+02
 -1       788-9.28596E+01-1.42763E+02 3.46368E+01-1.20477E+02-1.16978E+01 1.07301E+01
 -1       789-7.34673E+01 1.27215E+01 5.10436E+00 6.80071E+00-3.04876E+00-5.98730E-01
 -1       790-1.21150E+02-1.48788E+02 4.01897E+01-8.92387E+01-4.51934E+00 9.59561E+00
 -1       791-8.05377E+01-1.59584E+02-1.47919E+01-4.42195E+00 8.81064E-01 1.17478E+01
 -1       792-2.60017E+02-3.15511E+02 7.31957E+01-2.57193E+02-4.02343E+01 2.93201E+01
 -1       793-1.03623E+02-3.92382E+01 1.06520E+01-3.37642E+01-1.28225E+01 1.79262E+01
 -1       794 5.48508E+00 2.09112E-01 1.02001E+02 9.00751E+01 4.32211E+01 4.27186E+01
 -1       795 3.24591E+01-8.01062E+01-4.38194E+00 1.14743E+02 3.06728E+01 2.45394E+01
 -1       796-3.26212E+02-4.30038E+02 1.49092E+02-2.45375E+02-2.32510E+01 3.48727E+01
 -1       797-1.82924E+02-3.05840E+02 1.10712E+02-7.74602E+01 1.62557E+01 7.76560E+00
 -1       798-6.61500E+00 3.39126E+01 3.69853E+00 3.63183E+01-4.99016E+01-5.64157E+01
 -1       799-1.82881E+02-2.98135E+02 1.48009E+02-1.30643E+02-9.59663E+01-9.16714E+01
 -1       800-1.76548E+02-4.76666E+02 2.48991E+02-1.60795E+02-1.11985E+02-2.40886E+01
 -1       801-1.18943E+02-2.23148E+01 6.32418E+01-2.28508E+01-5.98998E+01-4.18381E+01
 -1       802-1.75076E+02-3.81507E+02 5.69085E+01-4.04844E+01 1.77625E+01-1.54721E+01
 -1       803-6.68195E+01-5.65141E+02 1.62508E+02-1.32996E+01-1.31874E+00 2.54383E+01
 -1       804-5.47865E+00-1.34350E+02 1.55445E+01 1.63290E+01-1.27333E+01 1.78910E+00
 -1       805-6.82016E+01-4.39155E+02 8.01935E+01 6.19356E+00-8.49088E+00 8.88646E+00
 -1       806-6.32551E+01-3.33038E+02 2.73403E+01 1.69091E+01 1.42109E+01-1.45875E+01
 -1       807-7.99054E+01-7.96343E+02 1.83040E+02-6.57845E+00-1.67481E+00 6.67002E+01
 -1       808-1.13700E+01-1.85589E+02 2.36472E+01 1.51592E+01-9.18157E+00 6.76337E+00
 -1       809-4.47774E+01-4.01104E+02 1.33966E+02 2.69564E+00-4.69445E+01-2.16573E+01
 -1       810-4.18877E+01-3.66761E+02 8.79461E+01 2.14205E+01-1.81192E+01-2.95513E+01
 -1       811-3.33890E+01-5.21809E+01 5.10938E+00 1.99233E+01-7.33744E+00-1.53611E+00
 -1       812-1.38379E+02-2.50298E+02 7.70603E+01 6.74372E+01 1.57817E+01-3.34246E+01
 -1       813-1.83625E+02-4.17327E+02 1.30255E+02 6.38343E+01 9.51822E+01 4.20646E+00
 -1       814-1.08754E+02-5.09204E+02 9.39748E+01 1.06929E+02-1.26595E+01 1.08457E+01
 -1       815-5.29875E+01-7.96190E+01-5.62414E-01 5.11981E+01 6.30039E+00-3.40162E+00
 -1       816-5.85177E+01-4.56828E+00 8.23339E+00 1.22839E+00 4.18037E+00 4.00744E+00
 -1       817-1.21054E+02-3.26996E+02 1.14893E+02 1.08274E+02-5.39036E+01-3.17637E-01
 -1       818-1.31509E+02-3.89653E+02 7.49045E+01 5.67325E+01 4.58241E+00-1.94298E+01
 -1       819 3.25966E+01 1.48102E+01-9.76675E+00-4.16663E+01-2.17134E+00 1.20456E+01
 -1       820-2.89929E+01 1.95629E+01 2.39564E+01-3.60931E+01 3.24560E+00-2.89601E+00
 -1       821-9.57575E+01-1.06467E+02-7.78363E+00-3.12404E+01 5.97207E+00 2.72139E+00
 -1       822-6.82157E+01-2.95606E+01 4.05606E+00 2.04316E+01-3.63448E+00 4.64701E+00
 -1       823-6.95906E+00-2.24327E+01-3.41364E+00-6.32572E+00 8.99313E+00 2.15358E+01
 -1       824-6.68577E+01-4.34430E+01-1.01515E+01 8.70667E+01 7.70679E+01-6.04864E+01
 -1       825-1.65005E+02-8.87271E+01-2.63012E+01 1.35907E+00 6.39450E+01-1.04756E+02
 -1       826-1.76076E+02-6.36876E+01 5.98041E+01 9.21262E+01-4.24151E+01 5.52622E+01
 -1       827-4.31337E+02-2.08898E+02 1.84619E+02 2.09067E+02-8.78706E+01 1.07458E+02
 -1       828-5.51121E+02-1.17691E+02 9.34859E+01 6.99810E+01 1.67991E+01 3.26624E+01
 -1       829-6.95519E+02-1.86332E+02 2.60262E+02 2.15491E+02 1.55620E+01 1.62252E+02
 -1       830-2.11060E+02-1.13266E+02 6.05442E+01 1.18452E+02-3.18927E+00 1.47627E+01
 -1       831-9.39368E+02-1.80073E+02 2.45006E+02 1.62158E+02-1.59289E+01-4.33328E+01
 -1       832-6.77871E+02-1.75142E+02 9.50843E+01-9.33815E-01-2.38581E+01-7.34262E+01
 -1       833 5.19554E+01-2.13346E+01-4.02254E+01 3.93151E+00 5.34727E+00-3.90308E+01
 -1       834-2.64355E+02-1.27080E+02 2.10197E+00-3.36866E+01 2.37299E+01-3.22967E+01
 -1       835 1.11906E+01 9.44251E+00-1.13962E+01 1.24283E+01 1.74884E+00 3.46140E+00
 -1       836-7.01501E+01-5.48531E+00-2.20267E+01-5.28178E+00 8.20444E+00 4.91383E+00
 -1       837 1.24980E+01 4.44397E+01-5.05571E+01-4.26173E+01 1.32800E+00 8.60356E+00
 -1       838-6.79278E+01-1.01159E+01-2.04265E+01-4.83857E+00 1.29202E+00 1.90949E+01
 -1       839-7.58432E+01-2.22551E+02-4.98303E+01-3.60196E+01-2.14145E+01 2.05746E+01
 -1       840-7.65474E+00 7.55133E+01-5.92584E+01 1.97180E+01-1.88074E+00 7.20347E+00
 -1       841-1.81343E+01-8.20824E+00-2.56637E+00-8.82223E-01-1.16425E+00 2.24576E+00
 -1       842-3.31933E+01-7.14083E+00-3.09289E-01-1.35441E+01-1.47503E+01 1.25835E+01
 -1       843 2.30666E+00 8.47330E+01-6.82515E+01 1.63073E+01 3.03095E+01 1.58019E+00
 -1       844-7.20415E+01-2.48489E+02 2.50548E+01-8.35312E+01-1.67365E+02-7.23516E+01
 -1       845 1.06773E+01 6.32063E+01-4.57862E+01-3.10890E+00 8.56214E+00 9.40000E+00
 -1       846-1.90381E+01-1.62122E+02-5.85168E+01-1.72110E+01 4.58825E+01 4.10818E+01
 -1       847-2.44940E+00-3.67422E+01-8.66797E+01 1.20292E+00 1.85031E+01 1.19787E+02
 -1       848 2.73365E+01 5.99299E+01-4.65451E+01 3.14314E+01-1.64948E-01 1.07340E+01
 -1       849 7.58520E+01 1.40608E+02-1.22818E+02 9.23158E+01 5.65919E+01 3.91181E+01
 -1       850-1.65150E+02-3.33547E+02-1.18033E+01-1.33952E+02-6.66630E+01 1.05236E+01
 -1       851-3.13707E+01-2.77252E+01-4.50226E+00 1.39053E+01-2.11995E+00 8.25897E+00
 -1       852-8.85576E+01 1.79231E+00-8.72818E+00 4.54104E+01 3.28255E+00-1.59529E+01
 -1       853 3.67835E+00-3.59213E+01-2.76888E+01 1.31533E+01-1.58076E+01-4.16953E+01
 -1       854 9.27664E+01 1.05790E+02-4.87128E+01 8.18605E+01-1.00115E-01-1.24416E+01
 -1       855-2.12597E+01 3.65124E+00-1.41880E+01 4.95545E-01-3.44406E+00 6.59719E+00
 -1       856-5.99927E+01 1.13292E+01-9.42083E+00 1.49962E+01-1.07569E+00 1.82692E+01
 -1       857-3.53867E+01-2.02853E+01 3.60354E-01 1.12091E+01-2.23431E+00 5.44567E+01
 -1       858 3.84973E+01 5.67694E-01-1.38260E+01 1.98923E-01-2.44530E+00 5.28347E+00
 -1       859 5.92465E+01-1.11532E+01-8.21671E+01-2.99774E-01 3.29613E+00-1.57078E+00
 -1       860-3.31345E+02-5.99331E+01-4.89442E+00 6.11276E+00-1.72548E+01-2.84747E+01
 -1       861-7.28485E+01-6.98112E+01-5.69249E+01 1.24936E+01 7.02859E+01 5.58135E+01
 -1       862-9.16862E+00 2.94266E+01-1.62531E+01-1.12848E+01 9.84801E+00 1.40087E+01
 -1       863-1.01888E+02-1.45486E+02-2.89525E+01 4.93281E+01-5.47439E+01-1.13321E+01
 -1       864-7.06293E+00 7.13515E+01-1.49576E+01 3.06590E+00-4.76045E+00-1.51113E+01
 -1       865-5.29172E+01 6.60789E+01-6.21807E+01-3.74991E+01-5.18318E+01 6.06992E+01
 -1       866-1.83323E+01 9.57294E+01-6.26807E+01-1.36651E+01-3.51067E+00 1.54408E+01
 -1       867-1.34863E+02-7.80976E+01 5.05589E+01-6.11008E+01-3.00324E+01-3.86003E+01
 -1       868-1.28727E+01 1.95669E+01 1.05676E+01 1.35061E+01-3.07975E+01-2.77877E+01
 -1       869-2.43302E-01 8.28666E+01-6.87923E+01 4.35853E+00-6.04306E+00 1.50706E+01
 -1       870-4.87179E+01-1.84656E+02-6.73408E+01 1.29578E+00-4.97201E+01 5.59988E+01
 -1       871 4.11708E-01-6.71510E+01-4.85889E+00 1.86535E+00 5.65041E+00 1.43897E+01
 -1       872-3.93331E+00-3.54788E+01-7.88427E+00 1.64210E+00 3.09172E+00 7.04083E+00
 -1       873-1.03923E+02-5.17927E+01-3.71264E+01 7.13550E+01-2.25344E+01-3.63155E+00
 -1       874 7.21818E+01 4.81632E+01-3.18378E+01-3.85685E+01-7.33224E+00 1.76359E+00
 -1       875-1.06679E+02-9.00156E+01 1.18995E+01-7.46356E+01-3.14840E+01-7.66187E+01
 -1       876 2.84141E+01-4.35715E-02-2.09062E+01 8.63359E+00 4.13311E+00-1.32371E+00
 -1       877-7.51537E+00 8.27469E+00-1.21589E+00-1.50563E+01-6.95611E+00 5.63965E+00
 -1       878-4.32789E+00-4.09414E-01-2.28349E+00-7.58396E-01 6.90027E-01 7.11338E+00
 -1       879 2.12403E+01 3.80954E+01-5.06739E+01-7.35002E+00-4.30756E+00-3.43803E+00
 -1       880-1.88684E+01-3.30941E+02-1.95513E+01-7.00963E+00 5.02403E+01 1.34661E+01
 -1       881-8.08107E+01-8.16715E+01-1.95586E+01-6.31932E+01-5.16693E+00-3.54842E+01
 -1       882 4.16243E+01 9.56911E+00-2.94966E+01 1.95166E+01 1.09394E+00-7.90178E+00
 -1       883 6.95040E+01-2.20213E+00-5.55921E+01-2.06258E+01-3.29324E+00 3.07618E+01
 -1       884-9.31443E+01-6.68551E+01 2.26038E+00 5.76152E+01 3.20552E+01-3.60642E+01
 -1       885 1.28294E+01 8.51186E+01-5.66078E+01-6.37030E+00 5.14873E+01-3.20758E+00
 -1       886-4.63448E+01-2.54575E+02 1.44335E+01 4.07603E+01-3.60755E+01 4.69917E+01
 -1       887 4.92186E+01 1.61638E+01-3.10181E+01 1.43089E+01-1.44344E+01-2.08331E+01
 -1       888-7.96992E+01-6.36646E+01 9.68950E+00-7.07793E+01 1.08077E+01 4.26663E+01
 -1       889 1.32461E+01 4.89377E+01-4.13994E+01-2.85222E+01-3.41464E+00 7.69806E+00
 -1       890-8.97466E+01-1.63369E+02 1.31992E+01 6.81586E+01 1.28168E+02-4.86256E+01
 -1       891-1.15869E+02-3.13708E+01-3.25898E+01 3.00825E+01 4.01202E+01-4.80737E+01
 -1       892 7.32906E+01 4.27626E+00-5.65970E+01-1.71401E+01 1.47255E+01-1.45374E+01
 -1       893-7.52082E+01 1.52932E+02-9.71202E+01 3.94695E+01 9.31172E+01-1.23460E+02
 -1       894 1.25035E+01 1.50236E+02-5.46962E+01 4.36906E+01 1.32761E+01-1.19651E+01
 -1       895-5.35399E+01-6.28688E+01 1.29838E+01-2.62605E+01-5.73546E+00 9.52522E-01
 -1       896-6.44860E+01-5.92410E+01-6.42900E+00-5.88328E+00-4.05903E+01-1.34528E+01
 -1       897-2.28701E+02-1.62631E+02 7.62151E+00-1.19603E+01-1.70184E+01 3.93187E+01
 -1       898-8.33341E+01-1.08571E+02-1.34573E+01 5.23964E+00-3.07623E+01-1.00264E+01
 -1       899 3.35809E+01 5.06688E+01-4.35603E+01-4.59108E+01 3.09077E+00-4.53509E+00
 -1       900-4.27181E+01-5.74414E+01-1.28107E+01 9.51541E+00 2.08840E+00-1.24846E+00
 -1       901-1.98527E+00 1.43162E+01-2.01584E+01-1.68120E+01-3.70186E-01 1.02620E+00
 -1       902-1.17361E+02-6.26879E+01-1.32725E+01 4.06742E+01-2.16130E+01 1.61927E+01
 -1       903-8.77498E+00-5.01048E+01 4.41512E-01-3.22702E+01 5.67853E+01 3.93280E+00
 -1       904 2.10774E+00 1.02371E+01-5.96189E+00-7.81578E+00 6.11128E+00-1.09121E+00
 -1       905-9.05222E+00 8.16477E+00-1.16796E+01-4.73310E+00-4.06823E+00 1.57806E+00
 -1       906-3.74857E+01 2.41304E+01 1.34891E+00 1.16480E+00-3.42162E+00 9.56342E+00
 -1       907-9.32766E+01-5.47620E+01 6.64889E+00 4.72458E+00 2.34787E+01 4.66810E+00
 -1       908-9.47168E+01-1.56972E+02 9.54986E+01 2.15483E+01 2.36296E+01 1.75418E+01
 -1       909 1.91793E+00 7.83697E+01-2.83769E+01 3.44850E+00-5.17573E-01-6.81884E+00
 -1       910-4.05292E+01-1.15299E+02-1.22994E-01 3.36654E+00-3.98458E+01-1.82250E+00
 -1       911 5.37070E+01 3.71466E+00-4.39463E+01 1.27308E+01 5.73740E+00 2.04812E+01
 -1       912-1.02082E+02-9.34084E+01-1.22381E+01-7.64022E+01-6.08877E+00-3.87676E+01
 -1       913-3.87920E+02-9.80125E+01-6.14471E+01-1.98806E+02 9.71907E+01-1.75199E+01
 -1       914-6.57368E+01-6.28159E+00-1.19259E+01-3.26439E+01 9.00622E+00-7.43141E+01
 -1       915-9.99473E+01-4.89679E+01-2.73399E+01 5.87861E+00 3.53694E+01-1.28058E+01
 -1       916 8.95080E+01 5.20945E-01-3.68820E+01 8.37975E+00 1.08361E+01-3.33120E+00
 -1       917-1.93605E+02-2.34731E+01-7.69166E+01 8.06424E+01-1.05769E+02 2.99244E+01
 -1       918 2.36467E-02 8.02387E+00-2.60633E+01-4.60309E+00-1.04954E+01-4.52964E-01
 -1       919 1.66211E+01-2.03885E+01 4.39104E+00 5.11409E+00-1.70399E+01 2.22325E+01
 -1       920 1.42873E+01-5.08206E+00 5.28363E+00 3.13269E+00-4.05112E+01 6.35202E+01
 -1       921 1.23714E+02 4.92534E+01-8.99530E+01-5.07554E+01 2.93940E+01-3.43614E+01
 -1       922-2.00273E+02-1.49811E+02 2.42616E+01 1.32488E+02-4.71914E+01 1.63492E+02
 -1       923-6.50824E+00-1.03470E+00-9.33591E+00-8.83816E+00-2.41440E+00 7.77252E+00
 -1       924-4.73697E+01-4.78590E+01-1.87600E+01 2.36767E+00-2.51061E+01 2.01127E+01
 -1       925-6.44911E+01-7.44090E+01-1.82959E+01-4.18770E+01 2.17661E+01 1.38136E+00
 -1       926-1.13038E+02-2.07695E+02-2.60847E+01-1.14046E+02 1.14792E+02 5.72933E+01
 -1       927-2.08510E+01-6.88597E+01 9.54219E+00-3.36374E+00 3.88015E+01-1.94577E+01
 -1       928-9.32305E+00-1.42180E+01-6.09332E+00-5.70488E+00 1.16825E+01-3.33469E+00
 -1       929-9.13273E+01-9.53944E+01-2.19263E+01-7.52846E+01-6.85481E+00-2.27621E+00
 -1       930-2.21208E+02-2.76169E+02-2.53724E+01-2.37670E+02 2.22492E+01 3.73498E+01
 -1       931-1.12288E+02-2.25885E+02-1.07784E+01 3.32620E+01-1.77081E+01-1.39364E+01
 -1       932-5.06154E+01-1.57059E+02-5.06773E+00 1.35172E+01 1.55535E+01-4.04086E+01
 -1       933-1.10455E+01-1.59797E+01 4.62606E+00-1.82488E+00 6.16675E+00 2.76314E+01
 -1       934-1.23192E+02-7.26895E+01 5.25094E+01-2.81883E+01-5.15714E+00 5.78944E+01
 -1       935-1.53767E+01-8.27076E+00-9.20942E-01 3.83272E+00 8.38665E-01 3.26967E+00
 -1       936-5.66752E+01-2.23873E+01-8.34259E+00 1.64996E+01-5.22693E+00 1.70531E+01
 -1       937-1.32744E+01-2.33116E+01-3.97690E+00-1.13226E+02-5.44627E+00 6.27970E+01
 -1       938-3.68426E+00-2.19044E+01-2.14307E+01-3.55378E+01 3.22809E+00 1.08590E+01
 -1       939 1.73172E+01 4.26791E+01-2.28864E+01-2.69144E+01 5.28940E+00-1.01154E+01
 -1       940-5.70373E+01-6.50994E+01-2.53625E+01 2.73343E+01 1.83687E+01-2.67617E+01
 -1       941 4.35786E+00 7.18574E-01-4.09136E+01 1.81864E+01-3.66711E+01-4.82683E+01
 -1       942 7.12231E+01 7.94924E+01-3.86499E+01 6.06144E+01-6.88214E+00-1.27315E+01
 -1       943 4.45614E+01-1.44043E+01-3.09955E+01-1.12266E+01 1.16935E+01-2.28567E+01
 -1       944-1.82603E+02-7.76414E+01-3.87625E+01 2.04357E+01 4.08334E+01-1.39137E+01
 -1       945 5.34261E+01-6.17243E+01-6.65156E+00-4.31777E+00 1.53708E+01-1.88002E+01
 -1       946 3.17456E+01-1.53204E+01 1.87992E+00-6.68321E+00 5.90474E+00-6.10648E+00
 -1       947-1.20263E+02-3.07314E+01-1.10263E+02 4.10086E+01 1.12358E+02 9.07176E+01
 -1       948 5.28715E+01 1.95794E+01-4.92669E+01-1.61289E+01 4.90586E+00 1.16057E+01
 -1       949-4.92784E+01-2.68747E+01-2.78484E+01-2.63914E+00 3.34737E-01-9.32431E-01
 -1       950-2.48035E+02-6.64227E+01-7.12010E+00 3.87709E+00-2.20590E+01-5.88636E+01
 -1       951 1.80415E+01 4.25369E+01-4.13104E+01-4.70674E+01 2.40382E+00-4.27807E+00
 -1       952-4.79381E+01-5.13049E+00 1.03614E+01-8.61717E+00 5.59108E+01-2.53524E+01
 -1       953 4.91917E+00 1.66458E+01-3.09582E+01-2.51335E+01-1.17752E+00-4.86290E-01
 -1       954-7.20247E+01-5.58781E+01 5.81577E+00 1.98861E+01-9.47776E+00 1.89328E+01
 -1       955-2.14818E+02-1.16025E+01-6.55827E+00 3.14479E+01 4.83829E+01-4.78144E+01
 -1       956 1.09823E+02 2.36730E+01-3.82334E+01-2.52234E+00 2.45395E+00 7.21947E+00
 -1       957 5.95235E+01 3.85575E+00-5.13176E+01 9.74418E-01 1.77024E+00 3.52838E+00
 -1       958-1.83429E+02-3.52059E+01-1.55825E+01-5.78692E+00-1.35083E+01 6.04347E+01
 -1       959-1.02036E+01-7.28428E+01-5.51616E+01-2.19222E+01-4.35763E+01 1.34690E+02
 -1       960 4.01490E+01-8.58398E+00-1.52218E+01 4.39201E+00-8.80650E+00 1.06533E+01
 -1       961 2.68941E+01 2.42398E+01-2.33280E+01 2.08864E+01 3.08947E-02-3.15015E+00
 -1       962-6.45671E+01 3.17342E+00 1.29478E+01 3.84973E+00 4.42266E+01 8.30275E+01
 -1       963-2.08940E+01-9.60316E+01 4.84934E+00 2.63034E+01-3.91586E+01-7.76170E+00
 -1       964-5.41475E+00-5.00406E+00-4.35751E+00 1.31358E+01-5.28474E+00-1.47098E+00
 -1       965 4.99914E+01-5.86663E-01-2.90793E+01-1.74856E+01-5.53781E+00-3.77350E+00
 -1       966-1.54944E+02-5.15836E+01-2.19001E+01 3.63878E+01-3.23141E+01 6.52066E+01
 -1       967-1.08765E+02-1.02762E+02 1.18420E+01 7.18119E+00 1.25903E+01 2.14267E+01
 -1       968-2.08709E+02-2.34798E+02 8.59873E+00 9.52154E+01 1.97103E+01 3.23608E+01
 -1       969-4.08928E+01-1.35637E+02-4.79818E+01-4.22873E+01 2.48296E+01 4.39205E+01
 -1       970 2.85976E+01 4.13011E+01-2.73561E+01 2.94976E+01 2.97599E+00 1.03556E+01
 -1       971 3.58529E+01-5.91295E+00-7.53175E-01-3.18842E+01 2.49329E+00-4.18717E+00
 -1       972 6.60808E+01 2.02703E+01 2.78877E+00-6.33142E+01 1.88531E+01-6.65815E+00
 -1       973-1.20343E+01 2.18997E+01-1.16928E+01-2.76684E+01 1.63881E+01-1.24796E+01
 -1       974 1.25627E+01 2.11546E+01-2.71179E+00-1.77816E+01 4.26876E+00-3.50878E+00
 -1       975 2.46011E+00 8.91140E+00-8.67724E+00-1.61055E+01-2.89327E+00-6.23328E+00
 -1       976-4.94422E+01-1.85283E+01-1.06968E+01-5.24030E+00 3.63321E+00-6.01087E+00
 -1       977-2.67677E+01-1.27926E+02 6.79341E+00-2.06418E+01-5.89269E+01-4.00907E+00
 -1       978-3.24449E+00 2.05081E+01-1.47764E+01-3.08192E+00 2.65929E+00 2.41136E+00
 -1       979-1.99256E+01-2.25917E+01-1.36643E+01-1.70884E+01-6.82981E-01-3.82099E+00
 -1       980-5.75796E+01-9.73388E+01-2.53571E+01-3.63795E+01-1.93901E+01-2.02773E+01
 -1       981-4.97120E+01 1.50877E+01-2.53232E+01-1.78414E+01-4.71913E+00-9.30025E+00
 -1       982-6.47162E+01-1.37196E+01 6.16237E+00-1.43825E+01-1.43821E+01-1.69914E+01
 -1       983-7.19900E+01-1.75849E+02-4.36346E-01 4.71970E+01 4.09305E+01-2.38494E-01
 -1       984-3.14428E+01 1.51638E+01-3.20855E+01 2.60604E+01-3.51613E-02-1.96763E+00
 -1       985 3.75624E+01-1.58161E+01 1.20133E-01 6.10320E+00-1.03798E+01 4.45430E+01
 -1       986 3.18366E+01-8.09309E+00-4.07467E+00-4.50313E+00 6.91424E-01 6.27444E+00
 -1       987 1.80602E+01 3.03275E+00-8.78791E+00 9.73442E+00-6.32034E-01-1.43159E+00
 -1       988 2.90886E+01 1.22232E+01-1.17931E+01 1.62277E+01-1.47147E+01-5.75837E+00
 -1       989-2.30657E+01-2.50537E+01-8.37236E+00 2.63745E+00 4.59280E+00-2.61078E+01
 -1       990 9.97222E+00-5.33083E+00-4.28119E+00 3.42385E-01 8.21575E+00-6.96639E+00
 -1       991-6.66852E+01-3.80113E+01-4.15728E+01-6.55055E+01-1.98977E+01-1.70617E+01
 -1       992-1.97767E+02-2.04378E+02-4.63275E+01-2.22648E+02-4.37545E+01-2.33348E+01
 -1       993 1.26890E+01-1.57117E+01-3.70745E+01-3.23840E+01-1.92688E+01 2.50185E+01
 -1       994-9.80005E+01-2.06928E+02 2.26129E+00 3.87619E+01 2.80557E+01 1.29161E+01
 -1       995-2.58508E+01-9.62544E+01-6.59595E+00-5.84754E+01-1.74309E+00 1.80726E+01
 -1       996-1.00821E+02-2.29984E+02-1.63435E+01-1.71779E+02 4.62372E+01 6.75208E+01
 -1       997-7.95914E+00-2.79499E+01 8.79809E+00 1.77590E+01-4.35240E+00 3.87497E+00
 -1       998 7.96688E+00-2.45722E-01-1.30541E-01-3.31340E+00 3.01488E+00-6.39469E+00
 -1       999 1.06902E+01 6.93177E+01-2.48355E+01-1.89793E+00 5.10502E+00-9.59657E-01
 -1      1000-7.17985E+00-8.61365E+01 3.89047E-01-1.66150E+01 3.53102E+01 1.30141E+00
 -1      1001 7.08159E+01 3.35859E+01-4.69620E+01-2.94912E+01 1.52782E+01-1.60536E+01
 -1      1002-1.38016E+02-9.17615E+01 2.60821E+01 9.41319E+01-5.13324E+01 1.23332E+02
 -1      1003-1.00888E+02 1.90654E+01-2.48099E+01 3.65423E+01-5.80422E+00-4.47267E+00
 -1      1004-2.20238E+02-7.79047E+01 3.72178E+01 9.97534E+01 1.18207E+02-7.51831E+01
 -1      1005-1.66096E+02-1.59604E+02 1.20497E+01-4.69816E+00-1.12126E+00-1.13922E+02
 -1      1006-3.09499E+01-8.39125E+01-5.60887E+00-6.07391E+00-2.13392E+01 1.21547E+00
 -1      1007-1.73674E+00 7.55663E+01-8.72602E+01 6.63722E+00 2.08423E+01 1.04188E+01
 -1      1008-5.61111E+01-3.22374E+02-4.52080E+01-1.80403E+01 1.24800E+01 5.20688E+01
 -1      1009-6.40962E+00 1.19666E+01-2.06216E+01-1.69970E+01 1.04011E+00-9.70077E+00
 -1      1010-3.75829E+01-4.88422E+01-1.96627E+01 2.97359E+00 1.16199E+01-2.05433E+01
 -1      1011 7.05110E+01 1.01604E+01-4.88523E+01 2.89811E+01 6.39432E+00 1.84168E+01
 -1      1012-1.35188E+02-1.00269E+02-5.98879E+00-6.80865E+01-3.03336E+01-8.69778E+01
 -1      1013 9.54736E+01-1.73687E+00-3.03207E+01 5.26863E+00 6.05904E+00-8.84602E+00
 -1      1014-9.87195E+00-2.92746E+01-3.67019E+01 1.17907E+01 1.09457E+01-3.36590E+01
 -1      1015-1.07050E+02-1.06947E+02-2.45328E+01-7.84053E+00 1.86515E+01-1.36266E+00
 -1      1016-1.91468E+02-1.40432E+02 1.75597E+01 7.07265E+00 4.88866E+01 1.38918E+01
 -1      1017 6.83573E+01 6.34354E+00-5.55238E+01 6.34262E+00-1.37647E-01 4.42203E+01
 -1      1018-2.30013E+02-6.20370E+01 3.19694E+01-1.20057E+01-2.70771E+01-2.87226E+01
 -1      1019 1.77135E+01-2.14730E+00-3.53193E+01-1.24691E+01 2.47939E+00-4.20896E+00
 -1      1020-1.42090E+02-1.99549E+01-8.68130E-02-1.85954E+01 9.61061E+00-3.00066E+01
 -1      1021-1.22656E+01-3.00650E+01-1.80665E+01 5.61637E+00 4.03340E+01-1.43746E+01
 -1      1022 6.44009E+01 5.09130E+01-2.72770E+01-4.32581E+01 6.67388E+00 3.49747E-01
 -1      1023-6.66577E+01-1.77229E+02-2.01187E+01-3.30245E+01-3.53801E+00 1.80649E+01
 -1      1024-2.03951E+02-1.97965E+02-9.65098E-03-1.94219E+01-6.42757E+01 1.11322E+02
 -1      1025-1.82948E+01-6.01513E+01-3.88789E-01-1.25181E+01 4.83050E+01-1.10390E+00
 -1      1026 2.93719E+00 4.58609E+01-1.74523E+01-9.85899E-01 5.87314E+00-3.93674E+00
 -1      1027-7.07771E+01 2.37924E+01 1.06235E+01 2.65017E+01 3.72374E+00-8.53169E+00
 -1      1028-2.18246E+01 9.25051E+00 1.61211E+00 7.73445E+00-6.63354E+00-1.87398E+00
 -1      1029-5.24896E+01-2.76959E+01-2.84737E+01-4.15567E+01-9.12532E+00-1.72075E+01
 -1      1030-2.15465E+02-1.52182E+02-4.56936E+00-1.83163E+02-3.38634E+00-2.74888E+01
 -1      1031-2.57068E+01-7.89497E+01-1.72744E+01 1.14992E+01 8.53276E+01 4.40167E+01
 -1      1032 1.19882E+01 1.17141E+02-3.47115E+01 3.59540E+01-2.37166E+00 9.96963E+00
 -1      1033 6.48018E+01 3.55140E+01-5.57844E+01 3.60311E+01-3.34872E+01-4.04721E+01
 -1      1034-9.68565E+01-5.38396E+01 1.05752E+01-3.74272E+01-4.96042E+00 2.80396E+01
 -1      1035 6.50154E+01-3.52970E+00-2.05467E+01 2.06562E+01-6.36619E+00 4.38568E+01
 -1      1036-2.57573E+02-8.48602E+01 1.84445E+01-3.28030E+01-4.82321E+01-5.28088E+01
 -1      1037-2.79448E+02-1.71789E+02 2.61866E+01 1.28634E+01 5.22755E+01 1.12718E+02
 -1      1038 3.89265E+00-4.16738E+01-5.14370E+00 9.77203E+00 2.08825E+01-8.91001E+00
 -1      1039-8.72241E+01-7.36844E+01-1.35133E+01 9.88227E+00 4.58737E+00 1.00344E+00
 -1      1040-2.39074E+02-9.40773E+01 1.13737E+01 4.43666E+01-3.68028E+01 1.15337E+01
 -1      1041 8.01246E+01-3.68848E+00-6.08857E+01 8.64427E-01 1.40587E+01-2.61236E+01
 -1      1042-1.83672E+02-6.89614E+01-7.90207E+01 4.52160E+01 7.02850E+01-9.27918E+01
 -1      1043 1.37088E+02-1.19734E+01-7.91546E+01-1.11470E+01 2.25653E+01-3.39736E+01
 -1      1044-1.50431E+02-8.87194E+01-9.07030E+01 2.83124E+01 9.41382E+01-5.62802E+01
 -1      1045-9.32526E+01-1.12582E+02-3.50447E+01 6.85028E+01-1.07189E+01 6.98107E+01
 -1      1046-3.10689E+02-2.21723E+02-1.59269E+01 9.67714E+01 1.98610E+01 1.55444E+02
 -1      1047-2.57463E+01-3.05097E-01-1.59024E+01 3.94108E+00 2.98540E+00 7.96130E+00
 -1      1048-4.76717E+01-1.52194E+02-4.25176E+00-8.21836E-01-3.01189E+01 1.43155E+01
 -1      1049 3.79875E+01 1.79809E+02-8.94149E+01 2.57233E+01 5.64884E+01 1.05887E+01
 -1      1050-5.90415E+01-2.73047E+02 4.05346E+01-5.76280E+01-1.94601E+02-8.53887E+01
 -1      1051 2.78764E+01 3.55271E+01-4.26382E+01 3.92383E+01-9.97506E+00-9.49215E+00
 -1      1052-1.18605E+01-1.04648E+02 1.89262E+01-8.47852E+00 1.19499E+02 4.95407E+01
 -1      1053-2.96576E+01-7.88257E+01 9.76976E-01-1.37578E+01 7.11588E+00-2.79747E+00
 -1      1054-6.31906E+01-1.42735E+02 1.12314E+01-1.65275E+01-1.06309E+01-4.66661E+01
 -1      1055-1.59250E+02-2.05190E+02-3.72175E+00-4.93979E+01-9.73678E+00-2.29278E+01
 -1      1056-6.61672E+01-1.19730E+02-9.02431E+00-2.97417E+01-5.55978E+01-8.00093E+00
 -1      1057-7.95009E+01-1.38125E+02-3.28267E+01-1.94363E+01-1.28982E+01-4.17864E+01
 -1      1058-2.92858E+02-4.06484E+02-2.96799E+01-8.10676E+01-2.65578E+01-1.42362E+02
 -1      1059-1.21419E+02-4.98420E+01 2.71998E+01 8.30477E+00-5.36183E+01 1.22159E+02
 -1      1060 4.52632E+01 3.05291E+01-3.95586E+01-4.46156E+01 1.44361E+01-7.35351E+00
 -1      1061-2.53183E+01-1.17543E+02-1.75737E+01 2.28185E+01-1.44011E+01-2.41989E+01
 -1      1062 1.81863E+00 8.06420E+01-5.45976E+01-1.51802E+01-1.04407E+01-8.93235E+00
 -1      1063-1.60573E+01-8.31915E+01-4.03011E+00 7.23898E+00-2.44386E+01-1.21311E+01
 -1      1064-1.65368E+01-1.58460E+01 2.69810E+00 3.52241E+00-1.28368E+01 6.97790E+00
 -1      1065-1.91376E+02-1.21148E+02-2.07908E+01-4.13465E+01-3.19132E+01 1.74060E+01
 -1      1066-2.90581E+02-2.61422E+02-6.50549E+01-1.05211E+02-1.59678E+02-9.69942E+01
 -1      1067 7.85698E+00 2.74475E+01-4.69537E+01-1.45458E+01 7.69732E+00-1.06505E+00
 -1      1068-4.46377E+01-3.16190E+02 1.63549E+01 3.68329E+01-1.12332E+02 4.90280E+01
 -1      1069-5.69468E+01-4.73289E+01-2.52529E+01 3.82607E+01 3.27901E+01-8.78634E+01
 -1      1070-1.34191E+00 1.84199E+01-1.08684E+01-5.23655E+00 5.23430E+00-1.39513E+01
 -1      1071-2.91891E+00-1.12388E+01 7.65120E+00-2.91101E-01 1.10457E-01 6.95630E+00
 -1      1072-3.80847E+01-1.85245E+01 1.73492E+01 5.90049E-01-4.46578E+01 2.48938E+01
 -1      1073 1.10738E+01 2.20950E+01-2.59330E+01-1.28064E+01-1.44727E+01 1.20827E+01
 -1      1074-7.01008E+01-1.15078E+02 4.67807E-01 6.58155E+01 2.69789E+01 2.80744E+00
 -1      1075 6.12841E+01 2.06969E+01-2.01153E+01 3.32286E+01-5.47143E+00 3.97379E+00
 -1      1076-2.32940E+01-1.55693E+01-3.30615E+00-2.49155E+00 2.56143E+01 6.85726E+01
 -1      1077-9.20314E+01-2.87089E+01-2.05096E+01 2.27596E+01 6.93356E+00-2.27081E+00
 -1      1078-2.96810E+02-1.66041E+02-1.16775E+01 4.56684E+01 6.06452E+01 7.85162E+00
 -1      1079-6.04616E+01-9.54629E+01 5.38639E+00 1.72475E+01 3.26083E+01-6.72429E+01
 -1      1080 3.49762E+01-2.00200E+00-1.81170E+01-2.80111E+01-4.96015E+00-2.26822E-01
 -1      1081-4.32098E+01-9.43106E+00-6.37096E+00-3.44884E+01-1.09953E+01-6.92543E+00
 -1      1082-1.90314E+02-1.14154E+02-4.77145E+01-1.73453E+02-7.36546E+01-5.87446E+01
 -1      1083-2.85990E+01-1.19272E+01-2.17815E+00-6.93265E+00-7.48611E+00-1.71721E+00
 -1      1084-6.55417E+01-3.16103E+01-1.46728E+01-2.16728E+00-1.70868E+01-8.78037E+00
 -1      1085-4.25716E+01-6.24139E+01-1.03778E+01 8.69823E+00-1.55212E+01-3.14669E+01
 -1      1086 1.16627E+00-1.40583E+01 4.61647E+00 4.81209E+00-7.16266E+00-7.10962E+00
 -1      1087-1.47042E+02-7.05454E+01-3.06900E+01 8.32587E+00-4.08819E+01-1.47609E+01
 -1      1088-2.82760E+02-3.34252E+02 6.76307E+00-5.45709E+01-1.64535E+02 1.04807E+01
 -1      1089-1.95636E+02-1.82502E+02 6.63490E+01-1.05201E+02-1.23352E+02-2.48456E+01
 -1      1090-7.07323E+01 1.57663E+01-1.70744E+00-3.37265E+01 1.01040E+01-2.28582E+01
 -1      1091-7.57581E+00-1.93594E+01 1.47732E+01 4.65592E+01 3.38942E+01 5.16606E+01
 -1      1092 1.06121E+01-6.63153E+00-8.40951E+00 2.59699E+01 6.91333E+00 1.46929E+01
 -1      1093-1.63876E+02-7.11476E+01-4.63968E+01 5.22755E+01-2.13138E+01-1.04693E+01
 -1      1094 1.33748E+02 5.20632E+00-4.58138E+01-3.10108E+00-1.40643E+01-1.02106E+01
 -1      1095 3.47308E+01 3.52276E+01-2.48269E+01-3.07703E+01-8.17603E+00 6.56897E+00
 -1      1096-8.40223E+01-1.52764E+01-3.21699E+01 1.86046E+01-4.20847E+01 4.20653E+01
 -1      1097-3.93956E+00 3.19256E+01-3.17603E+01 5.11076E+00-7.24945E+00 9.46308E+00
 -1      1098-3.78501E+01-1.34589E+02-3.72895E+01-7.65695E-01-5.24541E+01 3.42995E+01
 -1      1099-5.19257E+01-9.90670E+01-1.55026E+00 1.92877E+01 6.96054E+01-2.50390E+01
 -1      1100 5.65904E-01 6.79865E+01-1.39580E+01-1.12701E+01 2.06093E+00-1.29650E+01
 -1      1101 2.59164E+01 2.61585E+00-4.74845E+01-1.70072E+01-9.50003E-01-7.11868E+01
 -1      1102-1.56671E+02-7.50362E+01 5.20692E+00-8.72423E+01 3.93216E+01 2.02053E+01
 -1      1103-2.98595E+00 4.90043E+01-5.82358E+01 1.27086E+01 2.35215E+01 7.09458E+00
 -1      1104-1.07977E+02-2.46787E+02-1.39283E+01-5.14023E+01-1.43848E+01-1.55928E+01
 -1      1105 6.31671E+01-1.42849E+01-4.18384E+01-2.11889E+01 8.38724E+00-1.78174E+01
 -1      1106-2.78000E+02-6.97184E+01-5.07571E+00-3.90161E+01-1.86982E+01-4.17759E+01
 -1      1107 6.21587E+00 9.15435E+01-2.17090E+01 7.94001E-01-1.03410E+01-6.89046E+00
 -1      1108-4.18175E+01-7.06048E+01-2.05341E+01-8.49526E+00 3.84567E+01-4.26883E+00
 -1      1109 4.41013E+01-8.12172E+00-4.49267E+00-1.45291E+01 5.67185E+00 2.14672E-01
 -1      1110 7.88238E+00-9.68373E+00-5.05531E+00 1.17063E+00-8.81207E+00 2.86537E+00
 -1      1111-2.51680E+01-2.02091E+01-1.76088E+01 2.44180E-01 2.18518E+00-5.70307E+00
 -1      1112-6.64053E+01-1.37862E+02-1.66648E+01-1.42494E+00-2.65499E+01-1.78425E+00
 -1      1113 9.26807E+01-5.80314E-01-3.57375E+01-6.64709E-01-9.58144E+00-7.63478E+00
 -1      1114-1.12453E+02-4.86259E+01 1.22627E-01 3.82763E+01-4.56828E-01-3.35830E+01
 -1      1115 6.43168E+00 8.56353E+01-2.48625E+01 1.34893E+01 4.98724E-01 6.58369E-01
 -1      1116-4.74961E+01-7.98047E+01 3.05415E+00-4.80183E+01 1.16629E+02 3.90481E+01
 -1      1117-2.22738E+01-2.57580E+01-1.64599E+01 9.11400E+00 5.95298E+00 4.48037E+00
 -1      1118-4.87202E+01-4.03698E+01-1.70653E+01 6.76401E+00 3.45388E+00 2.11820E+01
 -1      1119-3.75162E+00-7.05128E+00-7.01747E+00-9.03366E+00 2.48018E+00-1.01349E+01
 -1      1120-2.98285E+01-2.64433E+01 2.63987E+00 6.29830E-01 2.23058E+01-3.38202E+01
 -1      1121-1.25583E+01-2.18842E+01-1.62106E+00 9.89275E+00-8.69246E+00 7.46200E+00
 -1      1122-4.56910E+01-6.83360E+01 1.89950E+01 3.80868E+01-1.68469E+01 1.69045E+01
 -1      1123 3.69860E+01 3.42088E+00-2.55273E+01 2.03666E+01-1.21149E+01-7.14710E+00
 -1      1124-1.75380E+01-5.17346E+01-1.38793E+01-2.38067E+01-3.30668E+01-1.88750E+01
 -1      1125-5.74772E+00 6.60327E+01-4.28398E+01-3.94909E+00 4.11401E+01-2.95898E+00
 -1      1126-7.24348E+01-2.66712E+02 1.02188E+01 3.53777E+01-7.76636E+01 5.74363E+01
 -1      1127-1.12916E+01-1.48625E+01 3.70380E+00 1.43081E+00 8.23591E+00-8.86903E-01
 -1      1128-8.14292E+01-6.80045E+01-9.81084E+00-2.37983E+01 1.17484E+01-4.43801E-01
 -1      1129-1.12352E+01-2.44013E+01-8.57889E+00-4.62047E+00-2.62415E+00 5.15940E+00
 -1      1130-6.37204E+01-1.11758E+02-8.02160E-01 3.16808E+01-4.83656E+01 3.34648E+01
 -1      1131 4.37173E+01 7.83968E+01-7.85767E+01-5.07297E+01 3.32454E+01-3.00615E+01
 -1      1132-8.04404E+01-1.68475E+02 1.73064E+01 7.21114E+01-9.22436E+01 2.19964E+01
 -1      1133-5.29873E+01-5.32684E+01-2.08656E+01 1.12205E+01-4.31937E+01 4.92517E+01
 -1      1134-6.90308E-01-7.16883E+00-3.16637E+00-7.02879E+00-1.67612E+01 1.10709E+01
 -1      1135-1.29091E+02-1.77557E+02 1.13034E+01-6.38041E+01-1.64039E+01-2.69421E+01
 -1      1136-1.16347E+02-1.12176E+02-2.63180E+01-8.86721E+01-1.23144E+01-9.04904E+00
 -1      1137 1.27838E+02 9.97584E+00-5.39328E+01 2.35434E+01-3.17257E+00 4.64420E+01
 -1      1138-2.04688E+02-5.83815E+01 2.33580E+01 6.63970E+00-4.26490E+01-4.12114E+01
 -1      1139 8.27198E+00 3.09482E+00-1.10741E+01 1.21173E+01 1.12738E+00 5.42720E+00
 -1      1140-3.57750E+01-1.29977E+02-3.09310E+01-2.26047E+01 3.45290E+01 2.78388E+01
 -1      1141-4.69882E+00 1.21145E+02-7.96295E+01 3.10169E+00 9.66679E+00 1.56296E+01
 -1      1142-6.31248E+01-1.52501E+02-7.63747E+01 3.11950E-02 3.64468E+01 6.21097E+01
 -1      1143 2.01210E+01 3.59508E-01-2.21089E+01-1.64710E+01-1.02765E+01 2.18527E+01
 -1      1144-1.56117E+02-5.37018E+01-4.30179E+00 1.32310E+01 7.04073E+00-5.74762E+00
 -1      1145 1.39512E+01 5.47097E+01-1.53646E+01-2.01989E+00 2.05225E+00 2.46478E-01
 -1      1146 2.93172E+00-1.02781E+02-1.23063E+01-1.38344E+01-1.22118E+00-6.82633E+00
 -1      1147 6.77341E+01 3.86556E+01-4.42957E+01-4.18373E+01-2.40586E+01 1.61452E+01
 -1      1148-1.87453E+02-1.53245E+02 1.75899E+01 1.19309E+02 1.78226E+01-8.29403E+01
 -1      1149 3.46032E+01-8.30784E+00-5.67356E+00-6.58480E+00 4.67884E-01-5.72237E+00
 -1      1150 1.36378E+01-3.78536E+01-8.91500E-02 1.90703E+01 1.45019E+01-4.30580E+01
 -1      1151-3.22890E+01-2.94951E+01-1.64740E+00-1.29776E+01-2.19084E+01 3.56312E-02
 -1      1152-1.11505E+02-9.74289E+01-3.90054E+01-5.62974E+01-6.34239E+01-5.99547E+00
 -1      1153-1.36022E+01 1.63225E+01-9.31782E+00 3.05416E+00-5.22416E+00 2.39722E+00
 -1      1154-9.07888E+01-2.69545E+01 6.63948E+00-3.75152E+01 2.09913E+01 3.69909E+00
 -1      1155-2.89596E+00 3.30252E+01-6.05960E+01-3.96627E+01 2.69833E+01-9.35925E+00
 -1      1156-8.33122E+01-3.68920E+02-2.84920E+01-5.46137E+00-5.42598E+01 4.53436E+01
 -1      1157 1.96013E+01 3.41418E+01-1.72944E+01-2.81030E+01-9.89354E+00-1.11962E-01
 -1      1158-3.77442E+01-5.05737E+01-2.63886E+00 8.09575E+00-3.02593E+01 9.87177E+00
 -1      1159-1.25582E+01-4.97541E+01-1.68508E+01 4.68233E+01-7.23425E+00 4.77787E-01
 -1      1160 1.09881E+01-1.80491E+01-7.96282E+00 1.77900E+01-6.09383E+00-8.74727E-01
 -1      1161-1.12470E+01-1.17716E+01-4.38310E+00 2.87581E+00 3.07331E+00 3.78199E+00
 -1      1162-3.21911E+00-3.39877E+00-3.67377E-01-1.06369E+00 8.25912E+00 3.48297E+00
 -1      1163 1.23038E+01-3.15130E+01-1.98948E+01 6.29576E+00 4.53586E+01-2.70126E+01
 -1      1164 6.60650E+01 4.16139E+01-3.45741E+01-4.07865E+01 7.73801E+00-4.82493E+00
 -1      1165-2.65161E+01 6.75000E+00-3.02262E+01 1.47365E+01 1.15255E+01 1.08489E+01
 -1      1166-8.53734E+01-2.19995E+02-3.74967E+01 2.86325E+01 9.35025E+01 3.51454E+01
 -1      1167-1.04363E+01 5.27234E-01-4.07111E+01-2.38933E+01-8.39647E+00-7.55625E+00
 -1      1168-7.96948E+01-6.56024E+01-1.77937E+00 2.55231E+01-2.79554E+01 1.39517E+01
 -1      1169-3.74409E-01 2.00940E+01-2.05383E+01-1.42113E+01 2.19385E+00-2.17296E+00
 -1      1170-5.30810E+01-8.18909E+01 1.14819E+01 2.38901E+01 9.17525E+01-4.33735E+01
 -1      1171-1.41641E+01-3.14949E+01-3.07427E+00-2.73751E+00 1.38901E+01-1.70062E+00
 -1      1172-1.57380E+01-7.95135E+01 7.15219E+00 6.83537E+00 9.91004E+00-9.00359E+00
 -1      1173 6.96783E+01 1.06810E+01-3.69367E+01-5.62262E+00-1.15079E+01 1.43603E+01
 -1      1174-2.09447E+02-5.52076E+01 2.42947E+01 5.47320E+01-1.73391E+01-8.94286E+01
 -1      1175 3.43082E+01 1.23340E+01-1.33281E+01-2.80271E+01 9.33339E+00 9.37478E-01
 -1      1176 1.21278E+01-2.75294E+01-1.28192E+01-2.38730E+01 2.85594E+01-1.70417E+01
 -1      1177-1.97608E+01-9.94926E+01-1.23224E+01 2.45122E+00 2.95699E+01 2.20538E+01
 -1      1178 1.78414E+00-2.04105E+01 1.67303E+00 4.60131E+00 1.62227E+00 8.54832E+00
 -1      1179-6.64363E+00-2.78354E+01 3.11831E+00-7.01240E+00 6.70278E+00 3.78122E+00
 -1      1180-3.30977E+01-1.25533E+02 1.77591E+01-2.38310E+01 1.39073E+01-1.90940E+01
 -1      1181 6.77466E+01-1.34013E+01-7.49918E+01 9.28256E+00-1.99192E+00 6.76573E+00
 -1      1182-3.25387E+02-6.32518E+01-8.55235E+00 2.98581E+01-2.27587E+01 2.78687E+01
 -1      1183 7.61354E+01 3.90657E+00-1.83742E+01-5.29266E+00 8.56825E-01 9.53927E+00
 -1      1184 6.61886E+00-2.62543E+01-1.08320E+01-1.02804E+01 9.69504E+00 6.43881E+00
 -1      1185-2.71139E+00-6.27106E+01-8.50937E+00 3.65308E-01 1.63191E+01 1.35269E+00
 -1      1186-2.23462E+02-2.33533E+02 2.50569E+01 1.95506E+01 2.79286E+01-1.06938E+02
 -1      1187-2.93837E+00 6.69970E+00-1.31325E+01-1.73191E+01-3.13078E+00-6.22072E+00
 -1      1188-2.40660E+01-6.09967E+01 8.54721E+00-5.39587E+00-6.11784E+01 1.49819E+01
 -1      1189-1.37434E+00-1.08984E+01-8.82569E+00-6.33059E+00-8.18701E+00 4.12678E+00
 -1      1190-2.24353E+02-6.45360E+01-8.56757E+00 4.21865E+01-3.04300E+01 5.90752E+01
 -1      1191-6.59046E+00-1.96100E+01-5.91460E+00-3.35999E+00-5.82454E+00-2.54591E+00
 -1      1192-2.55361E+01-2.84464E+01-3.36393E+00-6.09048E+00-9.85110E+00-1.25955E+01
 -1      1193-1.75356E+02-2.13750E+02 1.57648E+01 1.88822E+01-1.07728E+02 1.53184E-01
 -1      1194-8.47058E+01-3.77878E+01 1.95646E+00 1.48115E+01 8.83589E+00 2.57528E+01
 -1      1195-4.31053E+00 1.12171E+02-5.63734E+01-1.87788E+01-9.12459E-01 8.21310E-01
 -1      1196-5.20388E+01-1.64252E+02 2.92209E+01-4.68391E+01-4.57492E+01-6.16201E-01
 -1      1197 3.28859E+01 7.67216E+00-2.64401E+01 5.10162E+00-7.80155E+00 1.80994E+01
 -1      1198-9.04954E+01-2.41640E+00-3.00691E+01 1.89186E+01-2.18053E+01 8.40760E+01
 -1      1199-4.89020E+01-6.12019E+01-1.01575E+01-1.84100E+01 3.13881E+00-3.11956E+00
 -1      1200-1.05677E+02-1.71106E+02 2.07406E+00-6.61096E+01 4.40928E+01 4.10267E+01
 -1      1201 6.74845E+01 2.10459E+01-3.12548E+01 4.10655E+01-1.26890E+00 1.14029E+01
 -1      1202-2.42429E+01-1.62645E+01-9.34375E+00 4.49584E+00 2.24837E+01 7.38353E+01
 -1      1203 2.04769E+01 9.18565E+01-7.20424E+01 4.82422E+01 2.58277E+01 1.00244E+01
 -1      1204-4.04558E+01-2.77847E+02-7.99574E+00-8.20924E+00-1.06724E+02-6.58953E+01
 -1      1205-5.68987E+00 3.54289E+01-2.07616E+01 3.69917E-01-6.38670E+00-2.17108E+00
 -1      1206-3.33566E+01-1.09269E+02-4.58690E-02-6.86889E+00-5.56003E+01 1.68847E+00
 -1      1207 3.89079E+01 1.65306E+01-1.88243E+01-4.30241E+01-5.99118E+00-6.11733E+00
 -1      1208-3.39063E+01-1.43364E+02-6.30877E+00-5.64769E+00-1.89109E+01 8.22277E+00
 -1      1209 8.95095E+01-1.96777E+01-2.72903E+01-1.47440E-01 2.35412E+01 1.39086E+01
 -1      1210-1.89863E+01-5.64522E+01-2.87496E+01-3.82620E+01 2.10293E+01-2.53293E+01
 -1      1211-1.02312E+01-1.86187E+01-7.16207E+00 3.38141E+01-4.89571E-01 1.20225E+01
 -1      1212-5.40937E+01-1.65123E+01 4.88006E+00 3.50429E+01 1.26575E+01 1.22829E+00
 -1      1213 4.56609E+01 1.40072E+02-8.68049E+01 6.72065E+01-2.13773E+00 1.95082E+00
 -1      1214-5.66321E+01-9.97498E+01 3.53361E+01-2.10609E+01-4.68522E+01 1.77639E+01
 -1      1215 7.01982E+00 8.31786E+01-2.63814E+01 1.91446E+00-2.64343E+00-7.07802E+00
 -1      1216-3.59447E+01-1.34081E+02-2.28114E+01 5.61085E+01 8.90597E-01-2.27529E+01
 -1      1217-8.60035E+01-2.22227E+02 2.60233E+01-6.85666E+01-4.02375E+01 1.44425E+01
 -1      1218-2.16901E+01-7.04494E+01 1.38754E+01-3.84967E+01 2.40659E+01-7.26277E+00
 -1      1219 8.59500E+01-2.20537E+00-2.20737E+01 3.28544E+00-5.48736E+00 3.71243E+00
 -1      1220-1.21660E+02-8.27073E+01-1.09497E+00-2.51448E+01-2.41747E+01-4.77829E+01
 -1      1221-2.06289E+02-3.02691E+02-1.10791E+01 3.20151E+01-4.58117E+01 1.81228E+01
 -1      1222-1.19011E+02-1.86293E+02-8.11269E+00 4.33051E+01-2.72527E+00-8.11627E+00
 -1      1223 1.16434E+02 3.11552E+00-2.53249E+01 3.91634E+00 4.65053E+00 1.06003E+01
 -1      1224 4.07392E+01-2.64022E+01-3.52552E+01 2.24993E+01 6.34406E+00 2.83380E+01
 -1      1225-3.18463E+01-3.40395E+01-3.65998E+00-2.71819E+01-8.23095E+00-1.80693E+00
 -1      1226-1.73243E+02-2.34033E+02-5.31180E+01-1.80988E+02-5.97992E+01-1.20102E+01
 -1      1227 3.82085E+01-1.66748E+01-2.00414E+01-1.19402E+01-9.57570E-01-3.03966E+00
 -1      1228-1.88936E+02-8.43684E+01 8.75534E-01 1.03623E+01-3.00200E+00 6.51209E+01
 -1      1229 6.18496E+00 2.24992E+01-1.73552E+01-1.73126E+01-5.99526E+00-5.87696E+00
 -1      1230-7.42471E+01-5.88433E+01-3.82737E+01 2.82466E+01-3.10778E+01-3.05686E+01
 -1      1231 3.74886E+01 2.32044E+01-2.46689E+01 2.02009E+01 9.23142E-01-4.67511E+00
 -1      1232-1.50953E+02-8.43970E+01-2.58403E+01-8.17323E+01-1.55049E+01-5.51963E+01
 -1      1233-8.32100E+01-8.57299E-01-3.68442E+01 2.78592E+01-9.94715E-01 1.51336E+01
 -1      1234-1.88174E+02-1.03819E+02 1.03275E+01 1.43551E+01 7.55362E+01 4.63987E+01
 -1      1235 1.91015E+01 1.35111E+02-5.31498E+01 3.86269E+00-2.44075E+00 8.05326E+00
 -1      1236-2.49715E+01-1.69443E+02-5.90715E+01-9.59265E+01-3.80741E+01 3.29649E+01
 -1      1237 1.17392E+02 1.51473E+02-7.27960E+01 1.25977E+02 1.97419E+01-1.81552E+01
 -1      1238 3.84103E+01-1.07194E+02-5.71575E+00 4.69897E+01 1.50265E+02 3.95210E+01
 -1      1239 4.43222E+01 8.96318E+01-6.12220E+01 4.93635E+01-1.99840E+01-1.53463E+01
 -1      1240-6.01491E+01-1.37521E+02 3.12614E+01-5.16838E+01 1.74642E+02 7.24585E+01
 -1      1241-2.27551E+01-1.99720E+01-1.29462E+01 6.21959E+00 2.68674E-01 1.18485E+00
 -1      1242-1.58836E+02-6.73978E+01-8.67966E+00 1.43560E+01-4.19429E+00-3.98041E+01
 -1      1243 1.13113E+02-3.94080E+00-5.21767E+01 2.23857E+01-5.56309E+00 3.88724E+00
 -1      1244-1.14849E+02-8.63570E+01 1.38614E+01-3.85041E+01-2.55171E+01 1.13026E+00
 -1      1245-7.65977E+00-1.31416E+01-8.42741E+00 1.41847E+01-3.41951E+00-1.37855E+01
 -1      1246-8.72495E+01-3.80114E+01 1.02815E+00 1.47243E+00-2.59563E+01-6.21218E+01
 -1      1247-7.43992E+01-6.83009E+01 2.52529E+00-3.01277E+01 2.44788E+00 2.32536E+00
 -1      1248-1.48952E+02-1.35132E+02 9.67984E+00-5.40681E+01-2.38230E+01-1.06267E+01
 -1      1249 5.25447E+01 6.26538E+01-3.88149E+01-4.79547E+01 4.82170E+00 9.09145E+00
 -1      1250-1.76248E+01-1.09128E+02-2.25569E+01 2.89861E+01 2.57380E+01 1.39994E+01
 -1      1251-1.51428E+01 1.27310E+01-2.27640E+01 9.94893E+00-2.30655E+00-3.49529E+00
 -1      1252-7.10650E+01-5.44632E+01 5.03151E-01-2.93113E+01 3.54222E+00 3.88116E+00
 -1      1253-6.45425E+01-1.63289E+02-1.27193E+01-3.35128E+01-1.43660E+00 1.77618E+01
 -1      1254-1.77378E+02-2.30541E+02 9.23163E+00-7.03914E+01 2.81400E+01 6.83261E+01
 -1      1255 7.90062E+01 1.18977E+02-6.67502E+01 7.64062E+01 2.24653E+01 3.21523E+01
 -1      1256-1.08172E+02-1.65245E+02 3.27838E+01-7.87726E+01-1.24329E+02-3.57301E+01
 -1      1257-2.04185E-03 1.14707E+02-7.37367E+01-4.01241E+01 1.02081E+01 3.84270E+00
 -1      1258-7.31718E+01-1.53512E+02 1.21163E+01 4.37431E+01 2.25543E+01 1.59071E+01
 -1      1259-6.10000E+00-3.06497E+01-3.58559E+00-8.11136E+00-7.74480E-01 4.91936E-02
 -1      1260-1.84935E+01-6.95451E+01-2.13138E+00-1.73104E+01 1.56782E+01 4.47585E+00
 -1      1261 1.85352E+01 2.87422E+02-1.34790E+02 8.79235E+01-1.31360E+00-7.32740E+00
 -1      1262-2.05933E+02-2.46534E+02 2.98378E+01-9.75623E+01-1.17150E+01-5.69945E+01
 -1      1263 6.81390E+00 1.03202E+02-3.42224E+01 4.67215E+00 9.06573E-01-9.08764E+00
 -1      1264-3.25942E+01-9.17398E+01-3.23215E-01 5.13604E+00 1.40911E+01-2.66705E+00
 -1      1265 5.02865E+00-2.16990E+01-1.49852E+01-1.23371E+01 1.91773E+01 1.45774E+00
 -1      1266 1.57399E+00-1.28514E+02-1.57015E+01-3.48059E+01 8.77270E+01 1.07343E+01
 -1      1267 7.57889E+01 3.93051E+01-6.01092E+01-3.59389E+01-1.74959E+00 1.00322E+00
 -1      1268-8.29013E+01-1.08649E+01 3.29118E+01 4.29880E+01-1.44870E+01-2.69366E+01
 -1      1269-4.28420E+00-2.99877E+01 2.20473E+00 9.47713E+00-4.43995E+00 8.79338E+00
 -1      1270-5.09772E+01-7.27908E+01 2.42825E+00 3.29809E+01 2.43548E+00 3.47242E+00
 -1      1271-1.08621E+02-6.95078E+01-1.72360E+01-7.83824E+00 1.85815E+00-8.59616E+00
 -1      1272-2.51701E+02-2.04295E+02-8.35223E-02-5.29048E+01 7.61482E+01 5.13264E+00
 -1      1273-1.30613E+01-1.39854E+01-1.89268E+00-1.88186E+00-1.50517E+00 7.67000E-01
 -1      1274-1.53364E+02-8.79020E+01 1.58660E+01-4.11153E+01-1.79130E+01-6.07292E+00
 -1      1275 4.87540E+01 7.95162E+01-5.09735E+01 5.24941E+01 1.48755E+01 2.30802E+01
 -1      1276-1.06017E+02-1.06659E+02 2.28710E+01-6.14599E+01-1.03386E+02-3.74752E+01
 -1      1277 1.54365E+02 4.18563E+01-9.20156E+01-5.24165E+01-8.03933E-01 3.96401E+00
 -1      1278-2.28290E+02-8.55550E+01 3.66718E+01 6.67665E+01 4.07131E+01 3.76045E+01
 -1      1279 5.46972E+01 2.61906E+01-4.97656E+01-4.24413E+00-1.53564E-01-5.37928E+01
 -1      1280-4.49341E+02-4.56788E+01 8.02999E+00 2.77942E+01-7.19638E+00-5.62926E+01
 -1      1281-5.71803E+00-8.11692E+00-1.40728E+01 9.10073E+00-2.32181E+00-5.57175E-01
 -1      1282-1.32503E+01-1.21534E+02 1.62045E+00 1.81879E+01-1.53023E+01-5.55865E+00
 -1      1283 7.99447E-02 1.36177E+01-2.12390E+01-1.49765E+01 3.10430E+00-5.58369E+00
 -1      1284-7.07372E+01-4.09703E+01-3.25736E+00 2.55114E+01 7.59938E+00-2.16314E+01
 -1      1285 1.95122E+00 4.04542E+01-2.93150E+01-5.00007E+00-3.27142E+00 1.91568E+00
 -1      1286-2.46044E+01-1.44771E+02-6.05309E+00-3.60428E+01-2.57637E+01 1.43077E+00
 -1      1287-4.68281E+00-2.78944E+01-1.30517E+01 1.32011E+01 3.09456E+01 3.86965E+01
 -1      1288-3.49007E+02-1.13944E+02-1.53981E+01-1.14739E+01 1.54223E+01-2.36583E+01
 -1      1289 2.84968E+01-8.53579E-01-7.32672E+00 3.42560E-01-5.07481E+00 9.09466E+00
 -1      1290 3.44636E+01-2.05405E+01-9.90390E+00 3.42330E+00-1.55773E+01 3.24484E+01
 -1      1291 5.52388E+00 4.22671E+01-5.16715E+00 2.31632E+01-7.24994E+00-1.16284E+01
 -1      1292-3.24667E+01 7.11493E+01 1.62935E+01 1.59089E+01-3.89278E+01 9.88890E-01
 -1      1293 9.49051E+00-1.95140E+01-1.53804E+01-1.50854E+00-2.26513E+00-6.58569E+00
 -1      1294-7.71941E+01-2.84827E+01-2.76451E+00 3.70579E+00-9.23380E+00-2.84241E+01
 -1      1295-1.02285E+02-1.21899E+02-1.37486E+01-8.56590E+01-3.64545E+01-2.21265E+01
 -1      1296-9.90521E+01-2.27508E+02-1.34174E+01-1.54433E+02 7.53432E+00 9.65463E+00
 -1      1297 7.82434E+01 4.03391E+01-4.96706E+01-4.22097E+01-6.84332E+00 1.98292E+00
 -1      1298-7.78487E+01-6.64375E+01-3.74359E+01 5.95053E+01-2.74631E+01-6.08084E+00
 -1      1299-1.13656E+02-2.63787E+01-2.43182E+01-7.28920E+00 1.59444E+01 1.15623E+01
 -1      1300-4.10176E+02-1.63859E+02-3.47172E+01 1.19728E+01 1.16285E+02-1.19069E+01
 -1      1301-7.64093E+01-1.55136E+02-2.72992E+01 3.15685E+01-1.20984E+01-1.99359E+01
 -1      1302-1.55164E+02-2.51374E+02-4.36257E+01 8.47756E+01 8.19889E+01-1.16475E+02
 -1      1303 6.19564E+01-1.58584E-01-5.40588E+01-6.27208E+00 8.26318E+00-8.51636E+00
 -1      1304-2.32987E+02-4.12172E+01-3.16319E+01-5.62199E+01 3.97563E+01 1.31205E+01
 -1      1305 1.94249E+01-2.87898E+00-1.83205E+01-1.52326E+01 1.10324E+00-4.25011E+00
 -1      1306-7.95511E+01-1.52144E+01 5.47271E+00-2.99301E+01 1.31682E+01-5.71008E+01
 -1      1307-8.48385E-01 4.03664E+01-3.60013E+01-2.46639E+00 1.31983E+01 7.59246E+00
 -1      1308-3.02055E+01-1.28904E+02-4.35405E+01-1.43927E+01 6.54750E+01 3.26396E+01
 -1      1309-2.14187E+01 4.91527E-01-4.11344E+00-5.85444E+00-3.28205E+00-6.65440E+00
 -1      1310-6.65749E+01 1.20428E+01-1.71463E+00 3.61196E+00-7.53298E+00 3.54623E+00
 -1      1311-5.76257E+01-9.05305E+01-3.54124E+01 9.85043E-01-1.98710E+00-1.32447E+01
 -1      1312-8.08742E+01-1.99370E+02 2.18586E+00 4.23660E+00-3.46455E+01-3.13662E+01
 -1      1313 7.24284E+01-1.42464E+00-2.07350E+01-8.10777E+00-7.95159E+00-3.66765E+00
 -1      1314-1.35929E+02-6.31888E+01-6.25395E-01 1.00213E+01 4.59906E+00 1.88784E+01
 -1      1315-6.88446E+01-1.29194E+02-6.49307E+00-3.88748E+00 1.25466E+01-4.41774E+00
 -1      1316-1.44053E+02-1.45811E+02-1.67454E+01-2.60239E+01 6.39875E+01-2.87729E+01
 -1      1317-5.89620E-01 4.56896E+01-3.11873E+01-1.44289E+01-2.06549E+00-9.18866E+00
 -1      1318-1.22536E+02-1.58793E+02 5.36220E+00 7.70885E+01-4.00752E+01-6.74857E+00
 -1      1319-2.14747E+00-2.63506E+01-4.97837E+00 2.25250E+00-5.17105E+00 2.70639E+00
 -1      1320-7.59455E+00-4.21051E+01-2.20071E+01-3.82756E+00-1.23470E+01-1.15499E+01
 -1      1321 2.11056E+02 1.95864E+01-1.27768E+02-2.68033E+01 5.47172E+00 7.89916E+01
 -1      1322-3.48436E+02-7.56698E+01 1.26035E+01 7.16961E+01 1.00210E+02-1.11770E+02
 -1      1323-2.71912E+01-2.68393E+01-1.02672E+01 2.75267E-01 6.38105E+00 7.95456E+00
 -1      1324-8.75624E+01-1.06189E+02-4.86533E+00 2.95619E+01-2.44111E+01 3.72489E+01
 -1      1325-4.06913E+00-3.21122E+01 1.26299E+00-1.18128E+01-1.39102E+00-1.08284E+01
 -1      1326-4.95164E+01-5.92231E+01-1.44593E+01-2.47377E+01 1.53187E+01-3.17406E+01
 -1      1327-1.32800E+01-9.54056E+00-7.50259E-01-1.14286E+01-2.16948E+00 2.32983E+00
 -1      1328-3.57806E+01-2.55841E+01-2.15285E+00-1.60455E+01-3.00876E-01-7.94292E+00
 -1      1329 4.37930E+01 2.09106E+01-2.57794E+01-1.94309E+01-8.86442E+00 3.38333E+00
 -1      1330-1.14040E+02-1.29112E+02 1.97536E+01 9.51353E+01 4.48756E+01-9.15127E+01
 -1      1331 1.81527E+00-1.09495E+01-3.79227E-01-1.05874E+00 6.22474E+00-7.20532E+00
 -1      1332-9.11254E+00-3.18925E+01-9.22297E+00-4.77223E+00 8.04271E-01-1.45551E+01
 -1      1333-3.68917E+01 1.77615E+00 1.02605E+01-6.95395E+00-4.94578E+01-1.43264E+01
 -1      1334 2.22759E+01 3.74680E+01-1.39622E+01 2.34169E+01-6.03711E+00 1.85291E+00
 -1      1335-1.12332E+01-4.99863E+00 2.85231E+00 1.14269E+01-4.56870E+00 2.54074E-01
 -1      1336-2.00385E+01-2.63174E-02-1.99873E+00-1.77017E-01-1.20075E+00 7.51677E+00
 -1      1337 9.35653E+00-5.80328E+00-6.46179E-01-1.87164E+01-7.19917E+00-1.60162E+00
 -1      1338-6.01468E+01-4.05393E+01 6.36411E+00 1.55907E+01 1.27210E+01-9.23249E+00
 -1      1339 9.14148E+00-1.27469E+00-5.00246E+00-1.75723E+01 2.57937E+00 1.39306E+00
 -1      1340 1.38737E+01 1.53651E+01-1.05558E+00-3.21024E+01 1.39113E+01-1.60685E+01
 -1      1341 1.28323E+01 3.95390E+00-7.65278E+00-9.97938E+00 1.69922E+00 3.94799E+00
 -1      1342-5.24515E+01-1.81334E+01 1.41270E+01 2.30210E+01-2.24330E+01 6.25050E+01
 -1      1343-7.31803E+00-2.64098E+01-1.24308E+01 1.74365E+01 1.94675E+00-7.68634E+00
 -1      1344-1.67343E+01-7.64001E+01 1.25910E+01 1.55023E+01 4.64796E+01 7.88428E+00
 -1      1345 1.38188E+01 1.34757E+01 5.00343E+00 4.44957E-01-3.17907E+00 5.77189E+00
 -1      1346 9.52593E+00 8.59577E+00 6.41983E+00 2.80189E+00 3.25423E+00 4.21920E+00
 -1      1347 3.78703E+00 3.09535E+00 4.73341E+00-8.56363E-02-6.03846E+00 5.97397E-02
 -1      1348-1.85850E+00-2.92410E+00-3.16015E+00 1.55483E+00 2.71014E+00-3.01051E+00
 -1      1349 2.32497E+00 6.48858E+00 8.92550E-01-1.00018E+00 5.90327E+00-1.99893E+00
 -1      1350 6.94122E+00 6.92180E+00 6.34620E+00-1.12517E+00 5.38785E+00-4.07494E+00
 -1      1351 3.21576E+00 4.78339E+00 3.39344E+00-4.60994E-01-5.63011E+00 1.46491E+00
 -1      1352-2.72025E+00 2.25457E+00-8.59326E-01 7.53169E-02 7.57848E-01 5.03577E+00
 -1      1353-1.26847E-01-6.26216E-01 6.32430E-01 2.26050E+00 1.31348E+00-5.50451E+00
 -1      1354-2.40922E+00-4.52751E+00-5.02170E-01-3.46877E-01-5.24844E+00-6.78786E-01
 -1      1355 5.92411E+00 1.53537E+00-3.21156E-01 1.33084E-01 2.21755E+00-1.43569E+00
 -1      1356-1.77258E+00-6.09651E+00-3.74618E+00 6.29144E-01-6.33628E+00-3.43029E-01
 -1      1357-1.52572E+01-1.61512E+01-6.14716E+00-2.66823E-01-1.54571E+00 1.02947E+00
 -1      1358 6.82857E+00 1.23635E+01 3.09288E+00-1.35001E+00-4.69700E+00-2.55261E-01
 -1      1359 5.22955E+00 5.38177E+00 8.02515E+00-4.97440E-01 2.20700E+00-5.32649E+00
 -1      1360 1.83427E+00 1.83188E+00 5.34244E+00 7.93769E-01 2.23293E+00-6.16273E+00
 -1      1361 8.26428E+00 6.65491E+00 9.21838E+00-5.96067E-01 5.06664E+00-5.01953E+00
 -1      1362-1.06767E+00 1.64281E+00-3.24750E-01 2.99623E-01-4.95083E+00-4.48208E+00
 -1      1363 4.46234E+00 5.29599E+00 3.47575E+00 1.53916E+00-1.96045E+00-3.63756E+00
 -1      1364 4.33820E+00 3.11099E+00 5.92746E+00 4.00353E-01-2.21058E+00-6.59336E+00
 -1      1365 2.13601E+00 2.04801E+00 3.53614E+00 2.07585E-01 6.85424E+00 2.28466E+00
 -1      1366 1.66765E+01 1.64504E+01 9.76301E+00 4.04866E+00-2.94861E+00-5.37390E+00
 -1      1367 4.49041E-01-3.60833E-01 6.51916E-01-6.63027E-01 3.00766E+00-3.13332E+00
 -1      1368-3.92274E-01 1.99896E+00 3.74009E-01-2.49540E+00 3.53211E+00 4.97152E+00
 -1      1369 1.79142E-02-1.75252E-01 4.02976E+00 6.58782E-02-5.68616E+00-2.39591E-01
 -1      1370-5.33832E+00-3.46607E+00-2.82932E+00-5.74335E-02-5.41398E+00-3.52618E+00
 -1      1371 8.50762E+00 5.83171E+00 6.38188E+00 1.25734E+00 2.27875E+00 6.48083E+00
 -1      1372 1.17670E+01 9.06663E+00 2.91342E+00-1.53929E+00-4.26627E+00-1.48132E+00
 -1      1373 5.80950E+00 5.00564E+00 4.02825E+00 4.30694E-01-2.27741E+00 7.93046E-01
 -1      1374 7.38538E+00 4.91871E+00-4.93215E+00-1.44967E+00 3.22820E+00-3.85260E+00
 -1      1375 3.79556E+00 2.68899E+00 3.18369E+00 9.81783E-01 1.81700E+00 6.18141E+00
 -1      1376 5.34735E+00 4.69022E+00 6.61829E+00-7.57572E-01-2.68293E+00 5.89765E+00
 -1      1377 5.45088E-01 1.32935E+00 1.02050E+00-2.44427E-01 1.77125E+00-4.87057E+00
 -1      1378-2.64271E+00 1.77667E+00 1.87012E+00 2.59542E-01-4.91453E+00-3.64913E+00
 -1      1379 1.85861E+00 3.07055E+00 4.09403E+00-2.97939E-01-4.67344E+00 2.22363E+00
 -1      1380 1.70081E+01 1.36149E+01 1.31708E+01-2.36020E+00 2.68546E+00-5.05200E+00
 -1      1381 7.37965E+00 9.58214E+00 7.82109E+00 1.71094E-01-6.23232E+00 1.81060E+00
 -1      1382-5.43057E+00-1.58367E+00 4.42329E-01 5.06072E-01 1.30962E+00 6.87970E+00
 -1      1383-2.20002E+00-1.53304E+00-3.59457E+00-8.55964E-01-7.63497E+00-1.42085E-01
 -1      1384-1.02058E+01-1.42550E+01-7.50863E+00 2.37444E+00 5.46285E+00-3.45021E+00
 -1      1385 1.80289E-01-4.40437E+00 5.71951E+00 2.79148E+00-2.57819E+00 2.84138E+00
 -1      1386-5.24262E+00-4.81113E+00-4.31861E+00 2.54071E+00 5.03953E+00-2.94226E+00
 -1      1387-2.34654E+00 6.58770E-03 4.99537E-03-1.61279E+00-2.46268E+00-3.53426E+00
 -1      1388 6.29204E-02 4.16277E-01 9.91921E-01 1.66130E-01-1.71803E+00 3.77347E+00
 -1      1389-2.17140E+00-2.58770E+00 2.97351E+00-1.65557E+00-3.66818E+00-4.31245E+00
 -1      1390 9.75554E-01 1.29585E+00 1.94210E+00-1.35756E-01-5.11034E+00-4.61876E-01
 -1      1391-1.17159E+01-4.87438E+00-7.07745E+00-6.55057E-01 2.05655E+00 5.18151E+00
 -1      1392 3.82828E+00 3.14676E+00 3.47916E+00-1.12479E+00 1.39560E+00 1.56922E+00
 -1      1393-5.19008E+00-2.18677E+00 1.59513E+00 1.76507E+00-1.27602E+00 2.71336E+00
 -1      1394 8.73834E-01-1.17946E+00 8.64453E-01 4.45971E-01 7.26977E+00-1.02839E+00
 -1      1395 1.11293E+01 7.32988E+00 5.18408E+00-2.81857E+00-4.19954E+00 4.97446E+00
 -1      1396 1.51925E+00 7.53733E-01-1.53390E+00 1.01871E+00-2.74461E+00 4.94786E+00
 -1      1397-5.99675E+00-1.56008E+00-1.58667E+00-6.80377E-01-1.09173E+00-5.77657E+00
 -1      1398-1.16238E+00-3.32165E+00-2.79319E+00 1.41709E-03 4.75848E+00-2.94510E+00
 -1      1399-4.11894E+00-7.50187E-01 2.08206E+00-1.86002E+00-1.39242E+00-3.03696E+00
 -1      1400 6.25534E+00 4.95401E+00 7.30935E+00 2.34713E-01 2.95833E+00-6.04722E+00
 -1      1401 1.09502E+00 8.75026E-01 3.56762E+00-8.74694E-03-9.09982E-01-4.89599E+00
 -1      1402 8.73883E+00 6.37820E+00 5.71859E+00 3.56389E+00-3.71781E+00-8.54666E+00
 -1      1403 8.57732E-01 1.65560E+00-2.90713E+00-1.24806E+00-4.47917E+00 2.60202E+00
 -1      1404-2.59315E+00-2.93245E+00-8.01622E-01-1.42749E+00 4.20785E+00 1.84006E+00
 -1      1405 2.26981E-01 1.32183E+00-3.03910E+00 1.76657E-02 1.75572E+00 6.34857E+00
 -1      1406 6.11303E+00 5.47511E+00-4.25835E+00 2.86989E+00-3.53469E+00 1.54202E+00
 -1      1407 8.98663E+00 5.74476E+00-2.54345E+00-1.18046E+00 5.26315E+00 2.15192E+00
 -1      1408 3.78709E+00 4.97331E+00 6.82821E+00 2.69729E-02-4.15191E+00-6.31345E+00
 -1      1409-2.51170E+00-6.39604E+00-5.28019E+00 1.48585E-01 4.66966E+00-8.01677E-01
 -1      1410-1.29977E+00 1.17272E-01-4.70093E-01 1.12670E+00-3.51597E+00-5.99952E-01
 -1      1411-1.60327E-01-1.03934E+00 1.70489E+00 6.58416E-01-3.36794E+00-1.30527E+00
 -1      1412-5.84657E+00-4.56038E+00-3.72129E+00 1.03978E+00-3.59219E-01 7.31051E+00
 -1      1413 1.51038E+00 5.57514E-02 7.50048E-01-5.39997E-01-4.58239E+00-3.63787E+00
 -1      1414-1.06012E+01-6.03483E+00-4.10289E+00-3.00016E-01-1.50422E+00-6.62047E+00
 -1      1415-2.98739E+00-7.46476E+00 4.63464E-01 8.37247E-01-3.54413E+00 1.65992E+00
 -1      1416-6.53353E+00-1.09790E+01-3.03937E+00-4.54235E-01-6.20833E+00 1.32588E+00
 -1      1417 1.00074E+00 1.04391E+00-2.14459E+00-4.86665E-02 3.72409E+00 3.21688E+00
 -1      1418 1.06920E+01 6.85031E+00 6.63144E+00-1.75587E+00 4.70895E-01 4.68148E+00
 -1      1419 3.91651E+00 3.16593E+00 3.44328E+00-6.70210E-01 7.02217E-01 2.48042E+00
 -1      1420 2.86016E+00 1.85469E+00 1.50974E+00 3.89979E-01 7.45755E-01 5.75883E+00
 -1      1421 8.19850E+00 5.57868E+00 3.32645E+00-8.60476E-01 2.89166E+00-1.60729E-01
 -1      1422 8.08876E+00 4.89601E+00 1.10840E+00 1.20930E-01 1.47029E+00-4.26818E+00
 -1      1423 4.48664E+00 2.33932E+00 2.19502E+00-1.08492E+00-2.73042E+00-1.25972E+00
 -1      1424-7.55489E+00-3.59743E+00-1.41572E+00 3.14060E+00-1.79146E+00 4.20442E+00
 -1      1425-1.33345E+00-2.62390E+00 5.83461E-01-1.40876E+00-1.60350E+00 3.42980E+00
 -1      1426 8.95366E+00 5.59458E+00 3.09071E+00 2.46920E-01-2.34617E+00 1.03509E+00
 -1      1427 3.55971E+00 3.61648E+00 4.46522E+00-1.30696E+00 2.70008E+00-4.66727E+00
 -1      1428-9.28560E-01-1.96638E+00-4.33401E-01-6.66188E-01 1.94139E+00 1.85797E+00
 -1      1429 3.42690E+00 2.20042E+00 3.78362E+00-6.63485E-01 5.66494E+00-4.57638E+00
 -1      1430 1.09411E+00-1.99656E+00 3.42137E+00 9.26834E-01-6.27893E+00-4.72984E+00
 -1      1431 1.93056E+00 3.45704E+00 7.18861E+00-5.14731E-01-6.77748E+00-3.89370E+00
 -1      1432 4.91398E+00 3.21896E+00 4.63024E+00-1.78781E+00-2.82283E+00 2.28787E+00
 -1      1433-4.13892E+00-4.78383E+00-3.65732E+00 8.96175E-01-2.30247E+00 5.03644E+00
 -1      1434-3.15868E+00-6.05958E+00-2.82564E+00-2.61023E+00 4.69051E+00 4.50259E+00
 -1      1435-2.47084E+00-2.88862E+00-9.32668E-01-3.85845E-01 1.62637E+00-4.19951E+00
 -1      1436-4.75413E-01-8.20421E-01 1.79337E-01-8.55452E-01 3.61342E+00-2.80584E+00
 -1      1437 4.52110E+00 6.23623E+00 5.02275E+00-9.67971E-01 1.62579E+00-2.03623E+00
 -1      1438 1.64057E+00 2.23965E+00 5.99164E-01 1.73139E+00 8.16638E-01 4.02441E+00
 -1      1439-2.65106E-01-1.75777E+00-1.28169E-01-3.25512E-03-2.71905E+00 1.32188E-01
 -1      1440-3.04565E+00-6.25153E-01 1.91042E+00 1.94083E+00 3.31884E+00-4.97542E+00
 -1      1441 8.41414E+00 7.88494E+00 6.45225E+00 1.69725E+00-1.35647E+00-2.00562E+00
 -1      1442-5.61656E+00-4.46871E+00-1.22372E+00 1.01143E+00-2.79486E+00-1.06537E+00
 -1      1443-2.23199E+00-1.38673E+00-3.91579E-01-3.55210E-01 3.67963E+00-2.68683E-01
 -1      1444-5.45062E+00-1.06210E+01-5.75581E+00 9.74638E-01-3.41947E+00 1.19258E+00
 -1      1445 4.20093E-01-2.54441E-01-5.40034E-01 9.09003E-02 6.85626E+00 6.04994E-01
 -1      1446-6.45927E+00-8.58254E+00-4.16233E+00-1.73435E+00 1.88086E+00-2.31169E+00
 -1      1447-2.79435E+00-1.52498E+00-1.75896E+00-5.98270E-01 2.94525E+00-5.49694E+00
 -1      1448-1.39140E+01-7.71935E+00-9.80364E+00-1.37685E+00 1.58092E+00 8.25586E+00
 -1      1449-5.80472E+00-5.18027E+00 1.32142E+00 1.70103E+00 2.94389E+00-2.67240E+00
 -1      1450 8.44890E+00 3.51061E+00 2.38214E-01-1.58431E-01-7.44106E-01-5.20583E+00
 -1      1451-5.52896E+00-7.00050E+00-1.48534E+00-2.18695E+00-7.98476E+00-3.85250E+00
 -1      1452-6.02268E+00-9.12404E+00-2.26709E+00 2.36335E+00 4.95586E+00-1.55726E+00
 -1      1453 8.60032E+00 1.01478E+01 1.06713E+01-1.27709E+00 5.59863E+00-4.96657E+00
 -1      1454-8.87262E+00-4.67481E+00-2.92075E+00-9.51580E-01-6.53041E-01-3.49221E+00
 -1      1455-1.19029E+00-1.25459E+00-2.09378E-01 1.01772E-01-1.75296E+00-3.93948E+00
 -1      1456 2.15647E+00-1.85561E-01 5.40097E-01 1.55659E+00 4.45122E+00-1.94605E+00
 -1      1457-1.14738E+01-7.82855E+00-4.81232E+00 3.40912E+00-5.39346E+00 1.46011E+00
 -1      1458 1.05805E+01 9.08627E+00 7.94187E+00-9.36079E-01-4.06342E+00 4.54426E+00
 -1      1459 9.32048E+00 9.49129E+00 4.87788E-02 2.09600E+00 4.19768E-01-4.56300E-01
 -1      1460 1.86500E+00 1.25802E+00 3.96635E+00-3.56791E-01 3.45736E+00-4.25357E+00
 -1      1461 5.73520E-01 1.86129E+00 1.38843E+00-3.79648E-01 4.44133E+00-2.93384E+00
 -1      1462-1.24390E+00-3.46095E+00-2.03603E+00-2.02146E+00-3.75676E+00-4.63294E+00
 -1      1463 4.01043E+00 2.63109E+00 2.08231E+00-1.26036E+00-2.16695E+00-7.55603E-01
 -1      1464 5.47196E+00 3.76884E+00 1.08416E+00 3.80664E-01-3.33978E+00 1.99493E-01
 -1      1465-2.09312E+01-1.68419E+01-1.19865E+01 1.79458E+00 4.75969E-01-3.75541E-01
 -1      1466 1.96499E+00 2.97005E+00 3.20786E+00 9.91629E-01-6.58599E+00-4.95285E+00
 -1      1467 3.89743E+00 2.79021E+00 2.58899E+00-7.15234E-02-5.17270E-01 6.28763E+00
 -1      1468-2.33341E+00-2.86347E-01 3.80377E-01 6.43637E-01 4.99819E+00-6.17870E-02
 -1      1469 1.97452E-01 1.41962E+00-1.81651E+00 3.14074E-01 4.55285E+00 1.86821E-01
 -1      1470 3.53356E-01 3.01612E-01-3.76208E-02-6.47443E-01 2.91169E+00 3.12594E+00
 -1      1471 4.58945E+00 6.93608E+00 1.54598E+00 6.44069E-01-1.03692E+00 2.63887E+00
 -1      1472-5.66000E+00-3.94649E+00 4.13862E-01 1.61433E+00-2.47453E+00 4.26640E+00
 -1      1473 6.29371E-02-5.25058E+00 1.69070E-01 1.95197E-01-4.60122E+00-3.42721E-01
 -1      1474 4.86410E+00 4.63322E+00 4.31738E+00-8.13251E-01-2.89087E+00 7.00256E-03
 -1      1475 7.31339E+00 4.10051E+00 1.53720E-01 3.03509E-01 2.94715E+00 1.15483E+00
 -1      1476 1.22530E+00 3.92163E-01 2.82151E+00-2.80675E+00 8.39006E-01 6.31716E+00
 -1      1477 2.37978E+00 5.20309E+00 3.66807E+00-8.20590E-01 3.27767E-01 3.08164E+00
 -1      1478-5.73081E+00-1.32701E+00-3.49605E+00 1.21380E+00-2.33091E+00 6.23219E+00
 -1      1479-4.95122E+00-3.59829E+00-2.29850E+00 5.70517E-01-2.31208E+00-2.74282E+00
 -1      1480-9.12012E-01-3.12554E+00 6.85528E-01-6.25443E-01-8.45790E-01 5.42122E+00
 -1      1481 5.35380E+00 4.05420E+00 4.42787E+00-1.22044E-01 3.74152E+00-6.83157E+00
 -1      1482 4.27244E+00 1.97876E+00 8.69505E-01 1.39165E+00-1.31363E+00-4.21839E+00
 -1      1483 4.30707E+00 6.37975E+00 2.42380E+00-1.59842E+00 4.21757E+00-2.29177E+00
 -1      1484 3.57725E+00 7.09090E+00 3.70356E+00 1.98875E+00 5.94453E+00 2.20255E+00
 -1      1485 1.57957E+00 2.53820E+00 2.54671E+00-1.25342E+00 2.03820E+00 1.95020E+00
 -1      1486-7.12684E+00-8.49005E+00-5.26922E+00 7.57016E-01 1.46844E+00 2.54903E+00
 -1      1487-3.05301E+00-6.57016E+00-1.29743E+00 8.30362E-01-4.60007E+00 5.41735E-01
 -1      1488-7.26004E+00-3.21279E+00-3.98979E-01 1.13765E+00-4.64413E-01-5.72443E+00
 -1      1489-6.27116E+00-5.82492E+00-3.13715E+00 1.50126E+00 2.43084E+00 1.29669E+00
 -1      1490 2.41927E-02-8.26213E-01 1.44756E+00-8.95778E-01 1.75096E+00-5.29503E+00
 -1      1491-1.98703E+00-2.64178E+00 8.03581E-01-7.22996E-01 2.52349E-01 2.66874E+00
 -1      1492 2.63855E+00 1.46783E+00 1.27157E+00 1.45532E+00-5.17418E+00-4.49351E-01
 -1      1493 1.01607E+00 5.81796E+00 2.90477E+00-6.31223E-01-5.34165E+00 2.73516E+00
 -1      1494-9.26840E-03 1.41407E+00 4.07410E-01-6.67708E-01 5.28270E+00-9.50872E-01
 -1      1495-2.09551E+00-9.79424E-01 4.10257E-01-1.24689E+00 1.68036E+00-4.05778E+00
 -1      1496-1.56550E+00 1.23364E+00 1.44726E+00-1.04981E+00-1.00161E+00-4.40953E+00
 -1      1497-1.69682E+00-2.59779E+00 1.09466E+00 1.87208E+00-3.33120E+00 2.43333E+00
 -1      1498-2.48977E-01-2.62260E+00 1.06946E+00 1.08168E+00-2.55074E+00 6.84442E-01
 -1      1499-4.20149E-02 2.14935E+00 1.13963E-01-1.34839E+00 1.68757E+00 4.15636E+00
 -1      1500 5.13339E+00 1.01235E+01 3.23693E+00-1.24461E+00 5.44779E+00-1.26483E+00
 -1      1501-1.52182E+00-5.32279E-01 1.72576E+00-9.06911E-01-4.40398E+00 2.64110E+00
 -1      1502-2.44457E+00-4.47962E+00-4.40861E-01 2.77899E+00 3.62965E+00-2.87522E+00
 -1      1503 4.23897E+00 2.75773E+00 7.95185E-01 9.40692E-01 1.31956E+00-1.20789E+00
 -1      1504-5.68252E-01 8.41022E-01 1.80975E+00 5.61044E-01-5.03284E+00 1.73042E-01
 -1      1505 1.83579E+00-8.37331E-02-1.17574E-01 1.04567E+00 1.84727E+00 3.76125E+00
 -1      1506-1.07685E+01-5.59078E+00-3.08050E+00-4.00724E+00 1.72117E+00 6.56884E+00
 -1      1507 5.02737E+00 5.05257E+00 3.19643E-01 2.48323E+00-1.94239E+00 1.85568E+00
 -1      1508 8.35387E-01 5.25646E-01 9.22243E-01 1.72919E+00 2.93256E+00-2.38711E+00
 -1      1509-5.34518E+00-2.76537E+00-5.27020E-01-1.75347E+00-2.25316E+00-5.52510E+00
 -1      1510-1.31668E+00-4.09407E+00 1.98604E+00 3.65017E-01 7.06322E+00 2.40543E+00
 -1      1511-3.93188E-01 1.82955E-01 4.63291E-01 9.65603E-01-2.80330E+00 4.32500E+00
 -1      1512-1.41597E+01-1.13069E+01-1.11184E+01-2.31467E+00 1.18618E+00 7.72954E+00
 -1      1513 3.05469E+00 7.93453E+00 4.78088E+00 2.28674E-01-7.94475E+00-4.96582E-01
 -1      1514-1.38000E+01-9.07071E+00-6.41390E+00 2.72730E+00 2.22718E+00-4.32478E+00
 -1      1515-5.40562E+00-1.17810E+01-6.87231E+00-1.35035E+00-6.54887E+00-2.69057E-01
 -1      1516 3.91007E+00 6.87103E+00 6.76811E+00 9.17507E-01-3.19515E+00 2.39148E+00
 -1      1517 4.48101E+00 1.95435E+00 2.40992E+00 9.31568E-01-2.78113E+00-1.90184E-01
 -1      1518 1.78508E+00 4.45350E-01 2.92810E+00 1.19621E+00-3.71154E+00 1.81353E+00
 -1      1519 4.22779E+00 2.60229E+00 5.25176E+00-1.13450E+00 2.76019E+00 7.83066E+00
 -1      1520 4.26177E+00 2.29697E+00 2.13462E+00 3.59474E-01 1.89934E+00-2.90799E+00
 -1      1521-1.03367E+01-1.15925E+01-1.13951E+01-2.25755E-01-7.71001E+00-1.44343E+00
 -1      1522 4.47098E+00 2.50963E+00 3.82432E+00 3.98580E-02 2.44391E+00-1.14195E-02
 -1      1523-4.03225E-02 2.23982E+00 1.26181E+00 9.33930E-01-2.37016E+00-3.84258E+00
 -1      1524-8.40141E+00-1.14052E+01-3.52962E-01-4.07272E+00 3.99251E+00 2.66039E+00
 -1      1525 1.13147E+01 9.38417E+00 8.90681E+00 2.01978E+00 2.15781E+00 7.77819E+00
 -1      1526 6.52817E+00 6.84539E+00-1.12483E+00 1.05025E-01-5.26058E+00 3.94124E+00
 -1      1527-2.85358E+00-4.26235E+00-4.07112E-02-2.87239E+00-3.51337E+00-2.95677E+00
 -1      1528 2.05566E+00 1.17238E+00 3.21120E+00-2.00206E+00-3.92315E+00 3.43773E+00
 -1      1529 1.15426E+01 7.59005E+00 9.43685E-01 4.27954E-01-4.65979E+00-8.64760E-01
 -1      1530-4.43887E+00-5.80173E+00-6.05640E+00 7.65831E-02-6.37251E+00 1.92874E-01
 -1      1531 4.47494E+00 4.06486E+00 4.70779E+00-1.52388E+00 4.21203E+00 3.91827E+00
 -1      1532 4.67480E+00 5.67545E+00 6.96396E+00-1.41580E-01 7.64516E+00-2.20049E+00
 -1      1533-2.93161E+00 3.64080E-01-5.92704E-01 7.59037E-01 3.10482E+00 1.25971E+00
 -1      1534-8.64835E+00-4.03288E+00-7.18191E+00-2.64066E+00-4.05853E+00-5.14248E+00
 -1      1535 1.53044E+00-1.68291E+00 8.00329E-01-1.13449E-01 3.56356E+00 7.62752E-01
 -1      1536 6.48491E+00 5.72898E+00 2.68284E+00 1.75539E+00 4.76653E+00 3.41249E+00
 -1      1537 3.64073E+00 3.44255E+00 5.71894E+00-7.62996E-01 5.02126E-01 7.61864E+00
 -1      1538 3.34191E+00 3.33716E+00 5.88442E+00-8.47591E-01-4.07404E+00 1.85842E+00
 -1      1539-3.01207E+00-1.80892E+00-1.36549E+00-1.07905E+00 2.40287E+00 4.03870E+00
 -1      1540 4.58101E-01-1.26853E+00 1.32578E-02 7.53876E-01 2.97698E+00 3.26070E+00
 -1      1541 2.65698E-02 5.94143E-01 3.15668E+00 4.41638E-01-3.16988E+00 2.13095E+00
 -1      1542 6.45090E+00 5.65326E+00 6.72290E+00-6.25034E-01-4.58530E+00 6.10815E+00
 -1      1543 1.92741E-01 2.97611E+00 3.12492E+00 1.38252E-01 8.40683E-01-3.37356E+00
 -1      1544-4.50054E+00-5.24661E+00-1.90928E+00 2.56180E+00 3.32997E+00-4.10301E+00
 -1      1545-4.67119E-01-4.10262E+00-2.11756E+00 4.89469E-01-3.33617E+00 3.55835E+00
 -1      1546 1.15210E+01 8.63259E+00 4.56975E+00-1.65751E+00-4.05963E+00 6.45129E+00
 -1      1547 1.11166E+01 1.04171E+01 6.16578E+00 5.11003E-01-1.06414E+00-6.94512E+00
 -1      1548 2.82097E+00 4.80627E+00 2.91346E+00-3.01785E-01-1.00977E-01-2.38368E+00
 -1      1549 5.51163E+00 9.36954E+00 3.21086E+00-1.96323E-01-8.17052E+00-1.20780E+00
 -1      1550-6.91753E+00-6.50856E+00-3.09627E+00-1.59632E+00-4.44329E+00-6.40838E+00
 -1      1551-4.94726E+00-7.30570E+00-3.49972E+00 8.85657E-01 5.64935E+00-3.03252E+00
 -1      1552 1.06152E+00-1.55842E+00 7.92825E-01 1.27226E+00-5.45095E-01 6.28367E+00
 -1      1553-3.07971E+00-5.36624E+00-2.95929E+00 6.40290E-01-5.95521E+00 2.25366E+00
 -1      1554 7.45272E-01-1.97347E-01 1.67954E+00 2.74909E-01-2.12990E+00-4.64393E+00
 -1      1555-2.86273E+00-7.58170E-01 2.27154E+00-2.01280E-01-1.19182E+00-5.66557E+00
 -1      1556 2.63665E+00 8.85310E-01 2.96018E-01-9.33192E-01 2.88781E+00-7.11257E-02
 -1      1557 5.00574E+00 3.26005E+00 1.13844E+00 1.33627E+00 1.62902E+00-1.75500E+00
 -1      1558 1.83762E+00 4.91742E+00 3.87859E+00 6.70559E-01-1.93388E+00 2.15704E+00
 -1      1559-4.51861E+00-1.42560E+00 1.49553E-01 6.88472E-01 2.49427E+00-1.04102E+00
 -1      1560-2.94531E+00-6.40783E-01-1.82512E+00-5.06203E-01 1.65279E+00 4.85812E+00
 -1      1561 1.03543E+00 9.59924E-01 1.89414E+00 9.39140E-01 1.68149E+00-3.10077E+00
 -1      1562-2.65946E+00-6.92818E+00-2.72342E+00 1.71500E+00 4.95160E+00-1.49475E+00
 -1      1563-4.38912E+00 8.08484E-01 6.55514E-01 4.37452E-01 1.34042E+00-5.22884E+00
 -1      1564 5.54002E+00 3.79506E+00-1.65296E+00 2.36384E+00-4.38014E+00 8.00707E-01
 -1      1565-1.46300E+01-1.06924E+01-6.98345E+00-3.00344E+00 3.90876E+00 7.96604E+00
 -1      1566-9.19316E-02-2.09484E+00-2.20727E+00 2.69778E+00-4.54876E+00 1.81672E-01
 -1      1567 2.35814E+00 2.14758E+00 3.17286E-01-1.31026E+00-6.76961E+00 3.76893E+00
 -1      1568 2.06268E+00-1.06819E+00 6.19323E-03-1.00810E+00-4.66974E+00-1.67853E+00
 -1      1569-3.42088E-01-3.41767E-01 2.49671E+00 2.49923E+00-3.50383E+00 3.16910E+00
 -1      1570-1.23262E+01-8.36440E+00-8.97864E+00 1.59293E+00 3.55540E+00-5.92259E+00
 -1      1571 4.54719E+00 7.11618E+00 1.72525E+00 1.35316E-01-6.99030E+00-1.93999E+00
 -1      1572 1.34637E+01 9.23142E+00 2.14784E+00 7.92628E-01 4.44002E-01-2.27748E+00
 -1      1573 2.44719E+00 4.87507E+00 1.72922E+00 6.55951E-01-1.31164E+00 2.83609E+00
 -1      1574-1.10724E+00-1.89906E+00-5.56096E-01-6.78256E-02-3.02118E+00-3.21550E-01
 -1      1575 5.50494E+00 4.96271E+00 5.32212E+00 3.23206E-01-3.99687E+00-6.86253E+00
 -1      1576 3.82592E+00 1.48268E+00 4.80096E-01 1.15840E+00 2.17714E+00-1.54888E+00
 -1      1577 3.19213E+00 1.34750E+00 2.49988E+00-3.61329E-01-4.74285E+00 4.10036E+00
 -1      1578-2.31398E+00-3.80967E+00 9.04326E-01-2.10758E+00-2.12163E+00-4.33977E+00
 -1      1579 7.98931E+00 6.03750E+00 9.51249E+00 2.82242E-01 2.94969E+00 5.37692E+00
 -1      1580-1.18857E+01-8.22995E+00-8.23557E+00 2.77805E+00-1.55524E+00 6.92181E+00
 -1      1581 6.08346E+00 6.02409E+00 5.69892E+00 8.50644E-01 7.83742E+00 1.88473E+00
 -1      1582-9.35282E-01-3.40795E+00-7.74960E-01-7.95731E-01-4.62667E+00-1.91773E+00
 -1      1583 5.34295E+00 3.90633E+00 3.35910E+00 2.95490E-01-2.28752E+00-1.88772E-01
 -1      1584 1.73905E+00-2.29049E+00-4.98051E-01 9.88999E-02 6.21273E+00 9.35327E-01
 -1      1585-5.75695E+00-3.60249E+00-3.93835E+00-1.46691E+00-2.39105E+00-4.81932E+00
 -1      1586 2.52145E-01 3.01611E+00 1.36391E+00 1.04559E+00-6.53443E-01 3.30844E+00
 -1      1587 9.84935E+00 6.19485E+00 1.72819E+00-1.24660E+00-1.18902E+00 6.42333E+00
 -1      1588-9.47381E+00-8.21479E+00-8.99499E+00 2.55741E+00-3.80587E+00 5.47904E+00
 -1      1589-4.41743E+00-2.32550E+00-1.64244E+00 5.29972E-01 3.34965E+00-2.08657E+00
 -1      1590 1.18924E+01 6.43700E+00 6.58241E+00-1.23422E+00-2.00278E+00-5.94951E+00
 -1      1591-1.89128E+00-1.66860E+00 7.62240E-01 8.10439E-01-4.19983E+00-2.46090E+00
 -1      1592-3.51846E+00-2.91933E-01-1.74986E+00-7.32940E-01 4.76196E-01 4.19978E+00
 -1      1593-5.06553E+00-1.03623E+01-2.89916E+00-1.03451E+00-5.73687E+00-2.23862E+00
 -1      1594 7.54110E+00 2.65418E+00 2.72367E+00 1.18464E+00-6.38595E-01-3.84166E+00
 -1      1595 3.50494E+00 2.05665E-01 1.05144E+00-3.61041E+00 3.53641E+00 2.47964E+00
 -1      1596-1.34277E+00-1.02246E+01 6.51931E-01-6.80782E-01 4.25775E+00-1.08697E+00
 -1      1597 4.02448E-01-2.74680E+00 1.61510E+00-6.65380E-01-7.31927E+00-2.56049E+00
 -1      1598 7.67292E+00 4.69037E+00 3.35139E+00 7.56058E-02-3.19641E+00 4.57146E-01
 -1      1599 5.63082E+00 4.74120E+00 2.63745E-01-3.76792E-01 1.67908E+00-5.08738E+00
 -1      1600 1.96323E+00 2.13251E+00 1.92368E+00 1.67340E-01 3.43390E+00-4.15452E-01
 -1      1601 7.63371E+00 1.12635E+01 2.73228E+00 1.48338E+00 3.22528E+00 5.18536E+00
 -1      1602 6.78893E+00 7.13402E+00 6.39829E+00 2.05421E+00-6.52137E+00-3.45941E+00
 -1      1603 6.39023E+00 1.07849E+01 1.89554E+00-1.08794E-01-1.57961E+00-2.51680E+00
 -1      1604-4.17929E+00-3.63137E+00-3.20380E+00-2.07803E+00-4.84302E+00-3.68806E+00
 -1      1605 3.83587E+00 3.00162E+00 3.62993E+00-5.84567E-02-2.23513E+00-1.20996E+00
 -1      1606-7.46020E-01 1.77432E+00 2.32905E+00 5.15877E-01-1.98746E+00 4.48447E+00
 -1      1607 3.76626E+00 3.54478E+00 1.36940E+00-6.85853E-01-2.24932E+00 4.26538E+00
 -1      1608-6.59259E+00-7.23930E+00-2.92386E+00-1.70063E+00-4.28586E+00-5.03143E+00
 -1      1609 4.71487E+00 5.26700E+00 3.92441E+00-6.06032E-01 1.12004E+00-4.05674E+00
 -1      1610-3.07259E+00 5.82240E-01 4.01143E-01 7.93542E-01-1.31947E+00 4.19865E+00
 -1      1611-6.94615E+00-4.57942E+00-3.94656E+00-1.17194E+00-2.66671E+00-6.60291E+00
 -1      1612-9.87554E+00-6.75467E+00-8.72582E+00 5.36034E-01-2.05062E+00 8.81333E+00
 -1      1613 2.65373E+00 1.11231E+00 1.28222E+00 1.66703E+00 2.51788E+00 3.65720E+00
 -1      1614-6.58502E+00-2.73126E+00-1.58033E-01 1.31161E+00 2.42692E+00-6.30061E+00
 -1      1615-1.22585E+00-1.26323E+00-3.09074E-02 1.13341E+00-1.49491E+00 5.14249E+00
 -1      1616 2.56271E+00 3.52348E+00 3.90416E+00-9.17770E-01-1.15156E+00-2.68521E+00
 -1      1617 7.07535E+00 6.27337E+00 1.95932E+00 1.64848E+00-2.53941E+00 1.10677E+00
 -1      1618 3.91937E+00 3.05915E+00 2.94975E+00-1.04803E+00-3.49107E+00-6.72460E-01
 -1      1619-5.56434E+00-4.39459E+00-2.67167E+00 3.42731E-01-2.41780E+00-7.02626E-01
 -1      1620-4.09858E+00-4.03020E+00-1.25164E+00 2.75865E-02 8.15735E-01-2.76794E+00
 -1      1621-4.55267E+00-1.53718E+01 5.89241E-01-1.11832E-01-5.08201E+00 7.44094E-01
 -1      1622 4.78954E+00 3.21841E+00 1.46950E+00-1.51160E+00 1.31543E+00 9.87088E-01
 -1      1623 6.95062E-01 1.62964E-01-1.13211E+00-1.91796E+00-3.85887E+00-3.67759E+00
 -1      1624 3.23720E+00 2.35188E+00 6.15903E-01-4.79425E-01 2.47541E+00-7.25163E-01
 -1      1625-5.97398E+00-1.43353E+01 1.05215E+00-1.44541E+00-4.91867E+00-2.17541E-02
 -1      1626 3.29022E+00 1.35116E+00 1.02165E+00 4.19075E-01 1.86936E+00 5.67706E+00
 -1      1627 1.71863E+01 1.48265E+01 1.31572E+01-3.73496E+00 3.97036E+00-7.25570E+00
 -1      1628 1.63661E+00 5.02437E-02 6.51887E-01 1.91684E+00-2.53579E+00 3.48796E+00
 -1      1629-5.36576E+00-1.32700E+00-1.55337E+00 1.78168E+00-2.49211E+00 5.33401E+00
 -1      1630 4.48871E+00 3.04882E+00 3.03075E+00-5.40740E-01-2.86674E+00 6.24934E-02
 -1      1631-5.67629E+00-1.06343E+00-2.53422E+00 2.64957E+00-2.66157E+00 7.46160E+00
 -1      1632 1.98264E-01 1.23147E+00 2.77008E+00 3.52607E-01-4.25170E+00 9.95537E-01
 -1      1633 2.15550E+00 4.47396E+00-2.95089E+00-9.29428E-01 6.01702E+00-1.59373E+00
 -1      1634 3.81807E+00 1.03247E+00 7.76191E-01 1.17883E+00-3.37292E+00 4.24840E+00
 -1      1635-1.18574E+01-5.05142E+00-6.26247E+00 2.91160E+00 5.38673E-01-4.83418E+00
 -1      1636 8.71892E+00 7.75668E+00 4.49179E+00-4.68537E-01-3.15700E+00-4.09936E+00
 -1      1637 3.74391E+00 4.37666E+00 2.56702E+00 6.96365E-01-1.68145E+00 1.95566E+00
 -1      1638 5.99284E+00 5.59736E+00 3.73447E+00 4.13172E-01 3.46573E+00-2.20669E+00
 -1      1639 1.13731E+01 1.33259E+01 5.61167E+00-1.49823E+00 6.37016E-01 2.68367E+00
 -1      1640 2.33155E+00 4.12642E+00 1.25986E+00-1.12433E+00 1.84689E+00 2.51485E+00
 -1      1641 4.01739E+00 4.46045E+00 3.81084E+00 4.80029E-02-3.05241E+00 1.76055E+00
 -1      1642-4.39017E+00-6.10979E+00-2.69804E+00 9.27753E-01 2.07489E+00 3.73923E+00
 -1      1643 9.38197E+00 4.47625E+00 8.95601E+00-2.25552E+00 3.21165E-01 6.84894E+00
 -1      1644 1.14858E+01 1.03691E+01 1.21059E+01 8.74542E-01 4.61119E+00 3.66201E+00
 -1      1645 6.30036E+00 6.88018E+00 3.69285E+00 9.28578E-02 3.99984E+00 1.20894E+00
 -1      1646 3.47609E+00 2.34489E+00 9.90251E-01-1.88191E+00-2.58751E+00-2.24953E+00
 -1      1647 2.30377E-01 1.05292E+00 9.41346E-01 2.58181E-01-6.14584E+00-1.06543E+00
 -1      1648-9.53418E+00-7.27721E+00-8.17038E+00 1.49270E+00-4.25667E+00 6.26594E+00
 -1      1649 3.35980E+00 5.78039E+00 4.39929E+00 4.01394E-01 1.85151E+00-1.96073E+00
 -1      1650 4.57488E+00 6.00587E+00 2.02993E+00 1.88014E-01-4.43648E+00 2.04786E+00
 -1      1651 1.01122E+00-2.94687E-01 6.90184E-01 7.82668E-01 1.81454E+00-2.05870E+00
 -1      1652-2.11735E+01-1.79209E+01-8.32214E+00-1.49760E+00-2.50159E+00 1.10329E+00
 -1      1653-1.55772E+01-1.62142E+01-4.23989E+00-1.57273E+00 1.42226E-01-1.98980E+00
 -1      1654 1.37040E+00 5.40716E+00 3.29745E+00 3.12820E-01 8.49935E+00 2.61748E+00
 -1      1655 3.59374E+00 1.73862E+00 2.40112E+00 2.35888E-01-2.59685E+00 7.76223E-01
 -1      1656 9.77530E+00 9.01522E+00 7.94055E+00-1.02646E+00-1.42420E+00-3.41761E+00
 -1      1657-6.17721E+00-2.10508E+00-1.88090E+00 9.28837E-01-6.05431E-01 5.53900E+00
 -1      1658 3.25015E+00 6.94077E+00-1.00449E+00-8.98547E-02-2.94470E+00 1.90678E+00
 -1      1659 3.53079E+00 5.97663E+00 4.10907E+00-5.55431E-01 1.44258E+00 1.95891E+00
 -1      1660 4.09156E+00 3.12544E+00 1.89234E+00 1.41691E+00 1.33163E+00-1.06443E+00
 -1      1661-1.80095E-01-1.82722E+00 1.09373E+00-1.90720E+00-4.47506E+00-2.23758E+00
 -1      1662 7.38335E+00 9.74535E+00 9.93831E+00-4.47678E-01-7.28031E+00-1.05478E+00
 -1      1663 9.40013E+00 1.52970E+01 8.81852E+00-9.90311E-02-6.05074E+00-4.73645E+00
 -1      1664-1.20628E+01-1.12330E+01-1.35727E+01-2.07584E+00-1.59837E+00-7.20835E+00
 -1      1665 2.11100E+00 2.69012E+00 1.88667E+00 1.37369E+00-1.70195E+00 3.07958E+00
 -1      1666-2.29420E+00-3.14411E-01-2.26312E+00 1.16301E+00 3.55863E+00 1.08219E+00
 -1      1667 5.47559E+00 5.65581E+00 1.94892E+00-1.34153E+00 2.15194E+00 3.47551E+00
 -1      1668-3.57154E+00-1.46842E+00 2.75822E-01-7.42371E-01-1.44825E+00 2.19098E+00
 -1      1669 1.12082E+00-1.51761E+00 9.03121E-01-8.53828E-01-5.40216E+00-7.33746E-01
 -1      1670 3.45651E+00 5.59399E+00 2.11052E+00 8.92359E-01 2.00020E+00-2.34418E+00
 -1      1671 4.39171E+00 3.91790E+00 2.74184E+00 1.24073E+00 1.60302E+00-1.86916E+00
 -1      1672-1.25495E+01-1.23473E+01-9.17163E+00 2.52265E+00 5.60836E+00-4.49863E+00
 -1      1673 9.58888E+00 7.92861E+00 7.09864E+00 2.58080E+00 1.31232E+00 4.07341E+00
 -1      1674 1.99488E+00-1.17418E-01 1.69334E+00-4.79436E-02-2.99701E+00-2.21181E-01
 -1      1675-5.19289E+00-1.55782E+00-8.21299E-01-1.79740E+00-2.23489E+00-4.16669E+00
 -1      1676 4.63680E+00 6.59777E+00-1.34943E-01-8.69679E-01 2.08085E-01 3.89405E+00
 -1      1677 8.39246E+00 1.27290E+01 7.76863E-01 5.24668E-01-2.51834E+00-5.73172E+00
 -1      1678-9.53417E+00-3.52837E+00-1.96591E+00-1.20023E+00-1.59747E+00-4.02101E+00
 -1      1679-4.82320E+00-4.68263E+00-1.64509E+00 2.09750E+00 3.22766E+00-6.68174E+00
 -1      1680-3.50221E+00-1.04258E+01-2.09962E+00-1.68723E+00 3.95329E+00 7.09857E-01
 -1      1681 1.43048E+00 3.01411E+00 3.78799E+00-9.97166E-02 1.31059E+00-2.87904E+00
 -1      1682-9.40535E+00-1.44677E+01-7.21678E+00-1.35180E-01-6.13795E+00-3.25366E+00
 -1      1683-3.25903E+00-2.05320E-01 2.27923E+00-3.35682E-01-1.64387E+00-4.12252E+00
 -1      1684 6.17722E+00 3.66937E+00 2.59901E+00 4.82044E-01 1.09928E+00-1.95321E+00
 -1      1685-2.51857E+00-5.24777E-01 9.30089E-01 1.96614E-01 8.08450E-01-5.16607E+00
 -1      1686-2.30240E+00-2.55540E+00-6.63979E-01-1.85224E+00 2.84416E+00 1.30922E+00
 -1      1687-2.75568E+00 7.45930E-01 7.08708E-01 2.71881E-01-1.71807E+00 3.91843E+00
 -1      1688-6.37428E+00-8.84743E+00-5.80181E+00-3.38878E+00 6.67336E+00 5.29700E+00
 -1      1689-4.16493E+00-5.65287E+00-6.68936E-01-9.18089E-02 1.20316E+00-2.98270E+00
 -1      1690-2.43149E-01-1.37808E-01-2.54300E-01 1.05561E+00 2.89645E+00-4.40179E+00
 -1      1691-1.15759E+01-4.39938E+00-1.47309E+00-2.23131E+00 1.74765E+00 5.24607E+00
 -1      1692 1.48911E+00 3.62752E+00 3.96384E-01-7.11179E-01-1.77625E+00-6.40010E-01
 -1      1693-1.10583E+01-6.49211E+00-4.42861E+00 2.19389E+00 8.36582E-01 4.80418E+00
 -1      1694-5.84362E+00-3.49243E+00-2.28426E+00-2.44338E+00-1.10376E+00-2.88394E+00
 -1      1695 4.34166E+00 5.48750E+00 4.09923E+00-9.84986E-01 7.42738E-02 3.07566E+00
 -1      1696-4.10981E+00-1.17093E+01-4.25528E+00 5.46643E-01 7.25744E+00-1.19631E+00
 -1      1697 3.80601E+00 9.60329E+00 7.05726E-01 3.97395E-02-6.11367E-01-2.59431E+00
 -1      1698 4.16216E+00 2.93064E+00 3.12570E+00-4.58228E-01 2.54524E+00 6.94684E-01
 -1      1699-1.08425E+01-8.56041E+00-9.62729E+00-4.38922E-01-9.55422E-01-8.09183E+00
 -1      1700-1.12958E+01-1.64388E+01-7.98883E+00-1.12791E+00-6.34943E+00-3.56519E-01
 -1      1701 1.76114E+00 6.02768E+00 2.03546E+00 9.66939E-01 7.48036E+00 1.82382E+00
 -1      1702-1.26059E+00-3.72288E+00-4.18740E+00-8.74348E-01-5.86634E-01 9.37008E+00
 -1      1703-9.48538E+00-6.28500E+00-7.37317E+00-6.66979E-01 4.14572E+00-7.81386E+00
 -1      1704 7.37366E+00 5.65295E+00 2.44110E+00 3.27764E-01 2.22914E+00-1.35991E+00
 -1      1705 4.90440E+00 6.76342E+00 1.86822E+00 2.41127E+00-4.01943E+00-2.95727E+00
 -1      1706-6.43882E+00-8.76899E+00-2.90585E+00-2.87970E-02 1.12282E-01 3.65588E+00
 -1      1707-7.79439E+00-3.65880E+00-6.13015E+00-5.11164E-01 1.72877E+00 6.99221E+00
 -1      1708-2.31508E+00-7.86595E+00 2.75393E+00 3.02686E+00-5.94276E-01 2.28935E+00
 -1      1709-1.26335E+00-4.86621E+00-1.76053E+00-1.36563E+00-6.86732E+00-1.95960E+00
 -1      1710-1.88372E-01 1.52776E+00 1.91550E+00 1.55312E+00 2.63350E+00-3.27346E+00
 -1      1711 6.72284E+00 9.03207E+00 5.84702E+00-1.30837E+00 1.14377E-02 3.21244E-01
 -1      1712 3.81402E+00-3.07739E-01 1.52318E+00 8.85314E-02-3.64338E+00 2.69823E-01
 -1      1713-6.13455E+00-2.24675E+00-2.34480E+00-2.14713E+00 5.75211E-01-6.47651E+00
 -1      1714-2.13210E+00-4.31739E+00 9.36564E-01-7.72160E-01 3.55867E+00 8.70293E-02
 -1      1715 3.67449E-01 1.21152E+00-1.75317E+00-5.53349E-01 2.48311E+00-3.67127E-01
 -1      1716-4.25075E+00-4.13352E+00-2.45675E+00-6.02698E-01-1.21100E+00 3.32204E+00
 -1      1717 1.06885E+01 1.15447E+01 1.37736E+01 1.04495E+00-7.16480E+00-3.60663E+00
 -1      1718 5.87688E+00 5.92436E+00 4.79562E+00-4.11646E-01-2.61034E+00 5.94344E+00
 -1      1719 8.07626E+00 9.35368E+00 2.55165E+00-3.47040E+00 4.15577E+00-2.45866E+00
 -1      1720-6.09328E+00-5.93815E+00-3.96801E+00 7.95437E-01 1.47522E+00 7.49138E-01
 -1      1721 6.11807E+00 4.56187E+00 4.04804E+00 6.89702E-02 3.03896E+00-3.48283E+00
 -1      1722 1.56154E+00-3.18155E+00 1.24520E+00-1.85610E-01-3.96534E+00-1.04569E+00
 -1      1723 4.57891E+00 6.83738E+00-7.36215E-01-1.76503E+00 8.79472E-01 1.86214E+00
 -1      1724 2.52196E+00 2.82526E+00 3.64801E+00 4.65544E-01 6.13080E+00-3.00213E-01
 -1      1725-5.16635E-01-8.09197E-01 1.04017E+00 1.39408E+00 1.83327E+00-3.23054E+00
 -1      1726-3.04913E+00-3.98916E+00-6.75609E-01 7.78917E-01-8.64493E-01-2.25169E+00
 -1      1727 1.35729E+01 1.48768E+01 1.01135E+01-1.46004E+00 1.67113E+00 1.04289E+00
 -1      1728 2.39466E+00-3.02726E-02 8.76655E-01-1.38602E+00-3.22614E+00-1.83631E+00
 -1      1729-3.50085E-01 2.52363E+00 1.28537E+00-9.96077E-01-1.61060E-02 3.84288E+00
 -1      1730-5.71685E+00-2.71342E+00-2.74268E-01-7.34176E-01 1.91996E+00 6.29546E-02
 -1      1731-1.65767E+01-1.59394E+01-7.73801E+00-3.67529E-01-2.56922E-01 7.46444E-01
 -1      1732-7.19918E+00-4.10147E+00-4.76182E+00-8.03311E-01 2.20249E+00 4.58673E+00
 -1      1733 1.31827E+01 9.40197E+00 1.11061E+01-1.01037E+00 6.52997E-01-1.39743E+00
 -1      1734-7.63044E+00-7.62854E+00-3.77958E+00 1.61492E+00 4.32327E+00-4.75077E+00
 -1      1735-1.17403E+01-9.13016E+00-5.72377E+00 3.26460E+00 1.53601E+00-5.13120E+00
 -1      1736 6.09565E+00 3.20845E+00-7.07618E-01-5.23268E-01 2.53348E+00 1.18789E+00
 -1      1737 6.99828E+00 5.09967E+00 6.07997E+00-5.88590E-01 5.78050E-01-7.27620E+00
 -1      1738-3.44624E+00-8.21109E+00 4.93412E+00-3.33469E+00-3.63110E+00-2.18692E+00
 -1      1739-1.39483E+00 1.41911E+00 2.34384E+00 6.45064E-01-2.01655E+00-4.23384E+00
 -1      1740-9.66035E+00-9.53309E+00-7.04462E+00 1.88556E+00 3.99274E+00-6.92229E+00
 -1      1741 1.16460E+01 7.11833E+00 2.65050E-01 4.42325E-01 4.56149E+00 6.77595E-01
 -1      1742-3.67687E+00-5.51632E+00-2.09474E+00 4.16666E-02 1.80774E-01 3.19585E+00
 -1      1743-1.06851E+01-1.10723E+01-7.55034E+00 2.38945E+00-7.72075E+00 3.54938E+00
 -1      1744-1.41814E+00 1.75618E+00 9.31503E-01-5.69846E-01 2.85249E-01 3.57587E+00
 -1      1745-7.39022E+00-4.34252E+00-4.17448E+00 1.51168E+00 2.17936E+00-4.68371E+00
 -1      1746 2.44333E+00 4.51010E+00 3.66328E+00-1.42396E+00-2.04282E+00-2.93644E+00
 -1      1747-5.43204E+00-3.30536E+00-1.97400E+00 1.69410E+00-1.12286E+00 4.64002E+00
 -1      1748 8.70715E+00 5.72486E+00 2.08679E+00-1.10866E+00 1.26520E+00 1.27311E+00
 -1      1749 6.88368E-01 2.68713E+00 1.87975E+00-9.87643E-01 1.93484E+00 2.06936E+00
 -1      1750 1.58554E+00 1.24111E+00 5.00250E-01-1.65225E+00 2.95748E+00 3.49308E+00
 -1      1751 6.73695E+00 7.58704E+00 6.23100E+00 9.18186E-03 1.75310E+00 4.11386E+00
 -1      1752-1.39442E-01-1.15614E+00-1.11542E+00-1.10630E+00 2.53387E+00 2.94677E+00
 -1      1753-1.32433E+01-1.24675E+01-5.68024E+00 2.97348E-01-1.01393E+00 4.71620E-01
 -1      1754 3.56948E+00 8.06333E-01 2.51781E+00 5.18631E-01 6.54932E-01 6.83829E+00
 -1      1755-1.24965E+00-1.77062E-01 2.00442E+00 1.04122E+00 5.09763E+00 1.02888E+00
 -1      1756 4.76644E+00 3.29332E+00 2.62985E+00 1.74701E+00-2.01005E+00 1.62864E+00
 -1      1757-4.76835E+00-6.35654E+00-1.93757E+00 2.40325E-02-1.19639E+00 3.03911E+00
 -1      1758 6.50100E+00 6.22450E+00 1.65524E+00 1.22497E+00 1.71366E+00-2.07716E+00
 -1      1759 7.66431E+00 8.17528E+00 8.31033E+00-2.84438E-01 4.13928E+00-3.03386E+00
 -1      1760 2.75409E+00 2.81935E+00 1.67329E+00 1.25507E+00-2.16906E+00 8.42847E+00
 -1      1761 2.74401E+00 9.80230E-01 3.67103E+00 1.47495E+00-4.13359E+00 3.80364E+00
 -1      1762 1.24205E+01 1.56915E+01 1.11190E+01 4.50370E-02 5.29902E+00 2.59000E-01
 -1      1763 8.35185E+00 4.36756E+00 5.96551E+00-1.48365E+00-1.11993E+00-6.93493E+00
 -1      1764-9.35410E+00-5.48636E+00-3.35701E+00 1.67732E+00 1.23813E+00-3.88922E+00
 -1      1765 2.09675E+00-5.30349E-01 9.64082E-01 2.70094E-02-1.69475E+00-6.22898E+00
 -1      1766-8.74770E-01-1.90353E+00 2.02962E+00 2.28535E+00-4.01380E+00 2.83006E+00
 -1      1767-1.35849E+01-9.61725E+00 1.54822E+00-4.24728E+00 7.93419E-01 3.79536E+00
 -1      1768 4.61880E+00 2.82778E+00 1.33840E+00 1.41205E+00-2.04170E+00 2.47092E+00
 -1      1769 4.47362E+00 2.00510E+00 1.01602E+00 6.18965E-01-2.71766E+00 5.26242E-01
 -1      1770 5.00098E+00 7.65212E+00 5.25922E-01 7.04912E-01-1.98805E+00 4.32567E+00
 -1      1771 5.58961E+00 6.35952E+00 3.89507E+00-1.13864E+00 5.24792E+00-3.52049E+00
 -1      1772-5.46251E+00-5.74423E+00-1.19494E+00 8.42888E-01-2.42056E+00-2.40304E+00
 -1      1773 1.05745E+01 8.40058E+00 2.13386E+00-2.25682E+00-3.13902E+00-2.50332E+00
 -1      1774 8.52023E+00 9.82917E+00 7.10474E+00-8.81181E-01 2.98056E+00 3.72933E+00
 -1      1775-8.49596E-01 2.82338E+00 2.58987E+00 9.12881E-01-2.38449E+00 4.90711E+00
 -1      1776 1.46216E+00 3.52228E+00 2.66546E-01 6.52401E-01 4.08377E+00 2.23529E+00
 -1      1777 2.93268E+00 1.22777E+00 1.11679E-01-4.41006E-01 3.03053E+00-4.22218E-01
 -1      1778 3.24525E+00 1.24727E+00-3.83955E+00 2.26475E+00 6.19959E+00 3.51583E+00
 -1      1779-9.60887E+00-8.38884E+00-4.88250E+00 1.94159E+00 2.70791E+00 6.40788E-01
 -1      1780 7.46042E+00 1.14180E+01 1.72868E+00 1.69118E+00 2.22671E+00-3.67836E+00
 -1      1781-2.46751E+00-8.39032E+00-2.09597E+00-6.16983E-02 6.78063E+00 7.06101E-01
 -1      1782 8.85158E+00 6.58595E+00 4.14460E-01 1.36861E+00 3.25754E+00-3.28897E+00
 -1      1783-8.64686E+00-6.89883E+00-7.23775E+00 3.08995E-01-1.49729E+00-6.46525E+00
 -1      1784 2.87925E+00-2.35467E+00 1.43630E+00 4.65191E-01-3.43051E+00-1.22427E+00
 -1      1785 7.07087E-01 2.09041E+00 2.90076E+00 1.27089E+00-1.06276E+00 2.87179E+00
 -1      1786 8.29128E+00 1.68378E+00 5.80504E+00 1.49996E-01 1.48393E+00-5.95929E+00
 -1      1787 5.94861E-01-2.75041E+00-3.93862E-02 3.85552E-01 4.19780E+00-5.47444E-01
 -1      1788-3.36531E+00-8.58665E+00-3.37025E+00 5.34010E-01-6.59126E+00 2.01938E-01
 -1      1789-1.17299E+00-6.57312E+00 1.30680E+00-1.75774E+00 3.98000E+00 1.06465E+00
 -1      1790 2.41321E+00 5.15836E-01 2.29413E+00 3.78460E-01 3.50922E+00-1.66453E+00
 -1      1791-1.59805E+01-1.48179E+01-8.00372E+00-1.72544E+00-6.70615E-01 1.12045E-01
 -1      1792 2.74836E+00 4.63144E+00 6.48232E-01 1.97930E+00 2.00592E+00-2.74158E+00
 -1      1793 7.45438E+00 2.59378E+00 3.86065E+00-3.60795E-01-2.76938E+00-5.30435E-01
 -1      1794 6.54276E-01 5.17708E+00 2.94894E+00-1.16503E-01-5.84796E-01-2.70097E+00
 -1      1795 1.52135E+01 1.19116E+01 7.77830E+00 3.18840E+00-2.08116E+00-6.96002E+00
 -1      1796-3.71828E+00 1.38263E+00 3.34969E-01-3.60373E-01-7.42367E-01-5.18994E+00
 -1      1797 7.80004E+00 1.06412E+01 4.48714E+00-2.76565E+00-4.72926E+00 3.14671E+00
 -1      1798-4.57557E+00-2.10722E+00-2.54357E+00-1.57173E+00-2.73462E+00-3.17371E+00
 -1      1799-1.11169E+01-3.81688E+00-4.62819E+00-2.13287E+00-1.18026E+00-4.14165E+00
 -1      1800 2.56026E+00-2.54015E+00 4.26165E-02-4.69460E-01 4.35622E+00 9.52049E-02
 -1      1801-1.61288E+01-1.08406E+01-1.26315E+01 1.60785E-01 1.24364E+00-8.22088E+00
 -1      1802-8.32200E+00-9.57419E+00-3.80338E+00 2.81567E+00-3.16901E+00 2.37134E-01
 -1      1803-1.30478E+00 3.45215E-01 6.39378E-01 7.93357E-01-2.18032E+00 2.77292E+00
 -1      1804-7.94901E+00-1.04510E+01-6.89574E+00-2.31151E+00 3.30445E+00 8.20070E+00
 -1      1805-6.09037E+00-8.98280E-01-9.50859E-01 1.28164E+00 1.65205E+00-4.96789E+00
 -1      1806-9.09676E-01-1.87975E+00-2.27707E+00-2.75704E-01 2.64788E+00 4.43703E+00
 -1      1807 3.03259E+00-1.71235E-01-3.94303E-01-1.20304E+00-6.49593E+00-1.26233E+00
 -1      1808 1.53862E+00-1.32129E-02 1.14882E+00 1.16297E+00-2.48722E+00 2.22424E+00
 -1      1809-7.68483E+00-4.98236E+00-3.31364E+00 5.04683E-01 2.83075E+00-6.60694E-01
 -1      1810 1.92805E+00 2.24049E+00 3.85697E+00-1.31627E-01 2.21120E+00 8.47576E-02
 -1      1811-3.37661E+00-3.68939E+00-9.97172E-01-6.21262E-01 1.36549E+00-3.81130E+00
 -1      1812 6.31357E+00 6.26985E+00 6.15252E+00-1.81560E+00 2.53235E+00-4.55691E+00
 -1      1813-9.79491E+00-1.12391E+01-6.13454E+00 3.30920E+00 5.00401E+00-2.91741E+00
 -1      1814-1.40458E+01-1.79491E+01-7.88109E+00 4.03223E+00 4.87473E+00-3.01953E+00
 -1      1815 3.43274E+00 6.77959E+00 1.90145E+00-1.53745E+00 3.33344E+00-1.80534E+00
 -1      1816 4.99158E+00 4.12537E+00 4.23651E+00-1.41070E+00 3.81684E-01 2.56920E+00
 -1      1817 3.01491E+00-3.57486E-01 2.84182E+00 5.37418E-01-3.54566E+00-4.31607E+00
 -1      1818-7.53570E+00-8.35032E+00-5.76352E-01 3.35784E+00-3.92435E+00 2.66715E+00
 -1      1819 6.28783E+00 5.77909E+00 7.65389E+00-2.49825E-01 6.22231E+00-1.61650E+00
 -1      1820-4.91902E+00-5.05205E+00-3.98720E+00-3.23814E-01 2.01849E+00-6.21649E-01
 -1      1821-1.94038E+00-8.64831E-01 1.24337E+00 5.28428E-01 2.11732E+00-3.65870E+00
 -1      1822 1.02490E+01 1.00181E+01 1.14613E+01-6.16894E-01-5.62284E+00 4.54237E+00
 -1      1823-5.88088E+00-7.05192E+00-2.46893E+00-1.24238E+00 1.90961E+00-1.88082E+00
 -1      1824-5.39451E-01-1.40513E+00-1.38491E+00 3.56930E-01 3.02586E+00 4.91049E+00
 -1      1825-7.49161E+00-5.94241E+00-5.35565E+00-3.34231E-01-3.01596E+00-1.91254E-01
 -1      1826 1.54353E+01 1.06595E+01 5.05206E+00-1.13872E-01 2.90913E+00 2.15094E+00
 -1      1827-1.01564E+01-1.57496E+01-8.58692E+00-1.55299E+00 6.82851E+00 2.28097E+00
 -1      1828 3.78213E+00 5.76957E+00 2.12846E+00-7.49447E-01-1.47795E+00-1.94960E+00
 -1      1829 3.85019E+00 4.88439E+00 3.02932E+00-1.42167E-01-2.16805E+00-2.29680E+00
 -1      1830 3.30245E+00 3.69100E+00 6.02191E-01-1.52664E+00-1.34661E+00-2.26023E+00
 -1      1831-8.15084E+00-1.23324E+01-1.02684E+00-3.26858E+00 3.34559E+00 1.90991E+00
 -1      1832-6.48452E+00-1.04095E+01-7.87822E+00-1.28627E-01 6.48970E+00-3.19970E-01
 -1      1833 4.71633E+00 7.51733E+00 2.85893E+00-5.15112E-01-9.77106E-01-3.21564E+00
 -1      1834 7.52207E-01 3.68886E+00 3.32548E+00-1.31039E+00-1.18785E+00-4.16158E+00
 -1      1835 5.86172E+00 2.81847E+00 1.78290E+00-2.00512E+00-4.50697E+00-2.61286E-01
 -1      1836-9.02419E+00-6.95088E+00-2.80552E+00-2.21010E+00 1.05012E+00 6.62903E+00
 -1      1837-9.31867E+00-1.62648E+00-7.41385E-01 2.65930E-01-3.31529E-01-4.76762E+00
 -1      1838 5.51436E+00 8.83380E+00 2.73448E+00-2.31164E+00 5.50728E+00-2.19891E+00
 -1      1839 3.30814E+00 3.80415E+00 2.55481E+00 4.71068E-01 3.99610E+00 1.57117E+00
 -1      1840 6.96259E+00 2.57922E+00-1.24267E+00 4.68811E-01 2.22202E+00-3.27604E-01
 -1      1841 1.00519E+01 1.41043E+01 4.03441E+00 1.71545E-01 1.21080E-02 5.99706E+00
 -1      1842 7.46666E+00 8.04024E+00-5.15772E-01-2.34784E+00-2.68629E+00-3.04766E+00
 -1      1843 1.94404E+00 3.77625E+00 1.51605E+00-7.69467E-02-1.47560E+00 2.49224E+00
 -1      1844 2.85525E+00-2.34192E+00 1.11927E-02 8.47174E-01-3.64142E+00 4.53198E-01
 -1      1845-2.19924E+00-5.25005E+00-6.79532E+00-1.74825E-01 6.36531E+00-1.49514E+00
 -1      1846 2.14377E-01 3.79948E+00 2.23551E+00 2.10714E+00 1.15790E+00-4.46121E+00
 -1      1847 1.34359E+00 3.70805E+00 1.40640E+00 4.00471E-01 7.95607E-01-2.60870E+00
 -1      1848-1.22476E+01-1.13501E+01-1.49491E+01 6.85816E-01-3.69788E-01-1.57361E+00
 -1      1849 9.84721E+00 9.04538E+00 7.76600E+00 7.76085E-01-3.28192E+00-1.01138E+00
 -1      1850-1.44809E+01-8.88690E+00-5.57815E+00 7.62831E-01-2.44535E+00-3.21001E+00
 -1      1851-8.82325E+00-5.85950E+00-5.02967E+00-5.38216E-01-2.96476E+00-4.87417E+00
 -1      1852 5.48057E+00 3.06022E+00 6.15459E-01-9.79691E-01-2.09026E+00-1.93056E+00
 -1      1853-6.27887E+00-6.81588E+00-4.25376E+00 1.21715E+00-2.13111E+00-6.05081E-01
 -1      1854-6.68493E-01 1.07319E+00 2.37598E+00-1.32002E+00-2.56923E+00 4.87993E+00
 -1      1855-6.60933E+00-6.34124E+00-5.52512E+00-3.00046E-01-1.26248E+00 1.88350E+00
 -1      1856-1.52772E+01-6.76744E+00-6.07776E+00-2.91130E+00-1.92791E+00-2.57205E+00
 -1      1857 3.44494E+00 3.38186E+00 2.91572E+00-1.63096E-01 2.79017E+00 3.24817E-02
 -1      1858 4.16492E+00 6.32733E+00 2.83192E+00-1.03908E+00-4.86848E+00 1.03370E+00
 -1      1859 6.63400E+00 7.24775E+00 6.46950E+00 2.61613E-01-3.66338E-01 3.50164E+00
 -1      1860 1.15532E+01 1.37101E+01 6.46693E-01-1.58770E+00-1.21019E+00-4.39469E+00
 -1      1861-4.56001E+00-5.32027E+00-4.42259E+00 1.18148E+00 3.19795E+00 2.62226E+00
 -1      1862 1.40335E+01 9.81180E+00 8.29589E+00-7.90379E-02-1.81402E-01 6.71815E+00
 -1      1863 4.42506E+00 4.27585E+00 2.24868E+00 3.03876E-01 1.50006E+00-1.67953E+00
 -1      1864 1.08224E+01 9.82764E+00 2.22318E+00 2.09251E+00 3.16533E+00-3.58092E+00
 -1      1865 4.99982E+00 3.97906E+00 1.98412E+00 2.07975E+00-5.47552E+00-1.00993E+00
 -1      1866-1.97967E+01-1.37070E+01-1.42994E+01-1.83898E+00 1.15723E+00 6.63875E+00
 -1      1867 6.03827E+00 6.44493E+00 8.59605E+00 3.18765E-01 5.44102E+00 3.03518E+00
 -1      1868 4.04318E+00 8.70359E+00 7.65967E-01 1.87992E-01-4.21415E-01 2.57239E+00
 -1      1869 5.51592E+00 7.84065E+00 3.97340E+00 1.75187E+00-1.67810E+00 3.28548E+00
 -1      1870 7.63514E+00 9.05256E+00 1.26812E+01 2.18975E-01 3.48194E+00 5.57886E+00
 -1      1871 1.55239E+00 4.40449E+00 2.35364E+00-1.04075E-01-4.56478E-01-2.62716E+00
 -1      1872 9.07420E-01 7.12437E+00 1.95367E+00-3.12088E-01-4.13843E-01-4.51341E+00
 -1      1873-5.99268E+00-6.90204E+00-5.82556E+00-1.29963E+00 6.13532E+00 4.17315E+00
 -1      1874-9.77489E+00-6.22077E+00-2.29747E+00-1.46448E+00 2.28799E+00 5.24274E-01
 -1      1875 5.11553E+00 5.35603E+00 3.26200E+00-2.24061E-01 4.15058E+00 2.17157E+00
 -1      1876-2.55852E+00-8.05698E+00-3.76225E+00-1.11926E+00 6.11612E+00-2.14805E+00
 -1      1877 2.45715E+00 3.48498E+00-5.06423E+00 1.97375E+00-3.92632E+00-6.11271E+00
 -1      1878-1.90554E+00-5.82100E+00-8.66056E-01-2.38704E+00-6.87207E+00-1.85135E+00
 -1      1879-1.54194E-01-3.31097E+00-3.63404E-01 3.25486E-01 3.56549E+00-3.44484E-01
 -1      1880 4.44317E+00 7.49370E+00-4.11246E-01 1.56942E+00 1.42971E+00-2.08077E+00
 -1      1881-6.73588E+00-9.32087E+00-7.66551E+00-2.70561E-01 6.53202E+00 3.91010E-01
 -1      1882 1.79877E+01 1.73038E+01 4.17844E+00 1.15905E+00 9.93809E-01 8.70601E-01
 -1      1883-6.35693E+00-6.56069E+00-5.91426E+00 1.57683E+00 3.41287E+00-7.29837E+00
 -1      1884-2.51678E+00-7.60583E-01 2.80894E-01-1.40221E+00 1.38781E+00 3.46901E+00
 -1      1885 4.55040E+00 5.79538E+00 2.06406E+00-2.80169E-01 1.28027E+00 2.93423E+00
 -1      1886-3.39791E+00 2.99049E-01-6.66334E-01 2.64702E-01-1.69596E+00 4.27719E+00
 -1      1887-1.23340E+00-7.63584E-01 2.66548E-02-1.04080E-01 2.53101E+00 2.22498E+00
 -1      1888 3.43331E+00-4.28319E-01 3.55805E-01-3.96595E-01 1.12694E+00 3.82603E+00
 -1      1889 6.81616E-01 2.47005E+00 2.49055E+00-1.48286E-01 2.25641E-01 2.58764E+00
 -1      1890 1.35018E+00 3.76619E+00 9.73570E-01-1.55566E+00 2.45312E+00 2.63476E+00
 -1      1891-8.64471E+00-1.15862E+01-1.15331E+01 1.61902E+00-1.62311E+00-9.22702E-02
 -1      1892-3.29882E+00-3.87875E+00-2.12936E+00 3.44366E-01 1.57075E+00-5.74236E+00
 -1      1893 6.25473E+00 2.91278E+00 3.40695E+00 4.04492E-01-5.68315E-01-6.31677E+00
 -1      1894 1.41142E+01 1.83632E+01 1.09174E+01-3.32191E+00-9.94909E-01 1.73916E+00
 -1      1895-3.25435E+00-7.19678E+00-4.54351E+00 4.17538E-01 6.64594E+00 7.45311E-01
 -1      1896-5.91121E+00-1.30781E+01-1.64805E+00-7.89954E-01 4.52992E+00 2.16334E+00
 -1      1897 4.97726E+00 5.64885E+00 1.42015E+00 6.10194E-01-5.56648E+00-3.06078E+00
 -1      1898 5.90143E+00 7.24338E+00-3.07890E-01 2.14022E+00 4.50225E+00 3.57306E+00
 -1      1899 3.35691E+00 8.46481E+00 1.18682E+00-2.75412E-01 4.66028E-01 2.69962E+00
 -1      1900 7.29568E+00 8.34877E+00 2.63366E+00 2.29116E-01 2.77976E+00 5.41539E+00
 -1      1901-1.03185E+01-1.46054E+01-1.11159E+01 2.48173E-01 7.72720E+00-1.21604E+00
 -1      1902 2.73113E+00 1.75410E+00 1.42692E+00-1.75046E-01-2.64337E+00-4.20983E-01
 -1      1903-7.31946E+00-7.26917E+00-6.59795E+00 8.04430E-01-5.11127E+00 4.14505E+00
 -1      1904 4.27134E+00 2.66800E+00 3.48176E+00-5.63678E-03 1.82491E+00-5.15040E-01
 -1      1905 1.18072E+01 8.34435E+00 2.92459E+00-4.31276E-01-1.92303E+00 6.71206E+00
 -1      1906-4.52644E+00-5.03400E+00-4.04064E+00-3.42750E-01 1.69365E+00-2.42302E+00
 -1      1907 5.90454E+00 6.74925E+00 1.19398E-01-9.22179E-01-1.84633E+00 5.38255E+00
 -1      1908-6.29479E+00-6.25952E+00-5.49211E+00-1.01707E+00 1.00285E+00-1.94716E+00
 -1      1909 6.40688E+00 4.15504E+00 3.39992E+00-1.43418E+00-4.58532E+00 5.34661E+00
 -1      1910-6.78183E+00-8.43678E+00-6.68182E+00-1.83892E+00 5.57688E+00 3.45729E+00
 -1      1911-1.68381E+01-1.27042E+01-1.35370E+01-2.42900E+00 7.43437E-01 6.58979E+00
 -1      1912 4.30234E+00 3.71070E+00 4.73860E+00 6.57514E-01 3.17759E+00 8.65514E-01
 -1      1913 4.45902E+00 7.12930E+00 6.07914E-01-1.21584E-01 3.53701E-01 3.30183E+00
 -1      1914 6.79080E+00 6.14048E+00 4.74528E+00-5.25166E-02 8.13236E-01 5.58565E+00
 -1      1915 2.04495E+00 4.33149E+00 1.89899E+00 1.20221E+00 1.31988E+00-2.85821E+00
 -1      1916 5.63806E+00 5.49050E+00-1.71685E+00-2.34045E+00-1.46239E+00-2.06501E+00
 -1      1917-4.09967E+00-4.48436E+00-2.51305E+00 5.93709E-01-2.65915E+00-1.72170E+00
 -1      1918-4.53564E+00-4.22596E+00-1.69460E+00-2.98775E-01-1.77740E+00 1.53043E+00
 -1      1919 5.33850E+00 4.01175E+00 3.31235E+00 1.37819E-01 1.50030E+00-1.04711E+00
 -1      1920 4.15347E+00 3.62161E+00 2.57360E+00-2.75222E+00 3.01269E-01 8.39261E+00
 -1      1921-9.96528E+00-1.14274E+01-1.12033E+01-1.99632E+00 7.08292E+00 4.85036E+00
 -1      1922-1.11363E-01 4.06582E+00 3.20618E-01-1.91129E-01-7.18493E-01-3.26760E+00
 -1      1923-3.48943E+00-1.34481E+01-1.80522E+00 8.18693E-01 3.91735E+00-6.97644E-01
 -1      1924-5.65899E+00-2.41965E+00-3.98511E+00-7.31921E-01 1.37277E+00 6.45705E+00
 -1      1925-4.10719E+00-1.17566E+00-6.57978E-01 8.44158E-01-2.97085E-01-6.03145E+00
 -1      1926 9.49903E-01 7.58987E-01 8.39369E-01-3.38066E-01-7.87375E-01 2.64377E+00
 -1      1927-6.29707E+00-1.25764E+01-5.64717E-01-1.54892E+00-8.82809E-01 2.06256E+00
 -1      1928 9.30210E+00 5.99478E+00 1.29271E+00-1.02852E+00-2.78797E+00 4.92857E-01
 -1      1929 5.84112E+00 9.73269E+00 3.69454E+00-2.20824E-01-8.38761E-01-2.44152E+00
 -1      1930 1.07366E+01 9.52418E+00-1.75238E+00-1.86183E+00-5.68807E+00 4.60349E-01
 -1      1931 4.58896E+00 2.90977E+00 2.65744E+00 7.55452E-01 2.33286E+00-1.09045E+00
 -1      1932-1.99497E+00-2.74466E+00-2.43079E+00 6.00772E-01 3.38958E+00-9.77664E-01
 -1      1933-3.64586E-01 3.77982E+00 1.75656E+00 6.82111E-02 1.43325E+00-3.07112E+00
 -1      1934 5.01528E+00 6.25718E+00 3.70247E+00-4.26027E-01 8.07518E-01-2.66827E+00
 -1      1935 5.06646E+00 4.96474E+00-4.72588E-01 1.59767E+00-2.30661E+00 1.65697E+00
 -1      1936-7.37622E+00-8.04103E+00-4.78185E+00-1.68442E+00-2.53262E-01 2.90890E+00
 -1      1937-6.80240E-01-4.01566E-01 1.54208E+00-1.47973E+00-2.22524E+00-3.09853E+00
 -1      1938 2.95827E+00 2.67474E+00 3.15719E+00 1.49062E+00 1.72589E+00-3.00672E+00
 -1      1939-1.44742E+01-9.71485E+00-8.03117E+00 1.25550E+00 3.37437E+00 1.13348E+00
 -1      1940-5.64092E+00-4.20690E+00-1.91107E+00-1.42640E+00 2.28895E+00 8.25657E-01
 -1      1941-4.79986E+00-4.44375E+00-2.88635E+00 9.58753E-01-1.94232E-01-2.81898E+00
 -1      1942 2.53365E+00 3.50998E+00 2.07540E+00 7.80520E-01 1.99894E+00-1.99568E+00
 -1      1943 2.20573E+00 3.49138E+00 3.33069E+00-5.23476E-01-1.69027E+00-1.88870E+00
 -1      1944-3.54819E+00-2.61724E+00-4.79121E-01-1.18137E+00-3.43839E+00-8.79883E-01
 -1      1945 3.73663E+00 3.38759E+00 3.58181E+00 1.87953E+00-1.75039E+00 2.16501E+00
 -1      1946 6.48191E+00 9.71112E+00 4.35587E+00 2.85016E-01 1.04700E+00-3.01440E+00
 -1      1947-1.59843E+01-1.30166E+01-1.08930E+01-1.77380E+00-3.99696E+00 1.05588E-01
 -1      1948-7.50236E+00-9.50651E+00-4.80610E+00-2.53026E-01 6.51843E-01 2.92100E+00
 -1      1949 1.49250E+00 1.09824E+00 1.33518E+00-1.84203E+00 1.85137E+00 1.62270E+00
 -1      1950-4.99606E+00-6.62427E+00-2.29836E+00-8.71773E-02 8.00230E-02 2.93907E+00
 -1      1951 2.18732E+00 4.52094E+00 2.27633E+00 7.12161E-01-4.69121E-01 2.61532E+00
 -1      1952-7.26688E+00-5.30828E+00-4.21323E+00 3.01425E-01-1.97838E+00-4.89778E-01
 -1      1953 2.95782E+00 2.31117E+00 2.63866E+00 8.52060E-01-1.75242E+00 1.24507E+00
 -1      1954-3.83032E+00-5.54123E+00-2.15467E+00-1.78483E+00 1.58165E+00-3.47941E+00
 -1      1955 2.55525E+00 4.87818E+00 3.41385E+00 1.36515E-01-7.68790E-01-2.91035E+00
 -1      1956 7.82590E+00 8.26107E+00 1.15248E+00 2.68803E+00-2.04539E+00 1.13032E+00
 -1      1957-1.12109E+01-9.48121E+00-8.19599E+00 1.38243E+00-2.88960E+00-2.00940E+00
 -1      1958 4.95211E+00 8.62279E+00 3.64366E+00-1.35102E+00 2.43824E+00 2.16404E+00
 -1      1959-4.45678E+00-6.68602E+00-3.63622E+00 9.06532E-01-4.32190E+00-1.37685E+00
 -1      1960-5.36409E+00-4.35963E+00-1.20755E+00 1.72231E+00-4.07255E+00-7.67098E-01
 -1      1961-7.70605E+00-1.19982E+01-5.02343E+00-1.43034E+00 1.79654E+00-2.87354E+00
 -1      1962-3.02173E+00-2.21896E+00-1.15547E+00-4.66294E-01 1.16715E-02-4.11195E+00
 -1      1963-9.53920E+00-1.45336E+01-8.73550E+00 4.84219E-01 3.47129E-01-3.27550E+00
 -1      1964 4.00597E+00 4.17068E+00 2.91414E+00 1.42949E-02-8.69211E-01-3.33311E+00
 -1      1965-5.71311E+00-6.16281E+00-2.66127E+00 6.89705E-01 1.64226E-01 3.04837E+00
 -1      1966-8.36345E+00-7.45489E+00-5.10843E+00-1.13400E+00-2.96539E+00-8.13410E-01
 -1      1967 8.80205E+00 7.55737E+00 3.50783E+00 7.82377E-01-1.07650E+00-8.42381E+00
 -1      1968-9.94546E+00-1.55240E+01-8.62542E+00-1.08937E+00-1.66668E+00 4.08781E+00
 -1      1969-4.15257E+00-2.74107E+00-1.32641E+00 5.81602E-02-2.92191E+00 3.16199E+00
 -1      1970-1.11664E+01-9.91383E+00-1.00189E+01-1.47873E+00 2.09541E+00-1.43291E+00
 -1      1971 5.47904E+00 4.80442E+00 3.95343E+00 1.51747E+00-1.68817E+00 1.41306E+00
 -1      1972 4.46041E+00 3.08394E+00 3.25794E+00-9.66525E-02 2.37764E+00-1.38996E+00
 -1      1973 3.93950E+00 3.08781E+00 3.12547E+00-4.95434E-01-2.68679E+00-1.78378E-01
 -1      1974 2.18921E-01 2.59145E+00 1.64807E+00-1.40668E+00-6.21597E-02 3.00719E+00
 -1      1975-9.70959E+00-7.23584E+00-5.96013E+00 1.08202E+00 1.83071E+00 2.34894E+00
 -1      1976 5.53216E-01 3.05452E+00 4.42007E+00 4.27208E-01-4.47894E-01-3.47049E+00
 -1      1977 8.12410E+00 6.66928E+00 4.15196E+00 3.09143E-01-3.86808E+00 7.98442E-01
 -1      1978-9.38303E+00-1.35354E+01-6.77300E+00-2.22583E+00 1.64129E+00-3.46293E+00
 -1      1979 8.59211E+00 7.85757E+00 6.69355E+00 1.43908E+00 1.58882E+00-1.92574E+00
 -1      1980-5.47262E+00-2.96876E+00-7.93550E-01 3.44174E-01 3.44158E+00-1.42669E+00
 -1      1981 4.82264E+00 9.11712E-01 8.37530E-01-1.27885E-01 3.07242E+00-5.19647E-01
 -1      1982-1.33667E+01-1.85043E+01-1.45714E+01 6.37271E-01 1.23548E-01 3.76874E+00
 -1      1983-4.47111E+00-6.26152E+00-3.20542E+00 4.12696E-01 2.41654E+00 2.32840E+00
 -1      1984-6.40950E+00-7.49652E+00-3.64791E+00 6.10822E-01 2.12764E+00 1.58297E+00
 -1      1985 3.86632E+00 4.42131E+00 4.71221E+00-6.54658E-01 1.67931E+00 1.82092E+00
 -1      1986-5.46517E+00-4.97106E+00-4.74742E+00-2.19143E+00-9.18306E-01 2.43212E+00
 -1      1987 2.42676E+00-3.12070E-01-2.98169E-02 3.97364E-01 2.57438E+00 3.64294E-01
 -1      1988 5.94758E+00 5.95019E+00 3.93780E+00-3.11971E-01-1.41144E+00 4.36217E+00
 -1      1989 8.20252E-01 2.82914E+00 1.59993E+00 9.01249E-01 4.08677E-01 2.66585E+00
 -1      1990 4.50158E+00 1.49596E+00 2.90726E+00-5.81037E-01-2.69775E+00 5.62790E+00
 -1      1991-8.43690E+00-5.37989E+00-2.73479E+00-1.57958E-02-2.80067E+00-1.28748E+00
 -1      1992 1.36220E+00 9.86762E-01 2.08682E+00-8.62024E-02 1.63574E+00-3.02934E+00
 -1      1993-1.22500E+01-8.65873E+00-7.43719E+00-1.33968E+00 2.89672E+00 2.61963E-01
 -1      1994 7.95908E+00 7.46620E+00 7.05644E+00-1.95711E-01 3.51361E+00 1.54138E-01
 -1      1995-6.58870E+00-5.34269E+00-5.45332E+00 3.78679E-01-2.27981E+00-1.56583E+00
 -1      1996-2.80383E+00-4.60907E+00-2.05631E+00-9.09468E-01 1.12015E+00 3.63961E+00
 -1      1997-2.43248E+00-3.48936E+00 2.85860E-01 3.34012E-01-2.18607E+00-2.87395E+00
 -1      1998-9.03479E+00-7.22782E+00-7.82247E+00-5.71662E-01-2.11021E+00 7.99668E-03
 -1      1999-3.73358E+00-3.60673E+00-3.12080E+00 1.36621E-01 2.31298E+00-1.72622E+00
 -1      2000-4.39919E+00-5.34805E+00-2.28580E+00-1.69921E+00-1.80131E-01-3.73348E+00
 -1      2001 3.50245E+00 4.61689E+00 4.36407E+00-1.60326E+00-2.20831E+00-3.55964E+00
 -1      2002-7.97791E+00-8.26806E+00-2.86708E+00-2.32386E+00 1.78353E+00-2.24002E+00
 -1      2003 5.21677E+00 9.07250E+00 5.96331E+00-6.23459E-01 1.81068E+00-2.20897E+00
 -1      2004 1.19269E+01 1.27610E+01 9.79052E+00-7.80057E-01-2.08293E+00-3.42556E+00
 -1      2005-1.87625E+01-1.47627E+01-1.48058E+01 2.93471E+00 3.79791E+00 6.73311E-01
 -1      2006 1.81950E+00 5.26356E+00 1.08205E+00 1.25017E+00-2.06409E+00 2.63498E+00
 -1      2007-5.41570E+00-5.28615E+00-3.05683E+00-8.74953E-01-1.68354E+00 3.49737E+00
 -1      2008 8.42835E-01-6.61396E+00-7.45772E-01 3.84103E-01-4.82312E+00-5.56032E-01
 -1      2009-3.05408E+00-3.63739E+00-1.02136E+00-2.80005E-01-4.19881E+00 3.28137E-01
 -1      2010 2.61166E+00 2.25958E+00 2.32307E+00-3.13560E-01 2.48165E+00-9.43222E-01
 -1      2011 4.09010E+00 6.54711E+00 3.76456E+00-7.33666E-01-6.88500E-01 3.39919E+00
 -1      2012-5.82821E+00-7.50458E+00-2.81063E+00-1.24481E+00 5.50246E-01-3.60972E+00
 -1      2013-5.94586E+00-6.47072E+00-2.58976E+00 1.25520E+00 4.04194E-01 3.37068E+00
 -1      2014 4.09606E+00 4.02501E+00 3.45030E+00 7.61675E-01-5.58250E-01 3.31821E+00
 -1      2015-7.49521E+00-5.72227E+00-4.07521E+00 8.39747E-01-2.24429E+00 1.57092E-01
 -1      2016-1.05551E+01-1.15174E+01-4.64356E+00 3.28324E+00-2.61763E+00-1.41543E+00
 -1      2017-4.34839E+00-3.83029E+00-1.02104E+00-1.51091E+00-1.80167E+00 4.25644E+00
 -1      2018 6.83925E+00 8.13076E+00 6.89976E+00-5.82241E-01-4.77104E+00-1.64064E+00
 -1      2019 5.71362E+00 6.77371E+00 4.33980E+00-6.54345E-01 5.06753E+00-2.45430E+00
 -1      2020-1.02730E+00 1.66701E+00 1.87237E+00 5.71943E-02-3.68263E-02-4.11322E+00
 -1      2021-6.10875E+00-6.80052E+00-6.34949E+00 3.07079E-01 3.05472E+00-2.62419E+00
 -1      2022-4.72463E+00-4.94127E+00-1.97382E+00 7.91738E-01-2.53044E+00 4.24347E+00
 -1      2023 3.29196E+00 2.88833E+00-4.01946E-01 2.88631E+00-1.86806E+00 3.09809E+00
 -1      2024-6.67926E+00-4.29904E+00 1.61381E-01 2.17252E-01 2.10013E+00 1.64358E+00
 -1      2025-5.82993E+00-5.05358E+00-4.64274E+00 3.28014E-01 1.97672E+00 1.17371E+00
 -1      2026 5.86065E+00 6.21737E+00 4.67593E+00 1.33515E+00-1.93740E+00 2.01051E+00
 -1      2027 5.27310E+00 6.26227E+00 3.06489E+00-1.23542E+00-3.50498E+00-8.68997E-01
 -1      2028 9.12719E+00 1.12432E+01 7.12331E+00 8.47459E-02 2.15159E+00 4.37228E+00
 -1      2029 2.19727E+00 2.97007E-02 2.46281E+00 5.30007E-02-3.60973E+00-1.55001E+00
 -1      2030-2.74954E+00-2.95533E+00-2.46025E+00 8.17254E-01 5.11553E+00 3.67799E-01
 -1      2031 4.23883E+00 4.15901E+00 4.72787E+00 4.84103E-01 1.04216E+00 3.06364E+00
 -1      2032-1.54921E+00-1.88376E+00 2.41393E+00 9.75041E-02 2.06492E+00-4.20650E+00
 -1      2033-2.97062E+00-4.27538E+00 9.36816E-02 1.16941E+00-4.56880E-01-4.27819E+00
 -1      2034 2.51229E+00 1.33148E+00 6.04091E-01 1.69949E+00-1.61819E+00-4.43916E+00
 -1      2035-2.61454E+00-6.19534E-01 1.05139E+00-4.49823E-01-2.79587E+00 2.95384E+00
 -1      2036-1.83956E+00-1.81622E+00 1.62610E+00-1.42591E+00-2.81584E+00 4.52661E+00
 -1      2037 2.26747E+00 5.04748E-01 1.06565E+00 1.48616E-01 3.27257E+00-9.14961E-01
 -1      2038 4.69306E+00 4.51352E+00 5.75357E+00-1.23484E+00 2.29182E+00 1.77668E+00
 -1      2039 1.02604E+01 8.38394E+00 6.61665E+00 1.03819E+00 1.86875E+00-3.14664E+00
 -1      2040 7.90441E+00 8.11254E+00 7.58374E+00-2.49440E-01-4.12202E+00-1.20180E+00
 -1      2041-3.61412E+00-4.30747E+00-1.00701E+00 8.33808E-01-1.13431E+00-3.11053E+00
 -1      2042 4.89664E+00 7.11688E+00 4.87675E+00-1.66045E-01-5.98641E-01-2.32035E+00
 -1      2043 6.54842E+00 3.56140E+00 1.26155E+00-1.62389E+00-3.64507E+00-3.60249E-01
 -1      2044-7.00744E+00-5.13637E+00-3.74353E+00 1.47013E+00 3.69422E+00-8.42817E-01
 -1      2045 2.47895E+00 5.28776E-01 2.13647E+00 3.88756E-01-3.00568E+00-2.02673E-01
 -1      2046-3.36628E+00-3.54353E+00-1.79451E+00 6.66861E-01-5.22725E+00-3.46974E+00
 -1      2047 6.14765E+00 8.15390E+00-2.44693E+00-1.07563E+00-5.48405E+00 1.84911E+00
 -1      2048-3.29482E+00-5.63747E+00 1.16517E+00 1.88902E+00-5.23472E+00-2.18283E+00
 -1      2049 9.97981E+00 1.42646E+01 4.85233E+00-7.07414E-01-9.78379E-01-4.73309E+00
 -1      2050 8.01595E+00 4.95686E+00 3.63808E+00 8.38062E-01 7.88531E-01 7.57135E+00
 -1      2051-1.57946E+00-2.04843E+00 6.87251E-01-1.07003E-01-3.99731E+00-1.08253E+00
 -1      2052-1.21441E+01-1.00074E+01-7.58756E+00-2.27242E+00-2.29780E+00 3.14878E+00
 -1      2053 3.39680E+00 1.72974E+00 4.17600E+00-1.13412E+00 2.95157E+00 2.36357E+00
 -1      2054-6.27551E+00-7.31968E+00-1.68904E+00 1.95885E+00 1.65157E+00 1.49544E+00
 -1      2055-2.05585E+00-3.90556E-01 6.94419E-01 4.69197E-01 2.31174E+00-3.73629E+00
 -1      2056-9.29018E+00-1.11026E+01-5.30112E+00 2.41782E+00 1.24294E+00 2.63860E+00
 -1      2057-2.66120E+00-3.32390E+00-1.57386E+00-2.96289E-01 1.66796E+00-2.97712E+00
 -1      2058-2.85014E+00-2.86354E+00-2.14853E+00-4.09692E-01-1.37330E+00 5.12122E+00
 -1      2059-3.28087E+00-6.07899E+00-6.99077E-01-1.59609E-01 2.38759E+00-3.23050E+00
 -3
 9999
